<?xml version="1.0"?>
<VTKFile type="UnstructuredGrid" version="2.2">
  <UnstructuredGrid>
    <Piece NumberOfPoints="499" NumberOfCells="917">
      <Points>
        <DataArray type="Float64" NumberOfComponents="3" format="ascii">0.05000000000020799 1 0 0 1 0 0.03513092890309316 0.9648212788283612 0 0 0.9521428571430245 0 0.07410899581881714 0.9521996145697516 0 0.0361950190077511 0.926345089326855 0 0.100000000000416 1 0 0 0.9042857142860055 0 0.1248529153442678 0.9561208500116615 0 0.06687247752044113 0.9046953647351927 0 0.03995967849156 0.881119550396968 0 0.1500000000006241 1 0 0.1041851337273436 0.9107482218710892 0 0 0.8564285714290331 0 0.1748681729373598 0.9567842847419447 0 0.1499719704252491 0.9138026589040514 0 0.07966333294007068 0.8634453161395085 0 0.03840827856334452 0.8348464763450628 0 0.2000000000008322 1 0 0.1268034267688658 0.8708417799845659 0 0 0.8085714285720079 0 0.2246404670128213 0.9567275213498631 0 0.199536017474191 0.9144910844015494 0 0.1774405495477363 0.8724438877320291 0 0.1115930541567904 0.8340250335708381 0 0.07602048545033724 0.811739086282899 0 0.03820291853201247 0.7868281735798708 0 0.2500000000010403 1 0 0.1536069855566536 0.8323862548060764 0 0 0.76071428571502 0 0.274544849531107 0.9571412529866379 0 0.2492476249256357 0.916857938026587 0 0.2272140591406199 0.8769016055796997 0 0.2081527953300276 0.8297369538998417 0 0.1255954213659179 0.7936705302939769 0 0.07758026515802879 0.7652213662742622 0 0.03884761601218292 0.7397151781243874 0 0.3000000000012483 1 0 0.175286939951686 0.8004655259568636 0 0 0.7128571428580415 0 0.3245071376296323 0.9562490784030613 0 0.2979885698974594 0.9139702903785847 0 0.2737959673518783 0.8848766796962217 0 0.2626312744261911 0.8461018491124014 0 0.2097325536779474 0.7805104207046711 0 0.164818204817115 0.7611831458589253 0 0.1196886595494186 0.7452361389599895 0 0.07859301769409303 0.7202362119531923 0 0.03870949468896325 0.692433888365938 0 0.3500000000014564 1 0 0.2542904859310008 0.8006402831531646 0 0 0.6650000000010197 0 0.3732848990323356 0.9562741347744623 0 0.3430309435814727 0.9129205905496912 0 0.3110404328847164 0.8694034880065864 0 0.3000150626948284 0.8184826618036884 0 0.2471551147809449 0.7522626095320597 0 0.2020763710332309 0.733897979336307 0 0.1568569205884695 0.71622281122467 0 0.113835060256928 0.697987830185514 0 0.07568885230138958 0.6720574194629299 0 0.04144550146682792 0.6410714285723863 0 0.4000000000016644 1 0 0.2926274224893437 0.7702113319897257 0 0 0.6171428571437529 0 0.4236036934500707 0.9568372909023879 0 0.394411161023929 0.9070960648063189 0 0.3546636458860677 0.874445691090769 0 0.3451575663551179 0.8350266534147477 0 0.3376980222706001 0.7880727074899038 0 0.2853363779165813 0.7218541730468203 0 0.2400287451422523 0.7039859303164266 0 0.1948470391404619 0.6860936010816713 0 0.1497949144274875 0.6682256800295041 0 0.1061321103674325 0.6502253569079232 0 0.07541792933409287 0.6303898007926256 0 0.04961450471505027 0.5940262793289079 0 0.4500000000018723 1 0 0.3305659938772566 0.7396188154265391 0 0 0.5692857142864644 0 0.4758964960492805 0.9493846211629946 0 0.4410098506832094 0.9165864644123372 0 0.3892861757015418 0.8540509040332174 0 0.3821832294279252 0.8063475781044814 0 0.3752774916967999 0.7579586913698986 0 0.2781204192344732 0.6736713706472243 0 0.3234794392104347 0.6915195081662607 0 0.2328404557504745 0.6559009418005147 0 0.1876968614826666 0.6381499384283755 0 0.142715012075488 0.6204077640472256 0 0.1005662488043622 0.6023721044574537 0 0.04206380351944367 0.5412212912820338 0 0.5000000000020587 1 0 0.4337520241174215 0.8750620750857456 0 0.368791245118024 0.7092338756751919 0 0.0902661936471861 0.5557516065185173 0 0 0.5214285714291634 0 0.5266930262255451 0.9577040566985133 0 0.4773858787753457 0.8945522701042388 0 0.42603641734557 0.8262253125791039 0 0.4196437031979213 0.7767511997400177 0 0.4132697462358529 0.7276259226651194 0 0.3162199340444587 0.6433692036322316 0 0.2708654963859678 0.6256844161274695 0 0.3615678414775954 0.6611615781870406 0 0.2256000888907486 0.6080341801986939 0 0.1805010277595153 0.5903704404588765 0 0.1356440455194398 0.5727033465322263 0 0.04103489332827582 0.4934411816477986 0 0.08562613752153957 0.5079272775264057 0 0.5500000000017335 1 0 0.5103030972520609 0.9186839227296788 0 0.4720833566614148 0.8442931670629876 0 0.4066678558577453 0.6789402176356752 0 0.1289803516704175 0.5250649098795224 0 0 0.473571428571878 0 0.5752752136848833 0.9569097132206095 0 0.5508603764618245 0.9141024127607222 0 0.5219719278533504 0.8698575897634987 0 0.4649407447154891 0.7954119677624074 0 0.4582687993479806 0.7462771029374897 0 0.4513259016591897 0.697279570265279 0 0.3542122391308095 0.6130615663939744 0 0.3090289866823283 0.5953030791794891 0 0.2634314318683637 0.5778238959799236 0 0.3993930308094567 0.6307953933932091 0 0.2182652600975036 0.5602754483970037 0 0.1732704773334509 0.54273583963185 0 0.04122743597175937 0.4491978857044887 0 0.08224879504483704 0.4631564887254319 0 0.1230752251335257 0.4783671031741927 0 0.6000000000013869 1 0 0.5106777461414179 0.8134899010470519 0 0.4444333030969705 0.648794776220145 0 0.1661483356906757 0.4952026776015971 0 0 0.4257142857145927 0 0.6249375054763575 0.9567351874484922 0 0.5999875225852872 0.9141994721822249 0 0.5750025176774215 0.8742664631810853 0 0.5575814721098975 0.8290646914053474 0 0.5035108708225908 0.7646558429522774 0 0.495985697106946 0.7159111549925117 0 0.4893760548400253 0.6669555717937916 0 0.3466833801224275 0.5650698416036055 0 0.3921159579544153 0.5828026659541711 0 0.301309531291265 0.5474891438123933 0 0.2555687065637616 0.5302390893091196 0 0.4373702269628356 0.6005328879487956 0 0.2108632369834836 0.5127896670970301 0 0.04144550146695013 0.4017857142859501 0 0.07968521044807816 0.4200870737178407 0 0.1203120635296408 0.4318770967589463 0 0.160639086514847 0.4479506696514129 0 0.6500000000010401 1 0 0.5492263621759672 0.7827055683827238 0 0.4824859345068966 0.6186097348895609 0 0.2037594965066974 0.4654066320256174 0 0 0.3778571428573072 0 0.674896110650705 0.9567722798507268 0 0.6498136263772327 0.913598553402392 0 0.6244133933094391 0.8734554064534922 0 0.5993586872026373 0.840445492940202 0 0.5958950502924467 0.8003389127999767 0 0.5418654881251074 0.7339642660663357 0 0.5345450931264917 0.6852995024953586 0 0.5275088252216142 0.6367047424858827 0 0.3842708257720842 0.534907985673585 0 0.3386578007531226 0.5175332676099329 0 0.4300883094696963 0.5525370010625785 0 0.2931918677694402 0.5001572922526958 0 0.2481671457088126 0.4828783156169932 0 0.475319601271407 0.5702158747423832 0 0.03484605209257916 0.3625675767021625 0 0.07696784703212768 0.3675452770069566 0 0.1105137288535537 0.3923336515987232 0 0.1511271422064749 0.4006496260660649 0 0.1959208358621154 0.4180446626823463 0 0.7000000000006934 1 0 0.5877866255106797 0.7519475828532555 0 0.5203812288590162 0.5882834172209981 0 0.2409613513481962 0.4357286053491579 0 0 0.33 0 0.724891090652677 0.9566667631984829 0 0.6997344413962299 0.9136331750549949 0 0.6745484027731368 0.8714293349709561 0 0.6439010026239814 0.825101990861109 0 0.6353628154969959 0.771315872281386 0 0.5804292693690369 0.7032283138953536 0 0.5731606146943008 0.6545802367352462 0 0.565854989685187 0.6061218828274006 0 0.4224288197925473 0.5046972877650071 0 0.3762640334270305 0.4872904233554436 0 0.3302271661364882 0.4702849189618749 0 0.4679696066406587 0.5222798238139876 0 0.2854575302149586 0.452976689901761 0 0.5132459012042151 0.5399477844827236 0 0.04696389673752063 0.3266410758052752 0 0.1302180653734649 0.3481745399251123 0 0.1838323017732336 0.3691134770867914 0 0.2325894971651228 0.3881240567613186 0 0.7500000000003466 1 0 0.6263195352327641 0.7211820383005905 0 0.5585784612114397 0.5577741012828001 0 0.2781610924996478 0.4056319353587261 0 0.09297174401738248 0.3166326812165262 0 0.7749489766573447 0.9566683333612662 0 0.7497053230138344 0.913526687966066 0 0.7245253772213189 0.870566517383806 0 0.6989022689736435 0.8302815593471853 0 0.6802594766146011 0.7877304590234848 0 0.6722697424611344 0.7391787023214424 0 0.618960153106705 0.6724306840811045 0 0.6115050321784075 0.6238849052899899 0 0.6040680550400092 0.575542237147639 0 0.4607019327879757 0.4743921944551273 0 0.4152046040730573 0.456922666581942 0 0.3692047516273975 0.4396887134023254 0 0.3235854899802793 0.4221968616803735 0 0.505940822663687 0.4919411014642351 0 0.5512852583421985 0.5095109824311198 0 0.1370869546624442 0.3001785582971858 0 0.1786539192065361 0.3224186388405867 0 0.2246833711649087 0.3419232673505651 0 0.2719780303426351 0.3583023927403249 0 0.7999999999999998 1 0 0.6648710704638541 0.6902995260787359 0 0.5967514579609413 0.5271784300628641 0 0.3175980574646319 0.3747962689052973 0 0.8249972283074373 0.9567005096407395 0 0.8000000000214061 0.9134005586302651 0 0.7741320521340302 0.8702247801675806 0 0.7472034036425207 0.8284835168833735 0 0.7213941584378553 0.7961634157920934 0 0.7173784428133689 0.755663501350081 0 0.7108671962775865 0.7082792607378261 0 0.6573397108498944 0.6416536717116432 0 0.6497028992937672 0.5932018612727304 0 0.6422373747076391 0.5448824759221295 0 0.4533351606933509 0.4267083734633002 0 0.4985365307124627 0.4440797289528722 0 0.407805626621391 0.4093342566009655 0 0.3627464168017612 0.3915727268512053 0 0.5438686751791522 0.4613942304312385 0 0.5892946723529652 0.4789363751658527 0 0.1784114702234055 0.2776136655367003 0 0.2204641879194986 0.2943740752968956 0 0.265962570520931 0.3108145133996015 0 0.3127460581380046 0.3268616019746677 0 0.8499999999996529 1 0 0.7034124578264757 0.6593474729189638 0 0.6348399631803484 0.4965659505888438 0 0.3563712570254639 0.3442120948264864 0 0.8745941861227216 0.9569270797574473 0 0.8499623787952234 0.9134301182908064 0 0.8250166599577652 0.8701727223253988 0 0.7982413309989678 0.8254831970845303 0 0.7657708635398157 0.7773948317348758 0 0.7565703892384481 0.7257282063592492 0 0.7494218753175259 0.6772258670682465 0 0.6957508536233912 0.6107430092142037 0 0.6879788597665075 0.5625271756817118 0 0.6804898825789227 0.5142673789520606 0 0.4460374277384239 0.3791980408973997 0 0.4909260545674921 0.3965594369578489 0 0.5360966459922666 0.4137834083793408 0 0.4006942840588879 0.3618441429158201 0 0.5816129686757783 0.4308977456278196 0 0.6274097107793729 0.4480709118532313 0 0.2161040427417705 0.249397359069143 0 0.2595599133479782 0.2621759507304582 0 0.304168867484276 0.2789735885008043 0 0.3493425418570766 0.2978135472169009 0 0.8999999999995836 1 0 0.741913023997583 0.628474375818967 0 0.6730773330265718 0.4658326049131283 0 0.3941764788033703 0.3144694739864603 0 0.9230154276309169 0.9578184332567493 0 0.8995900820035159 0.9136134173563886 0 0.8749110776041663 0.8701826134774241 0 0.8499579943012169 0.8269806590258091 0 0.8244404892466347 0.7841647116337307 0 0.8030229930619492 0.7418538584071406 0 0.7953320651339935 0.6949122650408108 0 0.78809040367742 0.6462364172145866 0 0.734109732063746 0.580278497889988 0 0.7262265932743412 0.5319272997788032 0 0.718815557824156 0.4836232766701583 0 0.4388288250208023 0.3317292599410152 0 0.4835987679260488 0.3490865806244365 0 0.528437405247571 0.3663609596673464 0 0.5736938178580255 0.3834995145045817 0 0.6194516903018314 0.400308296867158 0 0.665584745794856 0.417353114896145 0 0.2493973600045941 0.2161040416622024 0 0.3014779884372364 0.2250492180381653 0 0.3453804062146847 0.2530802200486362 0 0.3883542653998898 0.2707523338266372 0 0.9499999999997918 1 0 0.780344378963993 0.5977343282467746 0 0.7112323207291326 0.4354168533265331 0 0.4326070324113823 0.2858030256313046 0 0.9633974596214028 0.9633974596214232 0 0.9537500969915165 0.9186838564016711 0 0.9238250460634797 0.870987318292384 0 0.8994599698297355 0.8274763618552561 0 0.8768841374239524 0.7792609989663024 0 0.8474927391026831 0.7506271313388639 0 0.8406001730990111 0.7100115166784384 0 0.8343035510011385 0.6642491580811817 0 0.8267590253512209 0.6154645337228102 0 0.7724441569275921 0.5496435570125701 0 0.7645843279963136 0.5013234363698983 0 0.757148079022322 0.4529537312652758 0 0.476384083239413 0.3016499740085894 0 0.5211898870111363 0.3190025212931111 0 0.5660329580997208 0.3363516191937317 0 0.6111595150413963 0.3534009934369827 0 0.6570300145151909 0.3705221371439411 0 0.7031370481958983 0.3878193280723148 0 0.2776136661433222 0.1784114692794835 0 0.3541684505043143 0.209371146199105 0 0.3830606478882681 0.235654994256653 0 0.4231612569915963 0.2416703067311571 0 1 1 0 0.8188330620552621 0.5674912118259678 0 0.7495439220025363 0.4046734992056567 0 0.4697775371013265 0.2548286625532747 0 0.3246874632121147 0.1751933095060992 0 1 0.9499999999998684 0 0.9664226636212995 0.8749703662851475 0 0.9523733688018753 0.8268157568787676 0 0.9188081947837232 0.7906308244908496 0 0.8807632350880433 0.7286194553146097 0 0.878177770602961 0.6805724735648916 0 0.8731030344091485 0.6333277285564698 0 0.8652476645936477 0.5847424723383716 0 0.8105668472118974 0.5191065679639894 0 0.8030716514604521 0.4708427378519784 0 0.7955547151831542 0.4221172220708018 0 0.5139263500600004 0.2714606292836503 0 0.5588336206480595 0.2889189560626115 0 0.6036962677730324 0.3061923345260538 0 0.6488318351070149 0.3237233947999364 0 0.6946671658536379 0.3403767099889635 0 0.7411216139937198 0.356881251901492 0 0.3001785586548894 0.1370869538791826 0 0.37330312038066 0.1691858237405362 0 0.4042388603308554 0.2034009644777292 0 0.4581070242593008 0.2035988882046759 0 1 0.8999999999997368 0 0.918906593079417 0.7488186798784017 0 0.8571044824721483 0.5368998353416035 0 0.7878692848222902 0.3736284951531845 0 0.5065924827889923 0.2238676632737359 0 0.3449223017602951 0.1289574236560848 0 1 0.8499999999996051 0 0.9571282477744889 0.7738267918156302 0 0.920069524804856 0.7005040323578233 0 0.9186270959229106 0.6521663050478266 0 0.9124379079467806 0.603785910087019 0 0.9054635139433751 0.55450681241147 0 0.849067641781398 0.488667788984871 0 0.8416159620374173 0.4399555377510764 0 0.8328683549400495 0.392064668023982 0 0.5515680032260279 0.2401990668305441 0 0.5964645062943734 0.2585770262438948 0 0.6414834476580402 0.2762879535640544 0 0.6864317575674216 0.29372356309423 0 0.7324421138029981 0.3103341597602719 0 0.7784085558900534 0.3272982818102631 0 0.3166326813748362 0.09297174347822794 0 0.3929717676267109 0.1167887598260344 0 0.4216564449614365 0.1572836616872056 0 0.4983791934496301 0.1833212149152747 0 1 0.7999999999994734 0 0.9581862093087803 0.7255133309721948 0 0.8950759037412062 0.506870153398207 0 0.8242196773111626 0.3450303169915223 0 0.5448713764371702 0.1888762659389487 0 0.3617907924266183 0.08269967623412104 0 0.4699046351535744 0.1526098804548101 0 1 0.7499999999993417 0 0.9589460800259455 0.6762408094108987 0 0.9575626472795324 0.6255485146274588 0 0.9550643320008196 0.5757790101167759 0 0.9478507929056483 0.5189634931868435 0 0.8853219818920978 0.4582137095366022 0 0.8779444774683731 0.4094648867886694 0 0.8701345437572787 0.3627316696908243 0 0.589105384066638 0.2110824212550169 0 0.6341330742377657 0.2284302894855084 0 0.6792369990873756 0.2460079916400885 0 0.7242582844952654 0.2632610800873765 0 0.7698361082444842 0.2807553481075909 0 0.8154782568528546 0.2991579890336907 0 0.326641075841912 0.04696389648270559 0 0.4142888058427296 0.07251518781503151 0 0.440676731255599 0.114134021572712 0 0.5168801218180583 0.1470041548057166 0 1 0.69999999999921 0 0.9219435005841695 0.47651675518826 0 0.8612011697094074 0.3173646795494339 0 0.5892646840548802 0.1727885502712488 0 0.3708225666116094 0.03939431506407334 0 0.4893278087592239 0.1106414583296346 0 0.5645396022604375 0.1435461792718609 0 1 0.6499999999990784 0 1 0.5999999999989468 0 1 0.5499999999988151 0 0.9616536935884695 0.4674872418958805 0 0.9250504408426337 0.4279082295776494 0 0.90881654453339 0.3819179637088064 0 0.914867088686859 0.3381050554038871 0 0.6267845149670198 0.180450679200743 0 0.6718464940743685 0.1980937504159606 0 0.716987083893261 0.2156550603267176 0 0.7623368785826298 0.2333292254875805 0 0.8078625121289195 0.2510625940183573 0 0.8536486638359789 0.2687313410837959 0 0.33 0 0 0.4094406882040698 0.03136644803562329 0 0.4676232430386638 0.07296848293992911 0 0.5392515690292341 0.1093735579707825 0 1 0.4999999999986943 0 0.8992119805482642 0.28773334626789 0 0.6142498558102886 0.1353150002618722 0 0.3778571428570112 0 0 0.4486868510003367 0.03928137366509424 0 0.5152592613745919 0.07184651528219768 0 0.5838904184840101 0.1115969540784974 0 1 0.4499999999988292 0 0.9680613345620259 0.4248777291790132 0 0.9536025383790262 0.3789931744237323 0 0.9466851718195202 0.3022038190480305 0 0.6644381730576703 0.1502741351592413 0 0.7095290995671799 0.16776356037367 0 0.7548056712567826 0.1852538952936302 0 0.8003086927059562 0.2027759252198748 0 0.8457866934408652 0.2198966448859608 0 0.8901334485088115 0.2375309768144317 0 0.4257142857140301 0 0 0.4952039327295464 0.03684388382227871 0 0.5675803550788541 0.07702500873746515 0 0.9640319760970407 0.3377015551511975 0 0.9334617624587473 0.2570631966839577 0 0.6570475121448006 0.1026367878692143 0 0.6118050069037698 0.08596204942671389 0 0.4735714285710134 0 0 0.5446542409646837 0.03696693104645128 0 1 0.3999999999989749 0 1 0.3499999999991206 0 0.9701291646929993 0.2710504430431381 0 1 0.2999999999992664 0 0.702025455422399 0.1199737237192896 0 0.7470817589161834 0.13835330809273 0 0.7927531905176651 0.1546240691368267 0 0.8383218999886146 0.1721595169215391 0 0.8827011729865124 0.1864836263867261 0 0.9252313981495868 0.2064910298955722 0 0.521428571427989 0 0 0.5943085483288604 0.04303555202403866 0 0.9646017991355681 0.2270273260952576 0 0.6955284413844136 0.07398882878313957 0 0.6471699690902021 0.0482164938206425 0 0.56928571428498 0 0 1 0.2499999999994121 0 0.7393222201778642 0.09316181803705562 0 0.7840549165552108 0.1093427819959081 0 0.8303332536030196 0.1250364830811115 0 0.8762293302097778 0.1383647273111109 0 0.9193144157148823 0.155458893568569 0 0.9611757900929991 0.1753821598244915 0 0.6171428571420018 0 0 1 0.1999999999995579 0 0.7360489656346282 0.04426810495351357 0 0.6889285714275925 0.03241856974373028 0 0.6649999999989586 0 0 0.7711632887477715 0.07405684594402388 0 0.8152290215026429 0.08084712167624961 0 0.8675338713321012 0.08916625866731223 0 0.9132662022212985 0.1072442210041392 0 0.9585164608801311 0.1254337829499267 0 1 0.1499999999997036 0 0.7128571428562255 0 0 0.7889359233385458 0.04063652854145137 0 0.8365568887352566 0.04307800356580025 0 0.9063550691765649 0.06835625662377405 0 0.9530928939766317 0.07351297874156899 0 1 0.09999999999981467 0 0.760714285713514 0 0 0.8803571428567869 0.04144550146694864 0 0.808571428570815 0 0 0.8564285714281437 0 0 0.927458138973462 0.03691960757334206 0 1 0.04999999999989965 0 0.904285714285429 0 0 0.9656625612147166 0.0344323713537045 0 0.9521428571427146 0 0 1 0 0 </DataArray>
      </Points>
      <Cells>
        <DataArray type="Int32" Name="connectivity" format="ascii">0 1 2 1 3 2 4 0 2 3 5 2 6 0 4 5 4 2 3 7 5 6 4 8 4 5 9 7 10 5 11 6 8 8 4 12 12 4 9 5 10 9 7 13 10 14 11 8 15 8 12 16 12 9 10 16 9 10 13 17 18 11 14 14 8 15 19 15 12 19 12 16 10 17 16 13 20 17 18 14 21 14 15 22 23 15 19 24 19 16 16 17 25 20 26 17 27 18 21 14 22 21 22 15 23 23 19 28 28 19 24 24 16 25 17 26 25 20 29 26 27 21 30 21 22 31 22 23 32 23 28 33 28 24 34 34 24 25 26 35 25 26 29 36 37 27 30 21 31 30 31 22 32 23 33 32 33 28 38 28 34 38 35 34 25 35 26 36 29 39 36 40 37 30 30 31 41 31 32 42 33 43 32 44 33 38 34 45 38 46 34 35 47 35 36 39 48 36 49 37 40 40 30 41 41 31 42 32 43 42 50 43 33 44 50 33 45 44 38 46 45 34 47 46 35 48 47 36 39 51 48 49 40 52 40 41 53 54 41 42 43 54 42 50 55 43 56 50 44 57 44 45 46 58 45 59 46 47 47 48 60 51 61 48 62 49 52 40 53 52 53 41 54 43 55 54 50 63 55 56 63 50 56 44 57 58 57 45 59 58 46 59 47 60 48 61 60 51 64 61 65 62 52 52 53 66 53 54 67 55 68 54 55 63 69 56 70 63 71 56 57 58 72 57 73 58 59 74 59 60 60 61 75 61 64 76 77 62 65 65 52 66 66 53 67 54 68 67 55 69 68 69 63 78 71 70 56 63 70 78 72 71 57 73 72 58 73 59 74 74 60 75 61 76 75 64 79 76 77 65 80 65 66 81 82 66 67 68 82 67 68 69 83 69 78 84 85 70 71 70 86 78 87 71 72 88 72 73 89 73 74 90 74 75 76 90 75 76 79 91 92 77 80 80 65 81 66 93 81 93 66 82 82 68 83 69 84 83 78 94 84 85 86 70 85 71 87 86 94 78 87 72 88 88 73 89 89 74 90 95 90 76 79 96 91 95 76 91 97 92 80 98 80 81 93 98 81 99 93 82 99 82 83 84 100 83 94 101 84 102 86 85 85 87 103 86 104 94 87 88 105 88 89 106 107 89 90 95 107 90 96 108 91 109 95 91 110 92 97 97 80 111 80 98 111 93 112 98 99 112 93 100 99 83 101 100 84 94 113 101 102 104 86 102 85 103 103 87 105 94 104 113 88 106 105 106 89 107 114 107 95 96 115 108 108 109 91 114 95 109 110 97 116 117 97 111 98 118 111 98 112 118 119 112 99 119 99 100 100 101 120 101 113 121 102 122 104 123 102 103 124 103 105 113 104 125 106 126 105 106 107 127 127 107 114 108 115 128 109 108 129 130 114 109 131 110 116 116 97 117 118 117 111 112 132 118 119 132 112 119 100 120 120 101 121 113 133 121 123 122 102 104 122 125 124 123 103 126 124 105 113 125 133 106 127 126 127 114 134 115 135 128 108 128 129 130 109 129 134 114 130 136 131 116 137 116 117 117 118 138 132 139 118 140 132 119 140 119 120 141 120 121 133 142 121 143 122 123 122 144 125 145 123 124 124 126 146 125 147 133 126 127 148 127 134 148 135 149 128 128 150 129 130 129 151 134 130 152 153 131 136 136 116 137 137 117 138 118 139 138 132 154 139 140 154 132 141 140 120 142 141 121 155 142 133 143 144 122 143 123 145 144 147 125 145 124 146 126 148 146 147 155 133 134 156 148 135 157 149 128 149 150 129 150 151 152 130 151 134 152 156 153 136 158 136 137 159 160 137 138 138 139 161 139 154 162 163 154 140 163 140 141 164 141 142 165 142 155 166 144 143 143 145 167 144 168 147 145 146 169 148 170 146 147 171 155 156 170 148 149 157 172 149 173 150 150 174 151 175 152 151 156 152 176 177 153 158 136 159 158 159 137 160 160 138 161 139 162 161 154 178 162 163 178 154 163 141 164 165 164 142 179 165 155 166 168 144 166 143 167 145 169 167 147 168 171 146 170 169 171 179 155 156 180 170 157 181 172 173 149 172 150 173 174 174 175 151 176 152 175 156 176 180 182 177 158 159 183 158 159 160 184 185 160 161 162 185 161 162 178 186 187 178 163 187 163 164 165 188 164 189 165 179 190 168 166 191 166 167 169 192 167 168 193 171 170 194 169 195 179 171 170 180 194 181 196 172 196 173 172 173 197 174 197 175 174 176 175 198 180 176 199 200 177 182 183 182 158 159 184 183 184 160 185 162 186 185 178 201 186 187 201 178 188 187 164 189 188 165 202 189 179 190 193 168 190 166 191 192 191 167 194 192 169 193 195 171 195 202 179 194 180 203 196 204 173 173 204 197 175 197 198 199 176 198 203 180 199 200 182 205 182 183 206 183 184 207 184 185 208 186 209 185 201 210 186 187 211 201 188 211 187 189 212 188 202 213 189 190 214 193 215 190 191 192 216 191 194 217 192 193 218 195 195 219 202 194 203 217 204 220 197 197 221 198 222 199 198 223 203 199 224 200 205 205 182 206 183 207 206 207 184 208 185 209 208 210 209 186 201 225 210 201 211 225 188 212 211 189 213 212 202 226 213 215 214 190 193 214 218 216 215 191 217 216 192 195 218 219 202 219 226 217 203 227 220 221 197 221 222 198 222 223 199 203 223 227 228 224 205 229 205 206 207 230 206 231 207 208 208 209 232 210 233 209 210 225 234 225 211 235 211 212 235 212 213 236 213 226 237 215 238 214 218 214 239 240 215 216 216 217 241 219 218 242 226 219 243 241 217 227 220 244 221 221 245 222 246 223 222 223 247 227 248 224 228 228 205 229 230 229 206 207 231 230 231 208 232 209 233 232 210 234 233 234 225 249 249 225 235 235 212 236 213 237 236 237 226 250 240 238 215 214 238 239 242 218 239 240 216 241 219 242 243 250 226 243 251 241 227 221 244 245 245 246 222 246 247 223 247 251 227 248 228 252 228 229 253 254 229 230 231 255 230 256 231 232 233 256 232 233 234 257 258 234 249 259 249 235 259 235 236 236 237 260 237 250 261 240 262 238 239 238 263 264 242 239 265 240 241 242 266 243 267 250 243 251 265 241 244 268 245 245 269 246 246 270 247 247 271 251 272 248 252 228 253 252 253 229 254 255 254 230 256 255 231 233 257 256 257 234 258 273 258 249 273 249 259 259 236 260 237 261 260 261 250 274 265 262 240 238 262 263 264 239 263 266 242 264 266 267 243 274 250 267 251 275 265 268 269 245 246 269 270 247 270 271 251 271 275 276 272 252 253 277 252 253 254 278 279 254 255 255 256 280 256 257 281 257 258 282 283 258 273 273 259 284 259 260 284 261 285 260 261 274 286 265 287 262 262 288 263 264 263 289 266 264 290 291 267 266 292 274 267 265 275 287 268 293 269 270 269 294 271 270 295 275 271 296 297 272 276 277 276 252 253 278 277 278 254 279 279 255 280 280 256 281 257 282 281 282 258 283 283 273 298 298 273 284 260 285 284 261 286 285 286 274 299 262 287 288 263 288 289 264 289 290 291 266 290 292 267 291 299 274 292 287 275 300 269 293 294 270 294 295 296 271 295 275 296 300 297 276 301 276 277 302 277 278 303 278 279 304 279 280 305 280 281 306 282 307 281 282 283 308 309 283 298 298 284 310 284 285 310 285 286 311 286 299 312 288 287 313 288 314 289 289 315 290 291 290 316 292 291 317 299 292 318 313 287 300 293 319 294 294 320 295 296 295 321 300 296 322 323 297 301 276 302 301 277 303 302 303 278 304 279 305 304 305 280 306 281 307 306 282 308 307 308 283 309 309 298 324 298 310 324 285 311 310 286 312 311 312 299 325 288 313 314 314 315 289 290 315 316 291 316 317 318 292 317 325 299 318 326 313 300 319 327 294 327 320 294 295 320 321 322 296 321 326 300 322 328 323 301 302 328 301 302 303 329 330 303 304 304 305 331 332 305 306 307 332 306 307 308 333 308 309 334 335 309 324 310 336 324 311 336 310 312 337 311 312 325 338 314 313 339 314 340 315 315 341 316 316 342 317 343 318 317 344 325 318 339 313 326 319 345 327 327 346 320 320 347 321 347 322 321 348 326 322 349 328 302 303 330 329 349 302 329 330 304 331 305 350 331 350 305 332 307 333 332 308 334 333 334 309 335 335 324 351 324 336 351 337 336 311 312 338 337 338 325 352 314 339 340 315 340 341 341 342 316 342 343 317 343 344 318 352 325 344 353 339 326 327 345 354 327 354 346 346 347 320 347 348 322 353 326 348 330 355 329 355 349 329 356 330 331 350 356 331 357 350 332 333 357 332 334 358 333 334 335 359 335 351 360 336 361 351 337 361 336 337 338 362 338 352 363 340 339 364 340 365 341 366 342 341 342 367 343 344 343 368 352 344 369 364 339 353 345 370 354 354 371 346 346 372 347 347 372 348 353 348 373 374 355 330 374 330 356 375 356 350 375 350 357 333 358 357 334 359 358 359 335 360 351 376 360 361 376 351 337 362 361 362 338 363 363 352 377 340 364 365 365 366 341 366 367 342 343 367 368 344 368 369 352 369 377 364 353 378 370 379 354 354 379 371 346 371 372 372 380 348 378 353 373 348 380 373 381 374 356 375 381 356 382 375 357 358 382 357 358 359 383 384 359 360 376 385 360 361 386 376 361 362 386 387 362 363 363 377 388 365 364 389 365 390 366 366 391 367 367 392 368 368 393 369 369 394 377 389 364 378 370 395 379 371 379 396 372 371 397 372 397 380 398 378 373 380 398 373 399 381 375 399 375 382 358 383 382 359 384 383 385 384 360 385 376 400 376 386 400 386 362 387 387 363 388 377 401 388 365 389 390 366 390 391 367 391 392 392 393 368 393 394 369 394 401 377 389 378 402 379 395 403 396 379 403 397 371 396 380 397 404 398 405 378 380 404 398 406 399 382 383 406 382 384 407 383 408 384 385 409 385 400 386 410 400 386 387 410 387 388 411 401 412 388 390 389 413 391 390 414 391 415 392 416 393 392 393 417 394 394 418 401 413 389 402 378 405 402 395 419 403 396 403 420 397 396 421 404 397 421 398 422 405 398 404 422 407 406 383 408 407 384 423 408 385 409 423 385 410 409 400 410 387 411 388 412 411 401 424 412 414 390 413 391 414 415 415 416 392 416 417 393 394 417 418 401 418 424 425 413 402 405 425 402 419 426 403 427 396 420 403 426 420 396 427 421 428 404 421 405 422 429 422 404 428 430 423 409 409 410 431 432 410 411 412 432 411 412 424 433 434 414 413 415 414 435 415 436 416 416 437 417 418 417 438 424 418 439 425 434 413 425 405 429 440 427 420 426 440 420 421 427 441 428 421 441 422 442 429 422 428 442 430 409 431 410 432 431 432 412 443 433 424 444 412 433 443 435 414 434 415 435 436 416 436 437 417 437 438 418 438 439 424 439 444 445 434 425 446 425 429 440 447 427 427 447 441 448 428 441 442 446 429 428 448 442 449 430 431 432 449 431 450 432 443 433 444 451 433 452 443 435 434 453 436 435 454 437 436 455 437 456 438 438 457 439 444 439 458 453 434 445 445 425 446 447 459 441 459 448 441 460 446 442 448 460 442 450 449 432 452 450 443 452 433 451 444 461 451 435 453 454 455 436 454 437 455 456 456 457 438 439 457 458 461 444 458 453 445 462 463 445 446 459 464 448 460 463 446 464 460 448 465 452 451 461 465 451 453 466 454 467 455 454 456 455 468 456 469 457 457 470 458 471 461 458 453 462 466 462 445 463 460 472 463 464 472 460 473 465 461 466 467 454 468 455 467 456 468 469 457 469 470 470 471 458 473 461 471 462 474 466 462 463 475 472 476 463 467 466 477 468 467 478 469 468 479 469 480 470 481 471 470 482 473 471 474 462 475 466 474 477 463 476 475 478 467 477 479 468 478 469 479 480 480 481 470 481 482 471 483 474 475 474 484 477 476 483 475 484 478 477 485 479 478 480 479 486 487 481 480 488 482 481 483 489 474 474 489 484 484 485 478 479 485 490 479 490 486 487 480 486 488 481 487 489 491 484 491 485 484 485 492 490 490 493 486 493 487 486 494 488 487 491 492 485 492 495 490 495 493 490 487 493 496 494 487 496 495 497 493 493 497 496 498 494 496 497 498 496 </DataArray>
        <DataArray type="Int32" Name="offsets" format="ascii">3 6 9 12 15 18 21 24 27 30 33 36 39 42 45 48 51 54 57 60 63 66 69 72 75 78 81 84 87 90 93 96 99 102 105 108 111 114 117 120 123 126 129 132 135 138 141 144 147 150 153 156 159 162 165 168 171 174 177 180 183 186 189 192 195 198 201 204 207 210 213 216 219 222 225 228 231 234 237 240 243 246 249 252 255 258 261 264 267 270 273 276 279 282 285 288 291 294 297 300 303 306 309 312 315 318 321 324 327 330 333 336 339 342 345 348 351 354 357 360 363 366 369 372 375 378 381 384 387 390 393 396 399 402 405 408 411 414 417 420 423 426 429 432 435 438 441 444 447 450 453 456 459 462 465 468 471 474 477 480 483 486 489 492 495 498 501 504 507 510 513 516 519 522 525 528 531 534 537 540 543 546 549 552 555 558 561 564 567 570 573 576 579 582 585 588 591 594 597 600 603 606 609 612 615 618 621 624 627 630 633 636 639 642 645 648 651 654 657 660 663 666 669 672 675 678 681 684 687 690 693 696 699 702 705 708 711 714 717 720 723 726 729 732 735 738 741 744 747 750 753 756 759 762 765 768 771 774 777 780 783 786 789 792 795 798 801 804 807 810 813 816 819 822 825 828 831 834 837 840 843 846 849 852 855 858 861 864 867 870 873 876 879 882 885 888 891 894 897 900 903 906 909 912 915 918 921 924 927 930 933 936 939 942 945 948 951 954 957 960 963 966 969 972 975 978 981 984 987 990 993 996 999 1002 1005 1008 1011 1014 1017 1020 1023 1026 1029 1032 1035 1038 1041 1044 1047 1050 1053 1056 1059 1062 1065 1068 1071 1074 1077 1080 1083 1086 1089 1092 1095 1098 1101 1104 1107 1110 1113 1116 1119 1122 1125 1128 1131 1134 1137 1140 1143 1146 1149 1152 1155 1158 1161 1164 1167 1170 1173 1176 1179 1182 1185 1188 1191 1194 1197 1200 1203 1206 1209 1212 1215 1218 1221 1224 1227 1230 1233 1236 1239 1242 1245 1248 1251 1254 1257 1260 1263 1266 1269 1272 1275 1278 1281 1284 1287 1290 1293 1296 1299 1302 1305 1308 1311 1314 1317 1320 1323 1326 1329 1332 1335 1338 1341 1344 1347 1350 1353 1356 1359 1362 1365 1368 1371 1374 1377 1380 1383 1386 1389 1392 1395 1398 1401 1404 1407 1410 1413 1416 1419 1422 1425 1428 1431 1434 1437 1440 1443 1446 1449 1452 1455 1458 1461 1464 1467 1470 1473 1476 1479 1482 1485 1488 1491 1494 1497 1500 1503 1506 1509 1512 1515 1518 1521 1524 1527 1530 1533 1536 1539 1542 1545 1548 1551 1554 1557 1560 1563 1566 1569 1572 1575 1578 1581 1584 1587 1590 1593 1596 1599 1602 1605 1608 1611 1614 1617 1620 1623 1626 1629 1632 1635 1638 1641 1644 1647 1650 1653 1656 1659 1662 1665 1668 1671 1674 1677 1680 1683 1686 1689 1692 1695 1698 1701 1704 1707 1710 1713 1716 1719 1722 1725 1728 1731 1734 1737 1740 1743 1746 1749 1752 1755 1758 1761 1764 1767 1770 1773 1776 1779 1782 1785 1788 1791 1794 1797 1800 1803 1806 1809 1812 1815 1818 1821 1824 1827 1830 1833 1836 1839 1842 1845 1848 1851 1854 1857 1860 1863 1866 1869 1872 1875 1878 1881 1884 1887 1890 1893 1896 1899 1902 1905 1908 1911 1914 1917 1920 1923 1926 1929 1932 1935 1938 1941 1944 1947 1950 1953 1956 1959 1962 1965 1968 1971 1974 1977 1980 1983 1986 1989 1992 1995 1998 2001 2004 2007 2010 2013 2016 2019 2022 2025 2028 2031 2034 2037 2040 2043 2046 2049 2052 2055 2058 2061 2064 2067 2070 2073 2076 2079 2082 2085 2088 2091 2094 2097 2100 2103 2106 2109 2112 2115 2118 2121 2124 2127 2130 2133 2136 2139 2142 2145 2148 2151 2154 2157 2160 2163 2166 2169 2172 2175 2178 2181 2184 2187 2190 2193 2196 2199 2202 2205 2208 2211 2214 2217 2220 2223 2226 2229 2232 2235 2238 2241 2244 2247 2250 2253 2256 2259 2262 2265 2268 2271 2274 2277 2280 2283 2286 2289 2292 2295 2298 2301 2304 2307 2310 2313 2316 2319 2322 2325 2328 2331 2334 2337 2340 2343 2346 2349 2352 2355 2358 2361 2364 2367 2370 2373 2376 2379 2382 2385 2388 2391 2394 2397 2400 2403 2406 2409 2412 2415 2418 2421 2424 2427 2430 2433 2436 2439 2442 2445 2448 2451 2454 2457 2460 2463 2466 2469 2472 2475 2478 2481 2484 2487 2490 2493 2496 2499 2502 2505 2508 2511 2514 2517 2520 2523 2526 2529 2532 2535 2538 2541 2544 2547 2550 2553 2556 2559 2562 2565 2568 2571 2574 2577 2580 2583 2586 2589 2592 2595 2598 2601 2604 2607 2610 2613 2616 2619 2622 2625 2628 2631 2634 2637 2640 2643 2646 2649 2652 2655 2658 2661 2664 2667 2670 2673 2676 2679 2682 2685 2688 2691 2694 2697 2700 2703 2706 2709 2712 2715 2718 2721 2724 2727 2730 2733 2736 2739 2742 2745 2748 2751 </DataArray>
        <DataArray type="Int8" Name="types" format="ascii">69 69 69 69 69 69 69 69 69 69 69 69 69 69 69 69 69 69 69 69 69 69 69 69 69 69 69 69 69 69 69 69 69 69 69 69 69 69 69 69 69 69 69 69 69 69 69 69 69 69 69 69 69 69 69 69 69 69 69 69 69 69 69 69 69 69 69 69 69 69 69 69 69 69 69 69 69 69 69 69 69 69 69 69 69 69 69 69 69 69 69 69 69 69 69 69 69 69 69 69 69 69 69 69 69 69 69 69 69 69 69 69 69 69 69 69 69 69 69 69 69 69 69 69 69 69 69 69 69 69 69 69 69 69 69 69 69 69 69 69 69 69 69 69 69 69 69 69 69 69 69 69 69 69 69 69 69 69 69 69 69 69 69 69 69 69 69 69 69 69 69 69 69 69 69 69 69 69 69 69 69 69 69 69 69 69 69 69 69 69 69 69 69 69 69 69 69 69 69 69 69 69 69 69 69 69 69 69 69 69 69 69 69 69 69 69 69 69 69 69 69 69 69 69 69 69 69 69 69 69 69 69 69 69 69 69 69 69 69 69 69 69 69 69 69 69 69 69 69 69 69 69 69 69 69 69 69 69 69 69 69 69 69 69 69 69 69 69 69 69 69 69 69 69 69 69 69 69 69 69 69 69 69 69 69 69 69 69 69 69 69 69 69 69 69 69 69 69 69 69 69 69 69 69 69 69 69 69 69 69 69 69 69 69 69 69 69 69 69 69 69 69 69 69 69 69 69 69 69 69 69 69 69 69 69 69 69 69 69 69 69 69 69 69 69 69 69 69 69 69 69 69 69 69 69 69 69 69 69 69 69 69 69 69 69 69 69 69 69 69 69 69 69 69 69 69 69 69 69 69 69 69 69 69 69 69 69 69 69 69 69 69 69 69 69 69 69 69 69 69 69 69 69 69 69 69 69 69 69 69 69 69 69 69 69 69 69 69 69 69 69 69 69 69 69 69 69 69 69 69 69 69 69 69 69 69 69 69 69 69 69 69 69 69 69 69 69 69 69 69 69 69 69 69 69 69 69 69 69 69 69 69 69 69 69 69 69 69 69 69 69 69 69 69 69 69 69 69 69 69 69 69 69 69 69 69 69 69 69 69 69 69 69 69 69 69 69 69 69 69 69 69 69 69 69 69 69 69 69 69 69 69 69 69 69 69 69 69 69 69 69 69 69 69 69 69 69 69 69 69 69 69 69 69 69 69 69 69 69 69 69 69 69 69 69 69 69 69 69 69 69 69 69 69 69 69 69 69 69 69 69 69 69 69 69 69 69 69 69 69 69 69 69 69 69 69 69 69 69 69 69 69 69 69 69 69 69 69 69 69 69 69 69 69 69 69 69 69 69 69 69 69 69 69 69 69 69 69 69 69 69 69 69 69 69 69 69 69 69 69 69 69 69 69 69 69 69 69 69 69 69 69 69 69 69 69 69 69 69 69 69 69 69 69 69 69 69 69 69 69 69 69 69 69 69 69 69 69 69 69 69 69 69 69 69 69 69 69 69 69 69 69 69 69 69 69 69 69 69 69 69 69 69 69 69 69 69 69 69 69 69 69 69 69 69 69 69 69 69 69 69 69 69 69 69 69 69 69 69 69 69 69 69 69 69 69 69 69 69 69 69 69 69 69 69 69 69 69 69 69 69 69 69 69 69 69 69 69 69 69 69 69 69 69 69 69 69 69 69 69 69 69 69 69 69 69 69 69 69 69 69 69 69 69 69 69 69 69 69 69 69 69 69 69 69 69 69 69 69 69 69 69 69 69 69 69 69 69 69 69 69 69 69 69 69 69 69 69 69 69 69 69 69 69 69 69 69 69 69 69 69 69 69 69 69 69 69 69 69 69 69 69 69 69 69 69 69 69 69 69 69 69 69 69 69 69 69 69 69 69 69 69 69 69 69 69 69 69 69 69 69 69 69 69 69 69 69 69 69 69 69 69 69 69 69 69 69 69 69 69 69 69 69 69 69 69 69 69 69 69 69 69 69 69 69 69 69 69 69 69 69 69 69 69 69 69 69 69 69 69 69 69 69 69 69 69 69 69 69 69 69 69 69 69 69 69 69 </DataArray>
      </Cells>
      <CellData Tensors="stress">
        <DataArray type="UInt8" Name="vtkGhostType" format="ascii" RangeMin="0" RangeMax="1">0 0 0 0 0 0 0 0 0 0 0 0 0 0 0 0 0 0 0 0 0 0 0 0 0 0 0 0 0 0 0 0 0 0 0 0 0 0 0 0 0 0 0 0 0 0 0 0 0 0 0 0 0 0 0 0 0 0 0 0 0 0 0 0 0 0 0 0 0 0 0 0 0 0 0 0 0 0 0 0 0 0 0 0 0 0 0 0 0 0 0 0 0 0 0 0 0 0 0 0 0 0 0 0 0 0 0 0 0 0 0 0 0 0 0 0 0 0 0 0 0 0 0 0 0 0 0 0 0 0 0 0 0 0 0 0 0 0 0 0 0 0 0 0 0 0 0 0 0 0 0 0 0 0 0 0 0 0 0 0 0 0 0 0 0 0 0 0 0 0 0 0 0 0 0 0 0 0 0 0 0 0 0 0 0 0 0 0 0 0 0 0 0 0 0 0 0 0 0 0 0 0 0 0 0 0 0 0 0 0 0 0 0 0 0 0 0 0 0 0 0 0 0 0 0 0 0 0 0 0 0 0 0 0 0 0 0 0 0 0 0 0 0 0 0 0 0 0 0 0 0 0 0 0 0 0 0 0 0 0 0 0 0 0 0 0 0 0 0 0 0 0 0 0 0 0 0 0 0 0 0 0 0 0 0 0 0 0 0 0 0 0 0 0 0 0 0 0 0 0 0 0 0 0 0 0 0 0 0 0 0 0 0 0 0 0 0 0 0 0 0 0 0 0 0 0 0 0 0 0 0 0 0 0 0 0 0 0 0 0 0 0 0 0 0 0 0 0 0 0 0 0 0 0 0 0 0 0 0 0 0 0 0 0 0 0 0 0 0 0 0 0 0 0 0 0 0 0 0 0 0 0 0 0 0 0 0 0 0 0 0 0 0 0 0 0 0 0 0 0 0 0 0 0 0 0 0 0 0 0 0 0 0 0 0 0 0 0 0 0 0 0 0 0 0 0 0 0 0 0 0 0 0 0 0 0 0 0 0 0 0 0 0 0 0 0 0 0 0 0 0 0 0 0 0 0 0 0 0 0 0 0 0 0 0 0 0 0 0 0 0 0 0 0 0 0 0 0 0 0 0 0 0 0 0 0 0 0 0 0 0 0 0 0 0 0 0 0 0 0 0 0 0 0 0 0 0 0 0 0 0 0 0 0 0 0 0 0 0 0 0 0 0 0 0 0 0 0 0 0 0 0 0 0 0 0 0 0 0 0 0 0 0 0 0 0 0 0 0 0 0 0 0 0 0 0 0 0 0 0 0 0 0 0 0 0 0 0 0 0 0 0 0 0 0 0 0 0 0 0 0 0 0 0 0 0 0 0 0 0 0 0 0 0 0 0 0 0 0 0 0 0 0 0 0 0 0 0 0 0 0 0 0 0 0 0 0 0 0 0 0 0 0 0 0 0 0 0 0 0 0 0 0 0 0 0 0 0 0 0 0 0 0 0 0 0 0 0 0 0 0 0 0 0 0 0 0 0 0 0 0 0 0 0 0 0 0 0 0 0 0 0 0 0 0 0 0 0 0 0 0 0 0 0 0 0 0 0 0 0 0 0 0 0 0 0 0 0 0 0 0 0 0 0 0 0 0 0 0 0 0 0 0 0 0 0 0 0 0 0 0 0 0 0 0 0 0 0 0 0 0 0 0 0 0 0 0 0 0 0 0 0 0 0 0 0 0 0 0 0 0 0 0 0 0 0 0 0 0 0 0 0 0 0 0 0 0 0 0 0 0 0 0 0 0 0 0 0 0 0 0 0 0 0 0 0 0 0 0 0 0 0 0 0 0 0 0 0 0 0 0 0 0 0 0 0 0 0 0 0 0 0 0 0 0 0 0 0 0 0 0 0 0 0 0 0 0 0 0 0 0 0 0 0 0 0 0 0 0 0 0 0 0 0 0 0 0 0 0 0 0 0 0 0 0 0 0 0 0 0 0 0 0 0 0 0 0 0 0 0 0 0 0 0 0 0 0 0 0 0 0 0 0 0 0 0 0 0 0 0 0 0 0 0 0 0 0 0 0 0 0 0 0 0 0 0 0 0 0 0 0 0 0 0 0 0 0 </DataArray>
        <DataArray type="Int64" IdType="1" Name="vtkOriginalCellIds" format="ascii" RangeMin="0" RangeMax="916">0 1 2 3 4 5 6 7 8 9 10 11 12 13 14 15 16 17 18 19 20 21 22 23 24 25 26 27 28 29 30 31 32 33 34 35 36 37 38 39 40 41 42 43 44 45 46 47 48 49 50 51 52 53 54 55 56 57 58 59 60 61 62 63 64 65 66 67 68 69 70 71 72 73 74 75 76 77 78 79 80 81 82 83 84 85 86 87 88 89 90 91 92 93 94 95 96 97 98 99 100 101 102 103 104 105 106 107 108 109 110 111 112 113 114 115 116 117 118 119 120 121 122 123 124 125 126 127 128 129 130 131 132 133 134 135 136 137 138 139 140 141 142 143 144 145 146 147 148 149 150 151 152 153 154 155 156 157 158 159 160 161 162 163 164 165 166 167 168 169 170 171 172 173 174 175 176 177 178 179 180 181 182 183 184 185 186 187 188 189 190 191 192 193 194 195 196 197 198 199 200 201 202 203 204 205 206 207 208 209 210 211 212 213 214 215 216 217 218 219 220 221 222 223 224 225 226 227 228 229 230 231 232 233 234 235 236 237 238 239 240 241 242 243 244 245 246 247 248 249 250 251 252 253 254 255 256 257 258 259 260 261 262 263 264 265 266 267 268 269 270 271 272 273 274 275 276 277 278 279 280 281 282 283 284 285 286 287 288 289 290 291 292 293 294 295 296 297 298 299 300 301 302 303 304 305 306 307 308 309 310 311 312 313 314 315 316 317 318 319 320 321 322 323 324 325 326 327 328 329 330 331 332 333 334 335 336 337 338 339 340 341 342 343 344 345 346 347 348 349 350 351 352 353 354 355 356 357 358 359 360 361 362 363 364 365 366 367 368 369 370 371 372 373 374 375 376 377 378 379 380 381 382 383 384 385 386 387 388 389 390 391 392 393 394 395 396 397 398 399 400 401 402 403 404 405 406 407 408 409 410 411 412 413 414 415 416 417 418 419 420 421 422 423 424 425 426 427 428 429 430 431 432 433 434 435 436 437 438 439 440 441 442 443 444 445 446 447 448 449 450 451 452 453 454 455 456 457 458 459 460 461 462 463 464 465 466 467 468 469 470 471 472 473 474 475 476 477 478 479 480 481 482 483 484 485 486 487 488 489 490 491 492 493 494 495 496 497 498 499 500 501 502 503 504 505 506 507 508 509 510 511 512 513 514 515 516 517 518 519 520 521 522 523 524 525 526 527 528 529 530 531 532 533 534 535 536 537 538 539 540 541 542 543 544 545 546 547 548 549 550 551 552 553 554 555 556 557 558 559 560 561 562 563 564 565 566 567 568 569 570 571 572 573 574 575 576 577 578 579 580 581 582 583 584 585 586 587 588 589 590 591 592 593 594 595 596 597 598 599 600 601 602 603 604 605 606 607 608 609 610 611 612 613 614 615 616 617 618 619 620 621 622 623 624 625 626 627 628 629 630 631 632 633 634 635 636 637 638 639 640 641 642 643 644 645 646 647 648 649 650 651 652 653 654 655 656 657 658 659 660 661 662 663 664 665 666 667 668 669 670 671 672 673 674 675 676 677 678 679 680 681 682 683 684 685 686 687 688 689 690 691 692 693 694 695 696 697 698 699 700 701 702 703 704 705 706 707 708 709 710 711 712 713 714 715 716 717 718 719 720 721 722 723 724 725 726 727 728 729 730 731 732 733 734 735 736 737 738 739 740 741 742 743 744 745 746 747 748 749 750 751 752 753 754 755 756 757 758 759 760 761 762 763 764 765 766 767 768 769 770 771 772 773 774 775 776 777 778 779 780 781 782 783 784 785 786 787 788 789 790 791 792 793 794 795 796 797 798 799 800 801 802 803 804 805 806 807 808 809 810 811 812 813 814 815 816 817 818 819 820 821 822 823 824 825 826 827 828 829 830 831 832 833 834 835 836 837 838 839 840 841 842 843 844 845 846 847 848 849 850 851 852 853 854 855 856 857 858 859 860 861 862 863 864 865 866 867 868 869 870 871 872 873 874 875 876 877 878 879 880 881 882 883 884 885 886 887 888 889 890 891 892 893 894 895 896 897 898 899 900 901 902 903 904 905 906 907 908 909 910 911 912 913 914 915 916 </DataArray>
        <DataArray type="Float64" Name="stress" format="ascii" NumberOfComponents="9">107374411.3707622 591066.8971806142 591066.8971806142 14891537.84211263 0 0 0 0 0 107712012.8277255 647353.4212183283 647353.4212183283 14764174.34284216 0 0 0 0 0 107818091.4527174 1398685.4832275 1398685.4832275 14010634.24350099 0 0 0 0 0 108139438.6720059 335211.5115941942 335211.5115941942 15458324.91295836 0 0 0 0 0 107584993.8928181 1832489.3470097 1832489.3470097 14614996.57670567 0 0 0 0 0 108318901.3309787 1605635.863353563 1605635.863353563 15603409.73059021 0 0 0 0 0 108797581.056982 720521.3395863038 720521.3395863038 16209224.45716215 0 0 0 0 0 108116623.3186986 2699092.413616219 2699092.413616219 13280646.75572532 0 0 0 0 0 108723839.5302219 1399895.590146474 1399895.590146474 15702380.92671368 0 0 0 0 0 109289222.8363369 427097.1997863832 427097.1997863832 16602570.91681606 0 0 0 0 0 107841152.4442394 2895382.872151635 2895382.872151635 13606832.15607929 0 0 0 0 0 108670102.6422014 2592512.360581051 2592512.360581051 15086846.29102194 0 0 0 0 0 109145499.3997306 2738484.93562365 2738484.93562365 15286022.04040379 0 0 0 0 0 109494535.1698107 1895197.886592742 1895197.886592742 16981268.6368329 0 0 0 0 0 109983242.2728735 868133.9550299378 868133.9550299378 17731244.61010385 0 0 0 0 0 108483508.9425143 3767209.039081358 3767209.039081358 12145503.15865056 0 0 0 0 0 109384284.7258949 3729446.551435521 3729446.551435521 13721412.72856541 0 0 0 0 0 109703637.7841773 2524121.052938311 2524121.052938311 16978917.09008105 0 0 0 0 0 110032549.1292821 1819681.83484919 1819681.83484919 16463162.29285359 0 0 0 0 0 110692151.3450852 448025.2433642735 448025.2433642735 18308371.31460824 0 0 0 0 0 108179557.8667084 3772979.172101429 3772979.172101429 12165595.47328134 0 0 0 0 0 108963614.1933401 3727171.458914813 3727171.458914813 13742103.19914687 0 0 0 0 0 109971511.5656489 3521561.288923959 3521561.288923959 15583657.4320846 0 0 0 0 0 110494001.0093406 3512564.422385527 3512564.422385527 15556702.35908866 0 0 0 0 0 110780167.258815 2276584.395209912 2276584.395209912 18175236.12604567 0 0 0 0 0 111517687.5839986 971713.869078072 971713.869078072 19436067.50807052 0 0 0 0 0 109005334.1768447 4599058.422524701 4599058.422524701 10740417.8928558 0 0 0 0 0 109865836.8209583 4649072.930392602 4649072.930392602 12162721.75133675 0 0 0 0 0 110777433.2842872 4672742.356690709 4672742.356690709 13823302.80520326 0 0 0 0 0 111000218.4860124 3252556.149371691 3252556.149371691 16996191.95746569 0 0 0 0 0 111524775.499885 1904957.267833544 1904957.267833544 18355512.94375891 0 0 0 0 0 112412182.9187615 486972.010968409 486972.010968409 19991326.8559866 0 0 0 0 0 108573858.6610937 4406896.602933036 4406896.602933036 10436853.56716578 0 0 0 0 0 109368951.7688526 4511925.318113443 4511925.318113443 11953342.54226786 0 0 0 0 0 110290161.1134307 4500668.284751655 4500668.284751655 13560088.34949615 0 0 0 0 0 111300364.5648313 4498467.749454159 4498467.749454159 15523770.74321696 0 0 0 0 0 111902916.2811377 4595589.813620884 4595589.813620884 15598741.40826053 0 0 0 0 0 112032426.4262609 3838282.460760261 3838282.460760261 18150842.54308238 0 0 0 0 0 112510928.1901669 2532061.738803441 2532061.738803441 19998208.44021361 0 0 0 0 0 113430451.0407624 1130462.950484973 1130462.950484973 21366860.96674519 0 0 0 0 0 109543063.3917075 5171567.669663209 5171567.669663209 9090931.140665893 0 0 0 0 0 110424389.2952032 5364268.415011089 5364268.415011089 10417081.63308957 0 0 0 0 0 111419921.2711853 5600498.874184202 5600498.874184202 11951071.34633476 0 0 0 0 0 112602222.6608798 5676364.669537711 5676364.669537711 13406453.89054877 0 0 0 0 0 112607364.9115399 4539745.128200184 4539745.128200184 17976770.02127877 0 0 0 0 0 112607110.515675 3587511.16002377 3587511.16002377 17085465.0696636 0 0 0 0 0 113449833.2192643 2076466.2102444 2076466.2102444 19726294.26499804 0 0 0 0 0 114607684.1919827 512693.7256051723 512693.7256051723 21879358.92720476 0 0 0 0 0 108957469.8725486 4777931.265559799 4777931.265559799 8459013.475722507 0 0 0 0 0 109767334.9568861 5005272.605899727 5005272.605899727 9826707.733718751 0 0 0 0 0 110682486.8294654 5182030.733858972 5182030.733858972 11207597.42201152 0 0 0 0 0 111709384.959804 5227531.70532413 5227531.70532413 12642626.09823195 0 0 0 0 0 113163794.6426848 5545699.005270579 5545699.005270579 15347300.28214713 0 0 0 0 0 113716402.0227805 5591013.106191498 5591013.106191498 15336727.69170061 0 0 0 0 0 113747958.246163 4228760.46464875 4228760.46464875 20003127.54730429 0 0 0 0 0 114747171.3437842 2905420.756208743 2905420.756208743 22006315.91378797 0 0 0 0 0 115923794.260387 1357671.011418409 1357671.011418409 23568521.51009331 0 0 0 0 0 110094187.5075517 5425855.130107438 5425855.130107438 7272997.06843638 0 0 0 0 0 110921930.4314304 5730542.067103729 5730542.067103729 8360052.056999772 0 0 0 0 0 111869148.5527163 6065506.754393969 6065506.754393969 9808424.858041508 0 0 0 0 0 113144949.4864038 6543477.056086711 6543477.056086711 11394927.62982396 0 0 0 0 0 114081085.3066263 5847981.048344474 5847981.048344474 12510917.37125146 0 0 0 0 0 114164837.2144579 5126434.446403052 5126434.446403052 16334755.63888576 0 0 0 0 0 114651139.0403434 3741903.826693923 3741903.826693923 18866210.4688091 0 0 0 0 0 115909751.5996682 2348539.972560783 2348539.972560783 21573295.09387873 0 0 0 0 0 117518346.7083312 541187.664322332 541187.664322332 24140344.03615261 0 0 0 0 0 109296759.5690902 4860905.60127479 4860905.60127479 6376831.63278198 0 0 0 0 0 110161615.4665319 5199384.788859421 5199384.788859421 7533060.475783171 0 0 0 0 0 111056923.5779774 5571956.100307776 5571956.100307776 8897267.468252342 0 0 0 0 0 111890667.9219312 5683641.774832299 5683641.774832299 9259266.540287463 0 0 0 0 0 113324283.6642402 5915061.978998926 5915061.978998926 9886930.163558872 0 0 0 0 0 114780143.3435901 6870937.116906887 6870937.116906887 12805359.39337946 0 0 0 0 0 115471993.9110626 6748921.732560499 6748921.732560499 15491887.748704 0 0 0 0 0 115657736.4675242 6050648.62877441 6050648.62877441 18419167.20972387 0 0 0 0 0 116116482.6553954 4673176.954558253 4673176.954558253 21771309.81223445 0 0 0 0 0 117344523.0759664 3276318.700603291 3276318.700603291 24067424.1104585 0 0 0 0 0 119198466.5627935 1632453.196117095 1632453.196117095 26120957.00514301 0 0 0 0 0 110492582.0515361 5394534.664483832 5394534.664483832 5424101.033285055 0 0 0 0 0 111448924.2261711 5784058.59664387 5784058.59664387 6315626.874302813 0 0 0 0 0 112083094.7491946 6015845.362878078 6015845.362878078 7179538.877974668 0 0 0 0 0 112739590.0136062 6388373.237785525 6388373.237785525 8907218.184387833 0 0 0 0 0 114596360.718336 6908757.358488812 6908757.358488812 9750342.754871989 0 0 0 0 0 115316556.8915122 6229041.215251224 6229041.215251224 10194456.81911047 0 0 0 0 0 116054656.6069401 6088672.656091023 6088672.656091023 13851178.24500117 0 0 0 0 0 116303363.5970891 5195556.781626441 5195556.781626441 17481824.41491311 0 0 0 0 0 117352043.8240856 4020428.010312518 4020428.010312518 20830091.79361293 0 0 0 0 0 119101858.7502591 2458703.17565414 2458703.17565414 23963717.44437705 0 0 0 0 0 121412190.5039789 575088.0360833588 575088.0360833588 26458123.52237336 0 0 0 0 0 109582570.2136878 4720174.024609534 4720174.024609534 4387261.696632508 0 0 0 0 0 110483329.4936815 5100477.384966145 5100477.384966145 5391950.025269424 0 0 0 0 0 111560829.1379389 5586590.412330023 5586590.412330023 6729214.699151739 0 0 0 0 0 113194723.647059 5945377.638352783 5945377.638352783 6990606.483768686 0 0 0 0 0 114929511.0580215 6217389.485375849 6217389.485375849 7154441.042339877 0 0 0 0 0 116536535.8570952 7322212.635641682 7322212.635641682 10114175.38478252 0 0 0 0 0 117132848.2337079 7458682.201090522 7458682.201090522 13558106.13513124 0 0 0 0 0 117750523.3283876 7218635.268086786 7218635.268086786 16934036.45068819 0 0 0 0 0 118236524.3787488 6405196.221732418 6405196.221732418 20311303.39038103 0 0 0 0 0 118996925.2538761 5064457.324162728 5064457.324162728 23523751.79232813 0 0 0 0 0 120804731.410857 3545943.43947115 3545943.43947115 26689264.91812567 0 0 0 0 0 123856580.0152393 2094181.147526224 2094181.147526224 28869414.43005265 0 0 0 0 0 110880476.9633118 5086010.526885367 5086010.526885367 3625731.826108978 0 0 0 0 0 111767097.4684477 5521138.639809578 5521138.639809578 4217007.725439563 0 0 0 0 0 112809389.8595292 6037631.219542108 6037631.219542108 5342077.856348465 0 0 0 0 0 114107768.2314149 6529252.360731999 6529252.360731999 6891630.295441234 0 0 0 0 0 115917511.7278292 6824978.611526915 6824978.611526915 7186154.098848178 0 0 0 0 0 117074262.0057442 6415116.762539708 6415116.762539708 7213101.023137239 0 0 0 0 0 117780518.2541353 6531938.071277637 6531938.071277637 10825966.74262743 0 0 0 0 0 118493178.0967382 6226441.133069561 6226441.133069561 14898069.71466523 0 0 0 0 0 119334250.0793181 5323771.82738773 5323771.82738773 19038425.27643641 0 0 0 0 0 120946202.8596542 4153275.32727024 4153275.32727024 23100183.2349864 0 0 0 0 0 123441339.9145626 2873268.71713415 2873268.71713415 25905988.66263998 0 0 0 0 0 126492380.260572 513619.6603132359 513619.6603132359 28880740.61511821 0 0 0 0 0 109735711.7361384 4306063.387629341 4306063.387629341 2406297.642264658 0 0 0 0 0 110747188.7758153 4720604.655723821 4720604.655723821 3145811.535953386 0 0 0 0 0 111806384.8436556 5326990.045556284 5326990.045556284 4552579.323894373 0 0 0 0 0 112750453.587666 5550538.207832462 5550538.207832462 4626608.565358045 0 0 0 0 0 114418180.3452116 5790046.290349873 5790046.290349873 4438529.83626104 0 0 0 0 0 116410845.5339583 5947269.830777223 5947269.830777223 4148141.231594417 0 0 0 0 0 118948161.8387805 7710417.602844243 7710417.602844243 10697678.20841635 0 0 0 0 0 118047122.5173147 7088460.068395562 7088460.068395562 7218922.321890802 0 0 0 0 0 119831082.5341608 7936755.2048625 7936755.2048625 14594278.735454 0 0 0 0 0 120706312.0106315 7674678.767958048 7674678.767958048 18517623.35318287 0 0 0 0 0 121711476.8149137 6768259.507119861 6768259.507119861 22206376.05058707 0 0 0 0 0 122787540.9268893 5283695.959068659 5283695.959068659 25669124.83100907 0 0 0 0 0 125088786.2825071 3820209.213794215 3820209.213794215 30004973.42974297 0 0 0 0 0 129453107.9855562 2607681.407276445 2607681.407276445 31668638.42093931 0 0 0 0 0 110946712.4417492 4593224.924229192 4593224.924229192 1791058.926230885 0 0 0 0 0 111956704.9959034 5074183.819768476 5074183.819768476 2484165.12292192 0 0 0 0 0 112760045.4072292 5305085.270909438 5305085.270909438 2647878.081946791 0 0 0 0 0 113662516.3479144 5893874.780600552 5893874.780600552 4632007.471222876 0 0 0 0 0 115228328.1293484 6086348.379902442 6086348.379902442 4539500.343827805 0 0 0 0 0 117048543.4635111 6202426.994191417 6202426.994191417 4228508.437428948 0 0 0 0 0 119724382.2372452 6496283.208232542 6496283.208232542 7202471.566023621 0 0 0 0 0 118736063.5010323 5940283.39842102 5940283.39842102 3682023.002148297 0 0 0 0 0 120728977.0190217 6658664.763318719 6658664.763318719 11379401.34745291 0 0 0 0 0 121851588.7660376 6275414.103217343 6275414.103217343 16053409.99571151 0 0 0 0 0 123281506.7050855 5226251.480902976 5226251.480902976 20954082.30402819 0 0 0 0 0 125465925.5378436 3908165.532791885 3908165.532791885 25382155.98504285 0 0 0 0 0 128552522.5848461 4986003.251249921 4986003.251249921 26641025.05901468 0 0 0 0 0 133326111.737857 -128749.271361862 -128749.271361862 32375485.80454366 0 0 0 0 0 109744392.4972545 3745838.95470708 3745838.95470708 517877.0446010022 0 0 0 0 0 110675878.327418 4223868.517181062 4223868.517181062 1317961.705223249 0 0 0 0 0 111887329.409963 4491088.423552157 4491088.423552157 1024812.443918631 0 0 0 0 0 112826697.6772812 5135510.757771716 5135510.757771716 2710022.795049274 0 0 0 0 0 114097282.8323808 5285603.918425269 5285603.918425269 2255415.807453956 0 0 0 0 0 115742896.0800805 5276628.7662636 5276628.7662636 1671818.166028878 0 0 0 0 0 117781307.6584243 5138891.34028514 5138891.34028514 900577.7999695699 0 0 0 0 0 120489739.6976163 7184543.020546802 7184543.020546802 7146540.852754598 0 0 0 0 0 121792117.7228441 7945396.411606632 7945396.411606632 11173077.97589715 0 0 0 0 0 119169902.9938671 6137345.450768545 6137345.450768545 3727567.147115894 0 0 0 0 0 123101461.7718274 8270441.881538107 8270441.881538107 15624123.16140338 0 0 0 0 0 124506146.1286185 7985991.328996732 7985991.328996732 20227473.80792333 0 0 0 0 0 126022448.3765665 6894775.631930059 6894775.631930059 24635376.37395929 0 0 0 0 0 129959518.6958832 3030394.786478138 3030394.786478138 28701367.28069616 0 0 0 0 0 138739467.0853956 2718829.744698946 2718829.744698946 34092525.4683895 0 0 0 0 0 135483389.5491609 5231982.304196008 5231982.304196008 30976970.0233744 0 0 0 0 0 110854351.3523489 3910018.361718907 3910018.361718907 386970.0375159442 0 0 0 0 0 111878515.7947156 4152029.93106882 4152029.93106882 105069.0714009007 0 0 0 0 0 112312594.4801751 4442255.272756617 4442255.272756617 1162857.163444071 0 0 0 0 0 113400006.919973 4556518.61717863 4556518.61717863 410520.5353177507 0 0 0 0 0 114362180.608591 5230590.435489624 5230590.435489624 2350945.236481851 0 0 0 0 0 115999102.4525046 5195238.205692695 5195238.205692695 1774288.346565009 0 0 0 0 0 117761144.9908584 4949509.453283485 4949509.453283485 960753.5466771841 0 0 0 0 0 121470942.5628415 5691632.150387504 5691632.150387504 3070485.964025402 0 0 0 0 0 122891628.9586677 6333273.022734451 6333273.022734451 7088314.091955996 0 0 0 0 0 120070120.6166521 4741082.515779483 4741082.515779483 -79742.66509527857 0 0 0 0 0 124423888.5236895 6507085.982727635 6507085.982727635 11898255.78761276 0 0 0 0 0 126175082.1926374 6026387.654235193 6026387.654235193 17329336.84166765 0 0 0 0 0 128195461.7490989 4873586.950107675 4873586.950107675 22966986.06095438 0 0 0 0 0 132208535.9657003 7055095.203985996 7055095.203985996 26928428.95787315 0 0 0 0 0 143829573.7986695 -1146635.475081237 -1146635.475081237 34384914.02361315 0 0 0 0 0 138647917.076203 1221758.917967348 1221758.917967348 30667269.98113874 0 0 0 0 0 109692031.8139723 3131377.655433977 3131377.655433977 -934304.6618931411 0 0 0 0 0 110717023.4986023 3262361.439016473 3262361.439016473 -1121259.739870152 0 0 0 0 0 111295684.4246308 3669897.966751586 3669897.966751586 -103445.8206845254 0 0 0 0 0 112799608.8259285 3863105.505761439 3863105.505761439 -974235.3712225186 0 0 0 0 0 113591393.8673799 4415970.218666533 4415970.218666533 521725.0637623022 0 0 0 0 0 115030166.380881 4487713.781502687 4487713.781502687 -279606.1436201963 0 0 0 0 0 116767085.9959424 4207297.304638474 4207297.304638474 -1222605.77286572 0 0 0 0 0 118738159.1193301 3683647.105825949 3683647.105825949 -2403563.579416186 0 0 0 0 0 121467041.6249606 5789917.996163047 5789917.996163047 3030604.762933584 0 0 0 0 0 123286535.8442464 7022996.671091505 7022996.671091505 6925525.687967809 0 0 0 0 0 125135653.382442 7926966.657153152 7926966.657153152 11534595.91669474 0 0 0 0 0 119689071.2941716 4435045.962593872 4435045.962593872 -65797.36888578309 0 0 0 0 0 127109181.1625923 8328068.585138155 8328068.585138155 16682702.93689764 0 0 0 0 0 129343391.2501986 8029088.853927133 8029088.853927133 22064113.7927016 0 0 0 0 0 135279078.2293715 3742622.086671878 3742622.086671878 25212327.13725586 0 0 0 0 0 151546172.9657167 2742243.982621287 2742243.982621287 35937367.31876644 0 0 0 0 0 145838988.7487679 4776622.069513377 4776622.069513377 34655206.29190039 0 0 0 0 0 140124199.5042861 6380092.445562102 6380092.445562102 29792548.42564968 0 0 0 0 0 110763763.2366562 3132249.800234433 3132249.800234433 -939984.1901166628 0 0 0 0 0 111681583.2830786 3261100.070049591 3261100.070049591 -993955.01625378 0 0 0 0 0 112390659.0765938 3365549.715814779 3365549.715814779 -1528341.828166397 0 0 0 0 0 112451029.1572862 3406333.684222319 3406333.684222319 -949549.8637743905 0 0 0 0 0 114100458.2346482 3600246.926514145 3600246.926514145 -1851876.31114903 0 0 0 0 0 114941817.4389718 4193615.505603148 4193615.505603148 -205460.6890073428 0 0 0 0 0 116399443.0447153 3768908.661840708 3768908.661840708 -1178597.898601206 0 0 0 0 0 117923266.1638003 3077075.080836107 3077075.080836107 -2419277.368816039 0 0 0 0 0 122716235.7315878 4009482.649604785 4009482.649604785 -1246758.473649111 0 0 0 0 0 124653321.2319773 5055246.705110705 5055246.705110705 2258923.218491544 0 0 0 0 0 126735849.7173603 5737355.648407305 5737355.648407305 6853166.112405134 0 0 0 0 0 120863290.0163599 2815849.732242269 2815849.732242269 -3800784.853622122 0 0 0 0 0 129094541.1480902 5853121.141529739 5853121.141529739 12410343.93162486 0 0 0 0 0 131846794.4870696 5219348.829098758 5219348.829098758 18679737.81434255 0 0 0 0 0 135635183.0341854 7546886.992588408 7546886.992588408 23921039.41037546 0 0 0 0 0 159369387.6924736 -3036336.056749295 -3036336.056749295 35905667.14089058 0 0 0 0 0 150625058.5795667 -1206272.649928581 -1206272.649928581 32501100.37791327 0 0 0 0 0 145099463.2586567 1400529.372663375 1400529.372663375 27178364.35886645 0 0 0 0 0 109507901.0696317 2371258.653746573 2371258.653746573 -2172425.485304579 0 0 0 0 0 110332228.2266221 2443028.131899656 2443028.131899656 -2281848.884956121 0 0 0 0 0 111091878.0595945 2581961.862666215 2581961.862666215 -2344678.114760804 0 0 0 0 0 113322814.9628484 2744668.517341268 2744668.517341268 -3045998.868255187 0 0 0 0 0 113903671.906476 3182026.731563405 3182026.731563405 -1747150.792295886 0 0 0 0 0 115678095.6934158 3217377.598047135 3217377.598047135 -2867805.971361701 0 0 0 0 0 117352538.5725918 2583819.889176996 2583819.889176996 -4088986.806649824 0 0 0 0 0 119117134.9266178 1631528.545234256 1631528.545234256 -5540334.652734754 0 0 0 0 0 123940543.4690925 5025218.575345487 5025218.575345487 2071464.562109251 0 0 0 0 0 121638991.5407835 3519973.68419587 3519973.68419587 -1350841.296929928 0 0 0 0 0 126425524.3096873 6430127.174664041 6430127.174664041 6485114.475203732 0 0 0 0 0 129038381.3719647 7432201.757076367 7432201.757076367 11759673.2170775 0 0 0 0 0 119437716.736809 2025250.769142439 2025250.769142439 -3885890.167067062 0 0 0 0 0 132033533.6539091 7854273.524994029 7854273.524994029 17684681.73275529 0 0 0 0 0 139680958.8189077 3306779.804759292 3306779.804759292 20044193.52473195 0 0 0 0 0 168958985.9239168 2551045.83039064 2551045.83039064 35993455.51836167 0 0 0 0 0 159967002.6059188 3350577.908747443 3350577.908747443 36157209.36567659 0 0 0 0 0 150983745.8792054 4412528.826191312 4412528.826191312 31502921.24191709 0 0 0 0 0 143740750.1531435 5751980.259055265 5751980.259055265 25353048.44780948 0 0 0 0 0 110397346.9802603 2290779.54092554 2290779.54092554 -2068056.982015883 0 0 0 0 0 111248548.7097547 2404514.840397524 2404514.840397524 -2244242.577502636 0 0 0 0 0 112241103.5743579 2543544.712938408 2543544.712938408 -2436340.542399115 0 0 0 0 0 112941991.1591546 2247657.34580364 2247657.34580364 -2884088.093683879 0 0 0 0 0 114562269.9270621 2246723.352795086 2246723.352795086 -4066498.904615997 0 0 0 0 0 115081868.6525068 2649056.384197327 2649056.384197327 -2834852.53745493 0 0 0 0 0 116256596.4588998 1843354.48801548 1843354.48801548 -4123170.187017819 0 0 0 0 0 117386513.0381558 679956.7604501568 679956.7604501568 -5673638.302934441 0 0 0 0 0 125654337.3454625 2752315.388253165 2752315.388253165 -2658100.077836286 0 0 0 0 0 123176276.0523611 1502687.260252886 1502687.260252886 -5410460.558656473 0 0 0 0 0 128326397.2046844 3805469.675663585 3805469.675663585 1265687.283209505 0 0 0 0 0 131418084.9260409 4417014.484983395 4417014.484983395 6566921.72192127 0 0 0 0 0 120892601.5363248 245339.7025416137 245339.7025416137 -7194650.725089062 0 0 0 0 0 135107486.5361398 4274165.564724796 4274165.564724796 12992327.68841691 0 0 0 0 0 137914812.1394277 6244835.977767949 6244835.977767949 18398332.25345138 0 0 0 0 0 184639681.4536208 -7013105.34284362 -7013105.34284362 36402936.56488993 0 0 0 0 0 167502339.2949966 -5587240.374699018 -5587240.374699018 32716227.67738498 0 0 0 0 0 158548919.8091417 -3520543.384273349 -3520543.384273349 28807802.7587867 0 0 0 0 0 149919117.4552629 -644982.5350633879 -644982.5350633879 21239514.29406517 0 0 0 0 0 109195151.9958897 1575999.457686091 1575999.457686091 -3214789.270075825 0 0 0 0 0 109947380.859176 1595528.363930575 1595528.363930575 -3546824.214073481 0 0 0 0 0 110749721.5597505 1641981.00267291 1641981.00267291 -3920076.119531091 0 0 0 0 0 111936178.4531733 1607609.914436987 1607609.914436987 -4164845.56666693 0 0 0 0 0 113397733.1209824 1265737.126791142 1265737.126791142 -5029567.558537032 0 0 0 0 0 113818222.9957592 1593075.900449646 1593075.900449646 -4023996.956962725 0 0 0 0 0 115967550.5125025 1539023.202343872 1539023.202343872 -5284053.681901038 0 0 0 0 0 117418704.3378976 534233.9255851081 534233.9255851081 -6652388.165858594 0 0 0 0 0 118762790.7382142 -901421.3658183042 -901421.3658183042 -8252602.97447962 0 0 0 0 0 123511598.1233377 2032115.22584334 2032115.22584334 -2956633.703240776 0 0 0 0 0 126488390.4987082 3649525.180638352 3649525.180638352 824201.3285852629 0 0 0 0 0 120791049.7497029 453884.1116139682 453884.1116139682 -5659431.96836115 0 0 0 0 0 129809400.8077169 5126834.014385151 5126834.014385151 5817148.797625839 0 0 0 0 0 133442396.9649832 6066318.743084076 6066318.743084076 11798222.84423866 0 0 0 0 0 118289712.8740015 -961345.4104911465 -961345.4104911465 -7462336.187536146 0 0 0 0 0 142774985.0425715 1052857.124803922 1052857.124803922 13754405.89828844 0 0 0 0 0 198534108.5137298 1178610.50419042 1178610.50419042 30153575.19592521 0 0 0 0 0 178705443.3794567 -598251.1836573534 -598251.1836573534 34699490.79437745 0 0 0 0 0 166447113.7599947 -90890.98010406597 -90890.98010406597 31551558.75071838 0 0 0 0 0 153490642.4584959 1608680.716638438 1608680.716638438 26513124.34820686 0 0 0 0 0 144545912.1153812 2541235.858802581 2541235.858802581 18724463.49067036 0 0 0 0 0 109890985.9480002 1425755.918260573 1425755.918260573 -2990691.403746874 0 0 0 0 0 110687718.8035207 1416927.304977616 1416927.304977616 -3279467.726431974 0 0 0 0 0 111459624.1794856 1418217.62632194 1418217.62632194 -3581204.448225784 0 0 0 0 0 112192473.2519546 1315824.819803148 1315824.819803148 -3818194.293622802 0 0 0 0 0 112614386.2527388 645658.1090743918 645658.1090743918 -4947769.377333307 0 0 0 0 0 114611855.5615806 566453.4494094203 566453.4494094203 -6087423.788272758 0 0 0 0 0 114731288.8869561 740782.6839359464 740782.6839359464 -5305216.840779369 0 0 0 0 0 115499787.4796062 -489663.8112224641 -489663.8112224641 -6834658.130894052 0 0 0 0 0 116060584.2541564 -2135222.541824174 -2135222.541824174 -8553031.521571288 0 0 0 0 0 125494885.5546836 -457736.9307696806 -457736.9307696806 -7250869.467296942 0 0 0 0 0 128753990.6589786 747204.9168835944 747204.9168835944 -4248444.465614587 0 0 0 0 0 122568953.8355728 -1699575.256837058 -1699575.256837058 -9056060.060314577 0 0 0 0 0 132456387.896226 1640928.728077853 1640928.728077853 214401.97723235 0 0 0 0 0 137033501.7783441 1896482.189384724 1896482.189384724 6348156.371284806 0 0 0 0 0 119953608.4114502 -2821279.36943107 -2821279.36943107 -9999664.023126928 0 0 0 0 0 138114777.4998634 3181767.819625609 3181767.819625609 11616833.97600995 0 0 0 0 0 222939332.5623187 -13453748.57217778 -13453748.57217778 30156249.11042748 0 0 0 0 0 197519135.7434809 -14883393.19982565 -14883393.19982565 31107882.73555566 0 0 0 0 0 176847432.3549913 -13259594.3068781 -13259594.3068781 32484946.40877622 0 0 0 0 0 163910744.611664 -8454133.101401662 -8454133.101401662 22936988.65907395 0 0 0 0 0 152672003.6321196 -5230972.948812817 -5230972.948812817 15389983.16093302 0 0 0 0 0 108787104.1088032 789357.9065472952 789357.9065472952 -4010096.359563736 0 0 0 0 0 109469922.6165753 718433.6478075745 718433.6478075745 -4398789.587425216 0 0 0 0 0 110194570.1951606 647451.5187660736 647451.5187660736 -4843555.274192194 0 0 0 0 0 110943483.5602524 555722.2092227323 555722.2092227323 -5180272.247687254 0 0 0 0 0 112409564.6203365 486991.4664293065 486991.4664293065 -5478105.863303533 0 0 0 0 0 113307483.0367881 -290050.1718753916 -290050.1718753916 -6574718.658239382 0 0 0 0 0 113240494.0072134 -247085.1114550587 -247085.1114550587 -6148538.10209364 0 0 0 0 0 115731448.1726481 -485138.3034869481 -485138.3034869481 -7375212.692672835 0 0 0 0 0 116778809.307827 -1893449.434576941 -1893449.434576941 -8807934.542228177 0 0 0 0 0 117572184.4122669 -3752562.046146948 -3752562.046146948 -10370753.29516222 0 0 0 0 0 121772732.6287321 -1791686.074447084 -1791686.074447084 -7703188.452771864 0 0 0 0 0 125106821.0959756 -207816.3457723935 -207816.3457723935 -4824349.941022705 0 0 0 0 0 128828453.412583 1367906.547357381 1367906.547357381 -653177.4108584803 0 0 0 0 0 118812005.938072 -3186468.151432583 -3186468.151432583 -9513285.151787208 0 0 0 0 0 133056360.7367171 2645067.763214126 2645067.763214126 4937643.025560291 0 0 0 0 0 116205702.9536951 -4300271.84557728 -4300271.84557728 -10475541.99851131 0 0 0 0 0 143578071.7941187 -2642894.697344622 -2642894.697344622 6460757.171101994 0 0 0 0 0 237075300.1108586 -393120.6599974849 -393120.6599974849 15453226.09591034 0 0 0 0 0 222205515.8838853 -8605239.490357842 -8605239.490357842 27815699.3748928 0 0 0 0 0 182188764.2070724 -12886205.52425244 -12886205.52425244 26277344.14205707 0 0 0 0 0 168716049.6029591 -6353794.132877919 -6353794.132877919 25975862.12067131 0 0 0 0 0 151578130.5019661 -5136032.028810506 -5136032.028810506 17940454.85425537 0 0 0 0 0 142268129.0489784 -2370711.434140054 -2370711.434140054 11289295.66078006 0 0 0 0 0 109307787.3352615 594934.5839477953 594934.5839477953 -3705070.217720276 0 0 0 0 0 110019818.7474757 505694.0503063888 505694.0503063888 -4064197.236337085 0 0 0 0 0 110882566.6745784 390664.49758024 390664.49758024 -4441916.045884042 0 0 0 0 0 111830183.4903235 309596.451589632 309596.451589632 -4889039.793341764 0 0 0 0 0 111142346.0235238 -271107.5436504725 -271107.5436504725 -5679047.759993878 0 0 0 0 0 111782328.340058 -1093215.216765615 -1093215.216765615 -6640092.670995065 0 0 0 0 0 114177831.3968916 -1353689.11418543 -1353689.11418543 -7734234.885426696 0 0 0 0 0 113781884.0074516 -1475271.560142066 -1475271.560142066 -7529771.082273726 0 0 0 0 0 114068917.7314526 -3082331.293965502 -3082331.293965502 -9118466.715611747 0 0 0 0 0 113959634.4564127 -5144885.394017675 -5144885.394017675 -10846466.61737346 0 0 0 0 0 123914316.4001629 -4346658.407255402 -4346658.407255402 -11056187.53982635 0 0 0 0 0 127554419.995276 -3257029.647452234 -3257029.647452234 -9206603.723977918 0 0 0 0 0 131797436.9147772 -2298985.563690935 -2298985.563690935 -5880755.334126361 0 0 0 0 0 120743638.0688943 -5339652.00147723 -5339652.00147723 -11856584.93797329 0 0 0 0 0 136922607.5449366 -1921084.405274007 -1921084.405274007 -697703.5858101057 0 0 0 0 0 117973188.996403 -6117237.480719649 -6117237.480719649 -11997389.23924747 0 0 0 0 0 135552911.0367538 -1703353.432190812 -1703353.432190812 3849018.200245454 0 0 0 0 0 304559757.4341798 -22875958.34174628 -22875958.34174628 23880472.90164599 0 0 0 0 0 221100462.237854 -27994282.66726327 -27994282.66726327 3141252.373724794 0 0 0 0 0 211579056.5412574 -25915645.99139959 -25915645.99139959 28134138.51711756 0 0 0 0 0 178546331.8173153 -24280550.96260375 -24280550.96260375 26607057.51546618 0 0 0 0 0 165755513.5963131 -18088262.38458516 -18088262.38458516 21013123.61805914 0 0 0 0 0 150682353.5542715 -10691094.52044607 -10691094.52044607 8076957.717080012 0 0 0 0 0 108292648.4139859 29797.65557528241 29797.65557528241 -4608065.591318004 0 0 0 0 0 108893912.2059777 -123977.7405808333 -123977.7405808333 -5071522.522165937 0 0 0 0 0 109565477.247784 -318744.9726869172 -318744.9726869172 -5583626.497204098 0 0 0 0 0 110297526.4201566 -558896.0142286202 -558896.0142286202 -6067369.406189864 0 0 0 0 0 112105923.4645987 -957802.5316002 -957802.5316002 -6690761.505290657 0 0 0 0 0 112710145.6833056 -2079552.946823982 -2079552.946823982 -7848957.160514412 0 0 0 0 0 112177217.4197437 -2298574.66687967 -2298574.66687967 -7919058.614962701 0 0 0 0 0 114899545.6448054 -2740997.687823951 -2740997.687823951 -9019128.222320929 0 0 0 0 0 115396872.9133242 -4508892.760994871 -4508892.760994871 -10382799.71859885 0 0 0 0 0 115489669.2836542 -6707536.670543401 -6707536.670543401 -11766235.09374743 0 0 0 0 0 118627800.9685879 -6148120.739971537 -6148120.739971537 -11762143.60043671 0 0 0 0 0 122029772.9283521 -4920283.295806578 -4920283.295806578 -9987268.545566043 0 0 0 0 0 125956303.7410933 -3491181.835522693 -3491181.835522693 -6903807.623787005 0 0 0 0 0 130271337.0648385 -2297319.985991887 -2297319.985991887 -2367446.426124698 0 0 0 0 0 115729453.0465468 -7082189.420896241 -7082189.420896241 -12553198.27636059 0 0 0 0 0 113249048.3973874 -7731402.011820954 -7731402.011820954 -12696718.21277922 0 0 0 0 0 140970008.4735204 -7576116.296945813 -7576116.296945813 -1132165.454665974 0 0 0 0 0 269548374.5564163 -45473678.78834191 -45473678.78834191 29140774.85426775 0 0 0 0 0 192922878.7133204 -42642596.62962828 -42642596.62962828 15638034.22292895 0 0 0 0 0 160466971.6982204 -20037148.03033624 -20037148.03033624 19309996.0562631 0 0 0 0 0 144279138.6889107 -12417135.20255793 -12417135.20255793 12074583.59504258 0 0 0 0 0 135600347.8757539 -8904654.302001409 -8904654.302001409 3156315.015034025 0 0 0 0 0 108634687.6191479 -196290.9017794719 -196290.9017794719 -4242900.822909467 0 0 0 0 0 109256089.1270443 -380304.1842168201 -380304.1842168201 -4654267.174572872 0 0 0 0 0 109922692.9096206 -600238.99103589 -600238.99103589 -5117063.585317026 0 0 0 0 0 110615948.9661394 -822244.4717828613 -822244.4717828613 -5596401.413263328 0 0 0 0 0 110635198.7235042 -1775036.857273144 -1775036.857273144 -6758127.482130249 0 0 0 0 0 110743981.6931932 -2952123.354174673 -2952123.354174673 -7966749.884918881 0 0 0 0 0 113212075.7560966 -3418556.800321345 -3418556.800321345 -8952893.105357345 0 0 0 0 0 112259473.7606483 -3849537.152020443 -3849537.152020443 -9323612.891911542 0 0 0 0 0 111965358.6182992 -5777530.452679863 -5777530.452679863 -10840099.31194383 0 0 0 0 0 111123941.9991277 -8143279.756892129 -8143279.756892129 -12419683.09418796 0 0 0 0 0 120835167.1459209 -8540994.169489261 -8540994.169489261 -13705627.39830265 0 0 0 0 0 124509972.7197499 -7834350.91487681 -7834350.91487681 -13043824.5930487 0 0 0 0 0 128868170.8916284 -7111890.42192331 -7111890.42192331 -11090225.93727884 0 0 0 0 0 134219415.095887 -6781972.601574648 -6781972.601574648 -7262104.440320087 0 0 0 0 0 117674692.8514958 -9066829.084803732 -9066829.084803732 -13617424.40272161 0 0 0 0 0 114957258.5098151 -9382099.241246743 -9382099.241246743 -13100673.0567891 0 0 0 0 0 129800219.6155574 -7944493.753553065 -7944493.753553065 -4091288.806744625 0 0 0 0 0 236593944.7472823 -62868746.62669178 -62868746.62669178 40229813.08445855 0 0 0 0 0 181617795.81521 -38569577.11124086 -38569577.11124086 28563980.95545186 0 0 0 0 0 155304215.5410451 -22751367.14153731 -22751367.14153731 12385081.7718235 0 0 0 0 0 142113425.626012 -15653270.09348583 -15653270.09348583 -231835.1510058902 0 0 0 0 0 107737328.9127582 -678118.6387787026 -678118.6387787026 -5012454.769486102 0 0 0 0 0 108254801.0889596 -915994.6162614685 -915994.6162614685 -5509384.909820955 0 0 0 0 0 108825329.8683394 -1199665.682740524 -1199665.682740524 -6075018.527781589 0 0 0 0 0 109403059.9949366 -1511939.174424659 -1511939.174424659 -6714193.01746791 0 0 0 0 0 110439535.1623321 -1931300.23203988 -1931300.23203988 -7133482.851776372 0 0 0 0 0 111373531.4854477 -2698812.053407001 -2698812.053407001 -7776571.022868569 0 0 0 0 0 111684925.0737858 -3941269.353857317 -3941269.353857317 -8714398.17622165 0 0 0 0 0 110653961.8850639 -4431563.714117774 -4431563.714117774 -9266582.515644945 0 0 0 0 0 113447258.8289529 -5085799.621850692 -5085799.621850692 -10127945.73771236 0 0 0 0 0 113307951.1430216 -7110093.714337472 -7110093.714337472 -11287887.88866084 0 0 0 0 0 112597638.4262004 -9520270.79818942 -9520270.79818942 -12366532.5944414 0 0 0 0 0 117254556.2077425 -10031415.52943075 -10031415.52943075 -14198677.54816569 0 0 0 0 0 114231525.7426925 -10588691.02677645 -10588691.02677645 -14733724.78815436 0 0 0 0 0 120860380.070708 -9224934.026905686 -9224934.026905686 -12511084.42625946 0 0 0 0 0 124919866.5932702 -8411668.497325085 -8411668.497325085 -9301019.897622306 0 0 0 0 0 111678320.7987112 -10894337.22511211 -10894337.22511211 -14561014.95483831 0 0 0 0 0 109528613.7651627 -10975177.69133786 -10975177.69133786 -13985451.03730916 0 0 0 0 0 134052331.8050024 -12982242.30265413 -12982242.30265413 -8246777.125654556 0 0 0 0 0 158922639.1451862 -53509210.19570662 -53509210.19570662 21889204.40326772 0 0 0 0 0 139555862.7851854 -30501818.93102559 -30501818.93102559 14083046.14876263 0 0 0 0 0 131070144.1135195 -19658674.54595215 -19658674.54595215 4378166.977462918 0 0 0 0 0 125418163.1114783 -15935305.85340433 -15935305.85340433 -4883505.321086242 0 0 0 0 0 107905055.029282 -917631.6197249939 -917631.6197249939 -4618697.635522384 0 0 0 0 0 108404835.7524698 -1189579.88200259 -1189579.88200259 -5052607.274862901 0 0 0 0 0 108942719.4014062 -1516660.608983426 -1516660.608983426 -5542134.708831024 0 0 0 0 0 109525824.0434126 -1860695.206579701 -1860695.206579701 -6072390.039973938 0 0 0 0 0 109811089.5120559 -2381263.849581552 -2381263.849581552 -6661644.088372844 0 0 0 0 0 109518444.8430233 -3466948.555001729 -3466948.555001729 -7955661.355219704 0 0 0 0 0 109233592.2505215 -4853638.495640979 -4853638.495640979 -9036783.807204323 0 0 0 0 0 111716429.575887 -5499063.760405208 -5499063.760405208 -9711372.06290433 0 0 0 0 0 110220980.6397173 -6219272.949021553 -6219272.949021553 -10570300.04781944 0 0 0 0 0 109304311.0985173 -8362267.971239153 -8362267.971239153 -11897712.27273156 0 0 0 0 0 107728675.0867975 -10886017.82897216 -10886017.82897216 -13184207.2992881 0 0 0 0 0 119625877.6807602 -12491751.0563921 -12491751.0563921 -15442424.29098951 0 0 0 0 0 116294354.9559688 -12594173.53087618 -12594173.53087618 -15088119.55342058 0 0 0 0 0 123577790.7638897 -12294107.39172514 -12294107.39172514 -14933398.03733082 0 0 0 0 0 128328217.0052969 -12216091.63819841 -12216091.63819841 -12796161.5125808 0 0 0 0 0 113455285.2793781 -12538791.03915043 -12538791.03915043 -14292481.49661323 0 0 0 0 0 111061117.7329972 -12320716.00736363 -12320716.00736363 -13289759.00815618 0 0 0 0 0 121118158.5237833 -14884043.99729636 -14884043.99729636 -11310731.94160732 0 0 0 0 0 184929346.1764233 -70350503.11634345 -70350503.11634345 47026947.40371597 0 0 0 0 0 152863378.7129149 -41001975.98088854 -41001975.98088854 22571226.21019202 0 0 0 0 0 137405357.1840122 -26619004.31139653 -26619004.31139653 3489275.006445963 0 0 0 0 0 129342356.208847 -20521006.91271567 -20521006.91271567 -8075689.200199907 0 0 0 0 0 107137406.1363105 -1318861.702529206 -1318861.702529206 -5259461.209454332 0 0 0 0 0 107569052.2621607 -1621417.516911231 -1621417.516911231 -5742629.654650271 0 0 0 0 0 108032267.0397185 -1981374.351460236 -1981374.351460236 -6277317.196115408 0 0 0 0 0 108520072.2734704 -2392292.625584872 -2392292.625584872 -6898874.202332451 0 0 0 0 0 109001219.9168229 -2870752.777778834 -2870752.777778834 -7501075.49472762 0 0 0 0 0 110024751.6096239 -3214456.690043211 -3214456.690043211 -7565394.656290358 0 0 0 0 0 110301001.7339468 -4331264.012094583 -4331264.012094583 -8376416.463884229 0 0 0 0 0 110186547.2824669 -5772905.79539259 -5772905.79539259 -9206680.705230884 0 0 0 0 0 108705198.3103253 -6499747.877698822 -6499747.877698822 -10142859.28039177 0 0 0 0 0 111399294.7821124 -7350536.713957368 -7350536.713957368 -10670911.2268274 0 0 0 0 0 110574978.2580616 -9513681.423014281 -9513681.423014281 -11530991.58265398 0 0 0 0 0 109033523.3487829 -11974960.46508642 -11974960.46508642 -12217486.3558053 0 0 0 0 0 114090191.3627228 -14845726.68817031 -14845726.68817031 -16530432.96329114 0 0 0 0 0 111271848.7051958 -14825502.27146118 -14825502.27146118 -16821697.02998128 0 0 0 0 0 108910489.1091342 -14624203.89823217 -14624203.89823217 -16318864.01961755 0 0 0 0 0 117355426.1937814 -14784216.44482685 -14784216.44482685 -15006022.73391783 0 0 0 0 0 106927363.6093772 -14265676.33464095 -14265676.33464095 -15411681.79332123 0 0 0 0 0 105289629.6563456 -13765796.83511084 -13765796.83511084 -14309872.19458357 0 0 0 0 0 124233547.2275239 -18427716.37817537 -18427716.37817537 -14011226.40112714 0 0 0 0 0 119444744.3596942 -57180193.90439398 -57180193.90439398 27198015.24072601 0 0 0 0 0 115683682.9364771 -34888695.1079203 -34888695.1079203 10270629.18434749 0 0 0 0 0 114339604.4812579 -25967163.16693659 -25967163.16693659 -3307737.801178954 0 0 0 0 0 112721956.462095 -22727907.49631041 -22727907.49631041 -12323778.03707705 0 0 0 0 0 107159334.3713177 -1560871.030804521 -1560871.030804521 -4856553.334629743 0 0 0 0 0 107551716.0884932 -1887567.393026713 -1887567.393026713 -5298120.656554019 0 0 0 0 0 107978821.3031027 -2268588.250358371 -2268588.250358371 -5772386.739403383 0 0 0 0 0 108542440.2556256 -2708243.50500181 -2708243.50500181 -6296274.915097191 0 0 0 0 0 109287042.216297 -3175567.154384486 -3175567.154384486 -6837848.926861119 0 0 0 0 0 108226626.7357689 -3971943.796012551 -3971943.796012551 -7892839.865629075 0 0 0 0 0 107962209.8666429 -5123895.135835645 -5123895.135835645 -8752836.125284044 0 0 0 0 0 107392148.145182 -6641696.396155351 -6641696.396155351 -9639015.974673456 0 0 0 0 0 109733328.9199221 -7460344.609174279 -7460344.609174279 -9988912.587300034 0 0 0 0 0 107748429.1368545 -8431970.334700674 -8431970.334700674 -11236512.79196388 0 0 0 0 0 106229756.516926 -10667177.77405788 -10667177.77405788 -12272773.16702057 0 0 0 0 0 103977492.8123721 -13173223.44076673 -13173223.44076673 -13145313.58938877 0 0 0 0 0 116339159.6166171 -17067602.15767788 -17067602.15767788 -16878544.03080703 0 0 0 0 0 113253578.4070959 -16638448.6277726 -16638448.6277726 -16280587.98796266 0 0 0 0 0 110604495.6340514 -16083627.40345761 -16083627.40345761 -15212116.19242074 0 0 0 0 0 120086487.6060847 -17521585.89696215 -17521585.89696215 -16400710.29191792 0 0 0 0 0 108373994.2209948 -15420556.44398781 -15420556.44398781 -13937833.84615521 0 0 0 0 0 106519891.3499095 -14685086.33903078 -14685086.33903078 -12646514.22001907 0 0 0 0 0 110538504.02521 -21414064.56878752 -21414064.56878752 -16841807.06711895 0 0 0 0 0 128981160.4134159 -63505894.78686215 -63505894.78686215 45100435.55420239 0 0 0 0 0 120041351.00744 -38876363.86860697 -38876363.86860697 12871157.79415334 0 0 0 0 0 116406256.977401 -28737002.85226931 -28737002.85226931 -5920848.519925648 0 0 0 0 0 114408884.1051161 -24571626.07905441 -24571626.07905441 -14436636.65332016 0 0 0 0 0 106510172.5276099 -1888811.779831535 -1888811.779831535 -5377457.106768783 0 0 0 0 0 106866874.3095031 -2238729.328739333 -2238729.328739333 -5858321.075694211 0 0 0 0 0 107227578.5291255 -2650756.972109736 -2650756.972109736 -6382493.618979489 0 0 0 0 0 107613210.9230005 -3149498.07616604 -3149498.07616604 -6983281.268457784 0 0 0 0 0 107970420.029601 -3785377.742668007 -3785377.742668007 -7668056.554546602 0 0 0 0 0 108985115.6194711 -4590970.882134274 -4590970.882134274 -7996097.25611786 0 0 0 0 0 108815261.009327 -5929969.854153238 -5929969.854153238 -8651703.001766717 0 0 0 0 0 108306286.4248201 -7452125.849805772 -7452125.849805772 -9276992.210061619 0 0 0 0 0 106418407.1541208 -8388233.215286191 -8388233.215286191 -10524726.78479293 0 0 0 0 0 108836328.752302 -9393795.552651981 -9393795.552651981 -10668849.01345407 0 0 0 0 0 107329593.6090025 -11548243.82931089 -11548243.82931089 -11167743.87971689 0 0 0 0 0 105009201.0524075 -13895041.79617815 -13895041.79617815 -11424896.40705416 0 0 0 0 0 108398693.8364774 -20475497.44899487 -20475497.44899487 -18509097.55541945 0 0 0 0 0 106320280.7352464 -19704644.90639696 -19704644.90639696 -18606906.43782609 0 0 0 0 0 104554227.1494237 -18832311.12302385 -18832311.12302385 -17765175.01088793 0 0 0 0 0 103044365.02385 -17894492.90323168 -17894492.90323168 -16520577.92343927 0 0 0 0 0 101797532.6273558 -16907018.80156554 -16907018.80156554 -15133776.97306619 0 0 0 0 0 100819550.6740093 -15896025.64359719 -15896025.64359719 -13748163.19065539 0 0 0 0 0 112200904.2633519 -23004493.03580687 -23004493.03580687 -17275698.00899824 0 0 0 0 0 82304198.22873257 -50216800.70230433 -50216800.70230433 28138671.84448495 0 0 0 0 0 92290122.44530897 -35757165.1305603 -35757165.1305603 3912533.703438919 0 0 0 0 0 98018586.07139528 -30326745.1380685 -30326745.1380685 -10147631.16634545 0 0 0 0 0 99503588.21927513 -28049880.99375841 -28049880.99375841 -17215354.74163606 0 0 0 0 0 106407709.6158084 -2120616.99824831 -2120616.99824831 -4975062.287879609 0 0 0 0 0 106695363.6596211 -2501886.745384898 -2501886.745384898 -5425693.602733033 0 0 0 0 0 106971026.0600146 -2940136.198812273 -2940136.198812273 -5891241.96310654 0 0 0 0 0 107233046.9494717 -3467129.183196319 -3467129.183196319 -6403646.371456865 0 0 0 0 0 107472911.3939892 -4078111.577206782 -4078111.577206782 -6982838.236676927 0 0 0 0 0 106990593.0550492 -5329600.996112018 -5329600.996112018 -8191082.222724459 0 0 0 0 0 106276721.9232274 -6695808.399185345 -6695808.399185345 -9067360.529676594 0 0 0 0 0 105290457.088151 -8249367.977268153 -8249367.977268153 -9794616.685400521 0 0 0 0 0 107355299.2183428 -9175469.093130495 -9175469.093130495 -9808332.039449092 0 0 0 0 0 104964104.9295243 -10358230.99204545 -10358230.99204545 -11330871.93993916 0 0 0 0 0 102900473.8870557 -12535391.05231426 -12535391.05231426 -11997533.4419155 0 0 0 0 0 100094865.41318 -14868275.32938453 -14868275.32938453 -12403713.80521653 0 0 0 0 0 110034634.4157359 -21942057.49886826 -21942057.49886826 -17827080.99843244 0 0 0 0 0 107868053.2949688 -20931256.78674361 -20931256.78674361 -16979088.49508445 0 0 0 0 0 105922130.1166069 -19829110.68324652 -19829110.68324652 -15695328.2597173 0 0 0 0 0 104225364.3326445 -18677763.83852293 -18677763.83852293 -14218393.86571295 0 0 0 0 0 102797854.30555 -17499102.11159018 -17499102.11159018 -12744198.86883158 0 0 0 0 0 101642344.7471044 -16323565.30594456 -16323565.30594456 -11373969.01243724 0 0 0 0 0 99395102.91621555 -26443134.97682889 -26443134.97682889 -19658548.59154477 0 0 0 0 0 79830621.73128508 -46016471.41223817 -46016471.41223817 31894445.19017446 0 0 0 0 0 86824724.02627921 -31488507.12094085 -31488507.12094085 -2747915.715590693 0 0 0 0 0 94400891.99790283 -27682387.25231355 -27682387.25231355 -14601880.34005694 0 0 0 0 0 98643054.47282378 -27274329.04969174 -27274329.04969174 -17683253.81170565 0 0 0 0 0 105873928.7793844 -2381774.972547376 -2381774.972547376 -5383226.204678491 0 0 0 0 0 106180760.324685 -2758263.068757934 -2758263.068757934 -5834182.690136965 0 0 0 0 0 106430524.1274725 -3216109.894918839 -3216109.894918839 -6331392.029200977 0 0 0 0 0 106683168.0336827 -3748230.069561496 -3748230.069561496 -6852157.213634338 0 0 0 0 0 106974100.6007911 -4384815.502057829 -4384815.502057829 -7499935.704920304 0 0 0 0 0 107513002.768416 -5110890.362640918 -5110890.362640918 -7924346.573170721 0 0 0 0 0 107639693.6922027 -6011925.150302076 -6011925.150302076 -8136543.32889322 0 0 0 0 0 107056231.2636831 -7364957.617732227 -7364957.617732227 -8575449.75532235 0 0 0 0 0 106100623.1190669 -8900027.341534317 -8900027.341534317 -8982420.241118439 0 0 0 0 0 103906119.1634451 -9986919.562592056 -9986919.562592056 -10415857.87302005 0 0 0 0 0 105896844.1858743 -11073933.06187286 -11073933.06187286 -10177333.07224808 0 0 0 0 0 103761524.3405953 -13100936.05599601 -13100936.05599601 -10309252.9241913 0 0 0 0 0 100772908.7185694 -15179846.62806184 -15179846.62806184 -10169946.82622502 0 0 0 0 0 98775246.45077132 -24914010.46089101 -24914010.46089101 -19785355.11456189 0 0 0 0 0 98203020.27214351 -23301221.14771025 -23301221.14771025 -18709645.75603134 0 0 0 0 0 97609687.20799761 -21716983.48919354 -21716983.48919354 -17191159.58761927 0 0 0 0 0 97070207.25847439 -20158887.30936473 -20158887.30936473 -15532814.37118832 0 0 0 0 0 96661550.66624483 -18664675.06334512 -18664675.06334512 -13919601.21939748 0 0 0 0 0 96451170.99796312 -17236247.85593491 -17236247.85593491 -12448274.67668422 0 0 0 0 0 99328594.09127924 -26163089.16075375 -26163089.16075375 -18211449.74579005 0 0 0 0 0 52627000.07455938 -37997665.54085949 -37997665.54085949 20288708.55310132 0 0 0 0 0 77601648.02803858 -36184405.53967386 -36184405.53967386 -4884210.088644304 0 0 0 0 0 85223569.41685228 -33467187.61010874 -33467187.61010874 -15954092.27118922 0 0 0 0 0 87223955.00468554 -31525570.43584917 -31525570.43584917 -19443754.26036014 0 0 0 0 0 105644522.2196554 -2533142.635542826 -2533142.635542826 -5067652.636234982 0 0 0 0 0 105741189.7467226 -2997847.832751767 -2997847.832751767 -5482919.722596338 0 0 0 0 0 106026141.1399831 -3490423.132422114 -3490423.132422114 -5872397.197005932 0 0 0 0 0 106140066.0451365 -4030102.239154427 -4030102.239154427 -6361497.32463388 0 0 0 0 0 106291351.1156792 -4722790.644938653 -4722790.644938653 -6871586.640421068 0 0 0 0 0 106122699.1319317 -5514530.470828607 -5514530.470828607 -7414795.550680797 0 0 0 0 0 105357670.0711338 -6679823.715999129 -6679823.715999129 -8478128.613846926 0 0 0 0 0 104345096.2749623 -8056973.773138094 -8056973.773138094 -9064350.781924577 0 0 0 0 0 103030478.3204703 -9583920.477398938 -9583920.477398938 -9545491.060649376 0 0 0 0 0 104698233.9585906 -10570785.52447248 -10570785.52447248 -9240277.704586651 0 0 0 0 0 102019777.3663082 -11883402.63847308 -11883402.63847308 -10900021.29985433 0 0 0 0 0 99497998.47784746 -13894597.05178552 -13894597.05178552 -11177487.12793852 0 0 0 0 0 96274314.30276993 -15914256.22512449 -15914256.22512449 -11114845.64658867 0 0 0 0 0 99264239.48729065 -24981824.2071708 -24981824.2071708 -17122591.70686157 0 0 0 0 0 98811179.23752967 -23418249.22652236 -23418249.22652236 -15649450.25630674 0 0 0 0 0 98234588.19262727 -21818082.06142878 -21818082.06142878 -14007807.56692063 0 0 0 0 0 97658831.35709497 -20216935.85960529 -20216935.85960529 -12446942.35500959 0 0 0 0 0 97149221.7459451 -18654053.09067091 -18654053.09067091 -10996489.27825818 0 0 0 0 0 96784725.25762701 -17160829.53577415 -17160829.53577415 -9690474.033598838 0 0 0 0 0 88375201.90031359 -29687102.2089887 -29687102.2089887 -20065378.35019008 0 0 0 0 0 44039274.00572987 -25344804.4223148 -25344804.4223148 9710579.436112139 0 0 0 0 0 60470698.6150323 -26560399.73715572 -26560399.73715572 -13620431.06694874 0 0 0 0 0 79806835.70579098 -28857793.21336171 -28857793.21336171 -17585833.66479934 0 0 0 0 0 85301439.72990023 -29225449.98532793 -29225449.98532793 -18477275.04218843 0 0 0 0 0 105217670.3689637 -2774588.618418263 -2774588.618418263 -5380886.443739396 0 0 0 0 0 105686379.2719038 -3040323.688302846 -3040323.688302846 -5568039.484638955 0 0 0 0 0 105713132.4973989 -3648133.304140649 -3648133.304140649 -6122505.807201915 0 0 0 0 0 105819931.9827313 -4219152.482974466 -4219152.482974466 -6664321.247536517 0 0 0 0 0 105935332.8662289 -4879081.997979679 -4879081.997979679 -7117853.315255507 0 0 0 0 0 105801751.9823829 -5698625.190334925 -5698625.190334925 -7733637.808691834 0 0 0 0 0 106384577.0089722 -6167794.390111035 -6167794.390111035 -7706922.930691004 0 0 0 0 0 105962391.5717684 -7240694.089714863 -7240694.089714863 -7958207.119846106 0 0 0 0 0 105036657.4545025 -8583914.605745001 -8583914.605745001 -8213219.239397421 0 0 0 0 0 103698860.482209 -10047414.61322806 -10047414.61322806 -8385142.842622075 0 0 0 0 0 101307499.232631 -11234580.73179057 -11234580.73179057 -9887713.107560491 0 0 0 0 0 102737800.0675269 -12324763.23541624 -12324763.23541624 -9289617.32375982 0 0 0 0 0 100057312.4933564 -14110381.96585566 -14110381.96585566 -9068688.530364968 0 0 0 0 0 96565433.18892434 -15798525.9168322 -15798525.9168322 -8563001.373609364 0 0 0 0 0 89606483.87551731 -27508941.07744333 -27508941.07744333 -18808905.28609956 0 0 0 0 0 90420713.88689926 -25381998.64120209 -25381998.64120209 -17199617.588796 0 0 0 0 0 91013830.0396582 -23267634.45558942 -23267634.45558942 -15381896.75471497 0 0 0 0 0 91508754.29913414 -21292452.70538419 -21292452.70538419 -13616404.95291084 0 0 0 0 0 91926628.72603811 -19458235.98134973 -19458235.98134973 -12017266.56608584 0 0 0 0 0 92324306.95594673 -17779992.75668165 -17779992.75668165 -10633968.2439713 0 0 0 0 0 87350530.86527863 -28023548.37417506 -28023548.37417506 -16624875.39099455 0 0 0 0 0 24200143.55096379 -19136749.63534284 -19136749.63534284 -74497.25394705158 0 0 0 0 0 57112806.11299133 -31067720.16922055 -31067720.16922055 -12588103.01226762 0 0 0 0 0 71671905.00594223 -35351151.00718547 -35351151.00718547 -15328953.04595479 0 0 0 0 0 72986699.55680707 -33552874.89039613 -33552874.89039613 -17635892.74787633 0 0 0 0 0 74865348.56830843 -33022508.21631833 -33022508.21631833 -19024562.9329281 0 0 0 0 0 105362048.8191045 -2905966.442450365 -2905966.442450365 -5037290.118903602 0 0 0 0 0 104809684.396898 -3363195.970877528 -3363195.970877528 -5609695.068535609 0 0 0 0 0 105115325.3020717 -3837372.831751909 -3837372.831751909 -5708999.861138907 0 0 0 0 0 105115862.2462871 -4493151.679361231 -4493151.679361231 -6213422.772960484 0 0 0 0 0 104919059.4991726 -5246766.723570234 -5246766.723570234 -6726576.570050547 0 0 0 0 0 105770175.205693 -5891387.711475156 -5891387.711475156 -6946643.662104948 0 0 0 0 0 104406454.2848723 -6666569.645379746 -6666569.645379746 -8026076.694603212 0 0 0 0 0 103520341.5502669 -7823822.941447397 -7823822.941447397 -8438707.133624738 0 0 0 0 0 102288540.2155279 -9157230.459977603 -9157230.459977603 -8745222.045035299 0 0 0 0 0 100722507.1217631 -10592883.6729989 -10592883.6729989 -8967259.525340836 0 0 0 0 0 101898823.1487604 -11569357.4139077 -11569357.4139077 -8373126.302840181 0 0 0 0 0 99038678.92852184 -12952107.43280628 -12952107.43280628 -10042136.04145622 0 0 0 0 0 96210451.84612848 -14686578.65702151 -14686578.65702151 -9907456.151506856 0 0 0 0 0 92736746.67181642 -16281572.20545697 -16281572.20545697 -9425240.182771601 0 0 0 0 0 88945476.38348821 -26327919.11194453 -26327919.11194453 -15089521.98531571 0 0 0 0 0 90081576.96983403 -24460338.19499079 -24460338.19499079 -13186916.91427965 0 0 0 0 0 90857690.48093157 -22510035.11780384 -22510035.11780384 -11599915.51597554 0 0 0 0 0 91424674.66823982 -20634183.310976 -20634183.310976 -10142203.68117705 0 0 0 0 0 91867078.26671806 -18886020.12607021 -18886020.12607021 -8870832.061259767 0 0 0 0 0 92320950.71076342 -17262054.57047222 -17262054.57047222 -7743680.922715178 0 0 0 0 0 78704444.14360508 -30766541.4722566 -30766541.4722566 -18048762.817417 0 0 0 0 0 20457890.5308051 -7016655.005500023 -7016655.005500023 -20022984.13615355 0 0 0 0 0 33973878.86246298 -25367645.71115141 -25367645.71115141 -15818056.12008785 0 0 0 0 0 57018963.17289212 -30552048.39230393 -30552048.39230393 -15966298.36949413 0 0 0 0 0 71568621.99039893 -31157823.15805797 -31157823.15805797 -19345453.67004242 0 0 0 0 0 72762681.86944838 -29464509.44268126 -29464509.44268126 -16488246.64473307 0 0 0 0 0 105172903.9563548 -3565333.16299672 -3565333.16299672 -5340902.295197557 0 0 0 0 0 105128053.7568787 -4491056.59281355 -4491056.59281355 -6211038.491861755 0 0 0 0 0 104473386.7271952 -4105271.863868643 -4105271.863868643 -6058366.512308784 0 0 0 0 0 104926700.8547692 -5269501.710027411 -5269501.710027411 -6760214.079324447 0 0 0 0 0 105308381.9096087 -5768018.000321108 -5768018.000321108 -6668344.538076589 0 0 0 0 0 104096224.6076875 -6414802.307577739 -6414802.307577739 -7544301.127799982 0 0 0 0 0 104987311.1827775 -7070908.149568786 -7070908.149568786 -7365418.605774525 0 0 0 0 0 104104781.0464863 -8252413.548686159 -8252413.548686159 -7537707.423359245 0 0 0 0 0 102866580.4167163 -9537110.433848381 -9537110.433848381 -7612195.265855029 0 0 0 0 0 101226860.0913665 -10851180.4605646 -10851180.4605646 -7522499.42120178 0 0 0 0 0 98711018.65594473 -12073604.2929377 -12073604.2929377 -9018087.434897752 0 0 0 0 0 99502036.61154735 -13103024.66972592 -13103024.66972592 -8108955.440715753 0 0 0 0 0 96428243.75884175 -14555518.68630325 -14555518.68630325 -7610032.685991979 0 0 0 0 0 92666059.57772736 -15802597.15160573 -15802597.15160573 -6836737.920301173 0 0 0 0 0 81273241.71002574 -28410055.287701 -28410055.287701 -16394148.12123048 0 0 0 0 0 83446032.78598931 -25857540.8154646 -25857540.8154646 -14482292.36558775 0 0 0 0 0 85160833.03390846 -23531979.59589727 -23531979.59589727 -12755199.62421941 0 0 0 0 0 86481906.37624037 -21349224.20336169 -21349224.20336169 -11157016.68171808 0 0 0 0 0 87625470.52897614 -19388137.92030873 -19388137.92030873 -9783782.046622965 0 0 0 0 0 88655383.76152787 -17625294.6504533 -17625294.6504533 -8570785.169153288 0 0 0 0 0 76523371.0534225 -27986077.23543962 -27986077.23543962 -14030413.80129489 0 0 0 0 0 8407645.150358086 -7815517.829284187 -7815517.829284187 -16934006.46088298 0 0 0 0 0 32349057.84293304 -19429181.17704533 -19429181.17704533 -28199303.59056764 0 0 0 0 0 55273533.26125593 -30973680.91268387 -30973680.91268387 -21590407.47041041 0 0 0 0 0 57281483.00419411 -33241433.23140172 -33241433.23140172 -17310739.61730426 0 0 0 0 0 65315537.50011881 -32492312.3240812 -32492312.3240812 -16543406.75691386 0 0 0 0 0 103979397.9747176 -4792625.786498345 -4792625.786498345 -6229576.279309923 0 0 0 0 0 104857825.0658664 -4331163.166515145 -4331163.166515145 -5598971.552991593 0 0 0 0 0 104697466.5960159 -5395770.330083579 -5395770.330083579 -6176547.870903151 0 0 0 0 0 103626380.7811075 -6186639.231033236 -6186639.231033236 -7175497.817666591 0 0 0 0 0 104567115.2601867 -6716912.33694874 -6716912.33694874 -6761703.201258416 0 0 0 0 0 102984691.6401097 -7565772.059770179 -7565772.059770179 -7891626.771198101 0 0 0 0 0 101748497.780623 -8738924.0204702 -8738924.0204702 -8083424.567540054 0 0 0 0 0 100226938.9803969 -9959767.482259315 -9959767.482259315 -8161720.173015155 0 0 0 0 0 98473053.12595634 -11247175.76683567 -11247175.76683567 -8098625.480471472 0 0 0 0 0 99073446.68587866 -12154342.12777701 -12154342.12777701 -7286962.008051383 0 0 0 0 0 96166265.37129885 -13551185.73023444 -13551185.73023444 -8853672.072910057 0 0 0 0 0 93217587.20382667 -14909644.44700113 -14909644.44700113 -8360131.545453135 0 0 0 0 0 89696192.6450363 -16034522.57760775 -16034522.57760775 -7562986.29014585 0 0 0 0 0 79628336.51315939 -26183074.46475556 -26183074.46475556 -11821621.1515725 0 0 0 0 0 82232278.45149177 -24062448.95833252 -24062448.95833252 -10283083.77047194 0 0 0 0 0 84208050.24625593 -22053275.29745382 -22053275.29745382 -8841869.375998454 0 0 0 0 0 85879122.10550728 -20118303.87642506 -20118303.87642506 -7681350.307042195 0 0 0 0 0 87166459.28700021 -18324974.46915179 -18324974.46915179 -6673651.030372325 0 0 0 0 0 88257277.37820695 -16710240.65526184 -16710240.65526184 -5835454.278475019 0 0 0 0 0 69942141.96102266 -30301207.01485587 -30301207.01485587 -14927344.14644917 0 0 0 0 0 4382219.913683075 4376959.077599086 4376959.077599086 -53434617.20740005 0 0 0 0 0 16201440.0727782 -20279543.10464159 -20279543.10464159 -22612631.53573171 0 0 0 0 0 36942344.68000112 -27944172.54601439 -27944172.54601439 -18457580.92857694 0 0 0 0 0 57091658.11413802 -30589626.67393634 -30589626.67393634 -17859069.14714314 0 0 0 0 0 59856874.6383193 -27299050.523136 -27299050.523136 -12774202.56409124 0 0 0 0 0 104431680.2819044 -5102283.54157271 -5102283.54157271 -5782058.868325238 0 0 0 0 0 103363658.8099815 -5772614.013882718 -5772614.013882718 -6655026.294238521 0 0 0 0 0 103955827.1395199 -6412667.751568475 -6412667.751568475 -6415339.16998259 0 0 0 0 0 102703919.1905454 -7169960.356228529 -7169960.356228529 -7348037.071493047 0 0 0 0 0 103419420.3219292 -7834727.043175207 -7834727.043175207 -6906988.809262163 0 0 0 0 0 102165580.817976 -8970398.887268944 -8970398.887268944 -6944782.709530205 0 0 0 0 0 100635529.4463294 -10148755.36968048 -10148755.36968048 -6773909.499324521 0 0 0 0 0 98770472.02350079 -11257800.36815829 -11257800.36815829 -6453054.059656954 0 0 0 0 0 96189883.25430231 -12510020.56189039 -12510020.56189039 -7923175.791465093 0 0 0 0 0 96364939.21043451 -13436846.92999371 -13436846.92999371 -6818322.941986182 0 0 0 0 0 93115560.30591145 -14479104.97165166 -14479104.97165166 -6119887.753701017 0 0 0 0 0 89189240.19075932 -15282893.25491035 -15282893.25491035 -5147238.411984692 0 0 0 0 0 74469445.49767865 -27457956.73722846 -27457956.73722846 -12766538.09752636 0 0 0 0 0 77636189.14805116 -25018601.22277025 -25018601.22277025 -11184559.61895459 0 0 0 0 0 80283799.30253841 -22627920.33250296 -22627920.33250296 -9699693.03733713 0 0 0 0 0 82348771.78249644 -20500384.21744544 -20500384.21744544 -8462387.553728782 0 0 0 0 0 84166911.92699748 -18562402.40869788 -18562402.40869788 -7361285.287898447 0 0 0 0 0 85759914.3534959 -16845897.5244908 -16845897.5244908 -6415762.550654883 0 0 0 0 0 66775320.937264 -26210759.46444064 -26210759.46444064 -10049060.22875931 0 0 0 0 0 3301243.246663506 -3145699.280970504 -3145699.280970504 -34137088.13097208 0 0 0 0 0 16911261.73424664 -12598470.84939636 -12598470.84939636 -41104276.83333939 0 0 0 0 0 37631999.41348827 -24901553.26900671 -24901553.26900671 -23762806.7813944 0 0 0 0 0 41136547.32027756 -28948755.27718602 -28948755.27718602 -15724122.40358444 0 0 0 0 0 57165234.99087589 -29722534.80606935 -29722534.80606935 -12187655.60003174 0 0 0 0 0 55621864.8713389 -30283083.40171851 -30283083.40171851 -12911522.58958399 0 0 0 0 0 103684752.2980634 -5985690.129666305 -5985690.129666305 -5925766.483454464 0 0 0 0 0 102470947.7725729 -6753716.643372701 -6753716.643372701 -6879575.167437653 0 0 0 0 0 102986888.4289669 -7384515.369002204 -7384515.369002204 -6431629.869327423 0 0 0 0 0 101478384.3168958 -8261947.730652384 -8261947.730652384 -7454571.264376729 0 0 0 0 0 99986559.87464662 -9358155.109932425 -9358155.109932425 -7436269.025530274 0 0 0 0 0 98217049.61820424 -10497239.82219794 -10497239.82219794 -7326095.503967471 0 0 0 0 0 96103622.21911424 -11501907.20918695 -11501907.20918695 -6995643.52130924 0 0 0 0 0 96364866.90274279 -12442227.51783307 -12442227.51783307 -6274791.489144403 0 0 0 0 0 93577581.02409434 -13675662.34499309 -13675662.34499309 -7499098.752102683 0 0 0 0 0 90542838.89428855 -14683198.1882028 -14683198.1882028 -6714898.816840474 0 0 0 0 0 87133688.92615512 -15338997.50799238 -15338997.50799238 -5672911.19176582 0 0 0 0 0 71549301.99297774 -24340171.12133066 -24340171.12133066 -8652535.16601911 0 0 0 0 0 75569035.41719685 -22506780.5675212 -22506780.5675212 -7066300.094885903 0 0 0 0 0 78666162.81600997 -20561085.85829331 -20561085.85829331 -6089138.362632637 0 0 0 0 0 81217349.87303479 -18765181.17160994 -18765181.17160994 -5270444.133392173 0 0 0 0 0 83212668.43705246 -17138345.10832257 -17138345.10832257 -4606749.565613433 0 0 0 0 0 84901758.52949199 -15684502.89798132 -15684502.89798132 -4090410.045031665 0 0 0 0 0 64561115.09182576 -27421167.22493771 -27421167.22493771 -10266103.19426651 0 0 0 0 0 -1547252.575722174 7846991.342867365 7846991.342867365 -79551649.25551276 0 0 0 0 0 7291288.895414907 -15496193.7649806 -15496193.7649806 -25010860.19547955 0 0 0 0 0 22329474.28429905 -25555328.69384705 -25555328.69384705 -18710763.68900462 0 0 0 0 0 41741575.63776767 -25582701.36239208 -25582701.36239208 -16565273.39039239 0 0 0 0 0 56931502.33458295 -25562661.49803091 -25562661.49803091 -8479306.68499041 0 0 0 0 0 41896069.76100095 -27431481.33216102 -27431481.33216102 -11823636.31563547 0 0 0 0 0 102686085.2802228 -6905823.785369922 -6905823.785369922 -5980834.453623241 0 0 0 0 0 101338725.5881967 -7703914.682641648 -7703914.682641648 -6938529.750923086 0 0 0 0 0 101698859.051228 -8428606.022271637 -8428606.022271637 -6360670.306635546 0 0 0 0 0 100159726.5324395 -9419382.3664211 -9419382.3664211 -6185558.292710099 0 0 0 0 0 98365885.43813509 -10467627.11404906 -10467627.11404906 -5830104.698831927 0 0 0 0 0 96521846.65812969 -11635973.77094191 -11635973.77094191 -5655144.137215683 0 0 0 0 0 93986107.76308632 -12561657.32928576 -12561657.32928576 -6837360.067503387 0 0 0 0 0 93501356.61778446 -13360661.17356691 -13360661.17356691 -5348213.333371435 0 0 0 0 0 90135792.8453519 -13988381.85890923 -13988381.85890923 -4671704.227107282 0 0 0 0 0 86429716.65310486 -14349824.4300343 -14349824.4300343 -3565949.574038134 0 0 0 0 0 69205162.40725361 -25281185.31304381 -25281185.31304381 -8922343.474753719 0 0 0 0 0 73240159.38880071 -22902345.55973651 -22902345.55973651 -7555527.699703461 0 0 0 0 0 76504980.30872075 -20798975.10271094 -20798975.10271094 -6598569.497834638 0 0 0 0 0 79214530.12497768 -18899244.42058711 -18899244.42058711 -5754544.989100649 0 0 0 0 0 81608393.35511619 -17193549.45274198 -17193549.45274198 -5011290.199953829 0 0 0 0 0 83592846.83818109 -15680331.37766746 -15680331.37766746 -4441443.939483554 0 0 0 0 0 58824727.61450559 -23219329.08355034 -23219329.08355034 -6478627.106941392 0 0 0 0 0 3521417.967939908 -3173051.51159042 -3173051.51159042 -44611578.58486566 0 0 0 0 0 5887226.421566267 -7217037.315096742 -7217037.315096742 -46218590.19723044 0 0 0 0 0 21885487.46828227 -16131982.44624322 -16131982.44624322 -24796977.52990996 0 0 0 0 0 28427076.30054148 -25033741.21768337 -25033741.21768337 -13415323.5361525 0 0 0 0 0 47076241.4877445 -24925591.37437399 -24925591.37437399 -8086320.236239688 0 0 0 0 0 43628804.51216501 -23502353.92309115 -23502353.92309115 -10052012.82903969 0 0 0 0 0 101512959.9823888 -7832274.107317475 -7832274.107317475 -5896011.95086299 0 0 0 0 0 100000136.2603263 -8693352.93346935 -8693352.93346935 -6850345.972392344 0 0 0 0 0 98438016.17094091 -9671695.671615945 -9671695.671615945 -6665165.141115718 0 0 0 0 0 96498243.62381281 -10671212.68541752 -10671212.68541752 -6295335.826147053 0 0 0 0 0 93916496.99062477 -11537490.53275744 -11537490.53275744 -5618364.354800625 0 0 0 0 0 93759155.48219426 -12336170.34879708 -12336170.34879708 -5183039.885695326 0 0 0 0 0 91438983.17321567 -13404585.97530085 -13404585.97530085 -5906241.780265115 0 0 0 0 0 88424192.2936554 -14014211.51175193 -14014211.51175193 -5129999.116326864 0 0 0 0 0 85519588.2539672 -14300252.88280289 -14300252.88280289 -3832174.176287301 0 0 0 0 0 66011413.94537197 -21639200.68135551 -21639200.68135551 -4985690.319225646 0 0 0 0 0 70605391.172701 -19933968.8980815 -19933968.8980815 -4227051.389159274 0 0 0 0 0 74422911.37017027 -18340638.94385552 -18340638.94385552 -3600804.270686465 0 0 0 0 0 77509896.67496255 -16862481.99566473 -16862481.99566473 -3112761.744834003 0 0 0 0 0 80084493.55911672 -15512346.17907869 -15512346.17907869 -2735057.884368409 0 0 0 0 0 82350819.96924736 -14259916.66100172 -14259916.66100172 -2407902.121868683 0 0 0 0 0 60515129.56796899 -23893514.69460646 -23893514.69460646 -5978825.055112372 0 0 0 0 0 58881786.80536455 -23441330.47114318 -23441330.47114318 -4913562.270724337 0 0 0 0 0 -6093824.888252186 5443992.797674979 5443992.797674979 -94008466.03444523 0 0 0 0 0 439940.1513934115 -7466481.744232832 -7466481.744232832 -28427820.27818087 0 0 0 0 0 15690077.05438635 -20242904.16907084 -20242904.16907084 -16372120.10426664 0 0 0 0 0 30028567.37666788 -17357658.60705234 -17357658.60705234 -12851356.82510209 0 0 0 0 0 48711771.13905554 -20899743.40254728 -20899743.40254728 -5122683.440572287 0 0 0 0 0 35390129.63120355 -23136629.47817245 -23136629.47817245 -8194106.098200194 0 0 0 0 0 100021627.0211068 -8731057.670777507 -8731057.670777507 -5689247.677701851 0 0 0 0 0 98292627.72457922 -9567893.763419891 -9567893.763419891 -5317211.290903973 0 0 0 0 0 95832906.10274242 -10335158.52262321 -10335158.52262321 -4918374.606244955 0 0 0 0 0 94789789.90513824 -11332511.92847648 -11332511.92847648 -5268719.844906274 0 0 0 0 0 93554998.85602976 -12299460.71121204 -12299460.71121204 -5237418.829864434 0 0 0 0 0 91160345.43114626 -12856133.78809508 -12856133.78809508 -3912535.894670927 0 0 0 0 0 87317221.87176406 -13158226.41977297 -13158226.41977297 -3673828.39794017 0 0 0 0 0 84433169.39869022 -12995412.06860534 -12995412.06860534 -2017235.791411916 0 0 0 0 0 65936539.2642542 -21848427.57033707 -21848427.57033707 -4922635.048881951 0 0 0 0 0 70260889.14099622 -20056857.78702816 -20056857.78702816 -4273252.779338412 0 0 0 0 0 73919995.64076906 -18388164.46902601 -18388164.46902601 -3721921.164266067 0 0 0 0 0 76971371.4661037 -16846653.57075496 -16846653.57075496 -3268530.235826905 0 0 0 0 0 79562519.4184632 -15430651.23617498 -15430651.23617498 -2913538.78798437 0 0 0 0 0 81838718.3182677 -14130973.46250056 -14130973.46250056 -2602654.499380494 0 0 0 0 0 59200311.08751357 -19722915.992315 -19722915.992315 -2432300.907952581 0 0 0 0 0 50203145.84634562 -21765931.63656456 -21765931.63656456 -5018316.608401115 0 0 0 0 0 -3925251.887686866 -5652565.690526989 -5652565.690526989 -52378526.46158896 0 0 0 0 0 10782675.97565746 -12162745.41035447 -12162745.41035447 -24011572.19373891 0 0 0 0 0 133919.9204076255 1286340.461539943 1286340.461539943 -48027002.90522726 0 0 0 0 0 15137491.80001276 -9248486.115830997 -9248486.115830997 -17404442.49626341 0 0 0 0 0 24352548.70177739 -19076229.00649021 -19076229.00649021 -9791087.954418022 0 0 0 0 0 42221729.39199567 -20128395.99261128 -20128395.99261128 -4975591.416239965 0 0 0 0 0 36455161.62681726 -16243461.15362485 -16243461.15362485 -6157528.670908858 0 0 0 0 0 93211272.88413407 -10949942.89079856 -10949942.89079856 -4326404.2753365 0 0 0 0 0 91039093.55942854 -11893582.02651876 -11893582.02651876 -4670986.008773579 0 0 0 0 0 88434520.59199765 -12760312.73952803 -12760312.73952803 -4500570.424233009 0 0 0 0 0 88829638.41822934 -12828122.85777179 -12828122.85777179 -3127293.884589631 0 0 0 0 0 83332635.43317431 -12885540.4661746 -12885540.4661746 -2339206.339293277 0 0 0 0 0 62370664.00669038 -18122945.24439127 -18122945.24439127 -2260400.717059357 0 0 0 0 0 67308342.81691305 -16909654.61455457 -16909654.61455457 -1818590.802085123 0 0 0 0 0 71456559.63354902 -15744528.48595089 -15744528.48595089 -1510032.757020841 0 0 0 0 0 74945219.35395366 -14640080.51136025 -14640080.51136025 -1239698.486243419 0 0 0 0 0 77887280.69485202 -13558054.83321508 -13558054.83321508 -1070584.556145339 0 0 0 0 0 80336636.94117121 -12621878.86766497 -12621878.86766497 -916038.1587451891 0 0 0 0 0 57832041.551561 -19935151.25921178 -19935151.25921178 -2587605.721984579 0 0 0 0 0 52446460.46102829 -18246855.30934521 -18246855.30934521 -2414172.060773677 0 0 0 0 0 4721194.954467001 -624495.948069856 -624495.948069856 -23770239.06030318 0 0 0 0 0 3125072.215939482 -4464527.834230782 -4464527.834230782 -29458762.13902688 0 0 0 0 0 15519183.07412551 -12987157.98078087 -12987157.98078087 -11374789.5023242 0 0 0 0 0 25594269.50401744 -9945725.375559459 -9945725.375559459 -7512260.988374339 0 0 0 0 0 42320047.8622822 -15001517.74206122 -15001517.74206122 -2413781.563495413 0 0 0 0 0 34651766.324024 -17170468.56229714 -17170468.56229714 -4177704.185374889 0 0 0 0 0 92429677.43669152 -11580956.97334333 -11580956.97334333 -4159555.162373852 0 0 0 0 0 91355587.49650361 -12080466.69937343 -12080466.69937343 -3483811.883885008 0 0 0 0 0 85979817.02140327 -12236952.76267426 -12236952.76267426 -2789862.907537566 0 0 0 0 0 82693354.3759778 -11696806.68885836 -11696806.68885836 -790944.3238312486 0 0 0 0 0 86417704.85178223 -11908542.52807985 -11908542.52807985 -1353302.940417912 0 0 0 0 0 63971729.74375249 -18189169.84435982 -18189169.84435982 -1788434.601777795 0 0 0 0 0 68480536.80053273 -16890833.96817733 -16890833.96817733 -1500666.552338361 0 0 0 0 0 72290470.90228942 -15673863.01105822 -15673863.01105822 -1307615.939246645 0 0 0 0 0 75442945.0730591 -14486745.62649281 -14486745.62649281 -1164375.198685401 0 0 0 0 0 78186246.0890923 -13403460.14993577 -13403460.14993577 -1053218.483881673 0 0 0 0 0 80612856.6915198 -12408189.30454935 -12408189.30454935 -942941.997262153 0 0 0 0 0 54158672.7636857 -14758959.66177139 -14758959.66177139 -523505.6514763903 0 0 0 0 0 45442225.8307813 -15487112.09338354 -15487112.09338354 -2040116.691221345 0 0 0 0 0 11075368.94853282 -5390917.187543592 -5390917.187543592 -15991579.58086691 0 0 0 0 0 17084312.72021079 -2349843.630667347 -2349843.630667347 -10989207.73818779 0 0 0 0 0 25948398.04483209 -11510111.08264993 -11510111.08264993 -4938291.81580238 0 0 0 0 0 43886582.0161558 -15792638.18753221 -15792638.18753221 -1243980.922637518 0 0 0 0 0 33070800.46225727 -9370109.09202165 -9370109.09202165 -2692572.688186556 0 0 0 0 0 91129248.85120074 -11188836.27439336 -11188836.27439336 -3352773.789903034 0 0 0 0 0 89304370.82044144 -12018009.72594293 -12018009.72594293 -3960881.360207798 0 0 0 0 0 87119299.9158511 -11977303.76809125 -11977303.76809125 -2341620.75873723 0 0 0 0 0 82054566.53981553 -11451506.33206663 -11451506.33206663 -1123147.055133634 0 0 0 0 0 83942169.21720573 -11567260.38028109 -11567260.38028109 -1983570.343857812 0 0 0 0 0 60127796.81852407 -14304022.84911325 -14304022.84911325 -133009.1474869257 0 0 0 0 0 65332315.77407164 -13663285.28736961 -13663285.28736961 54020.5519117314 0 0 0 0 0 69682856.02765089 -12953294.27469659 -12953294.27469659 222831.5415621501 0 0 0 0 0 73332998.14195383 -12184010.13993805 -12184010.13993805 312022.7269078825 0 0 0 0 0 76307706.42114896 -11478854.96235387 -11478854.96235387 359163.0616614345 0 0 0 0 0 78814755.5534457 -10870555.11589028 -10870555.11589028 232194.6363835724 0 0 0 0 0 58208762.42492357 -14908273.64373909 -14908273.64373909 662832.6328869018 0 0 0 0 0 52314555.13817424 -15450560.65683175 -15450560.65683175 1512.551813680137 0 0 0 0 0 20403729.93978952 -4773706.291583852 -4773706.291583852 -7027830.770683579 0 0 0 0 0 26178746.46658122 -2732831.271174871 -2732831.271174871 -3981161.001631817 0 0 0 0 0 40903274.82971777 -9577475.199387005 -9577475.199387005 -13929.24506278843 0 0 0 0 0 36391781.22352993 -10587325.38854697 -10587325.38854697 -785401.165327482 0 0 0 0 0 88485295.42985722 -11236639.50666872 -11236639.50666872 -2370507.399466537 0 0 0 0 0 86225811.93200772 -10764216.7308391 -10764216.7308391 -1160219.78416569 0 0 0 0 0 84483699.82645816 -10828954.94199392 -10828954.94199392 -435068.2109648901 0 0 0 0 0 81124168.63785009 -10347466.16809384 -10347466.16809384 205179.9069533164 0 0 0 0 0 63487017.65047681 -14289081.46854605 -14289081.46854605 792688.377378194 0 0 0 0 0 67759897.29287584 -13610707.91800641 -13610707.91800641 699191.2492694516 0 0 0 0 0 71596640.93725376 -12789475.04633249 -12789475.04633249 686439.9519938565 0 0 0 0 0 74494790.00524722 -12014426.62403682 -12014426.62403682 565060.3111511342 0 0 0 0 0 77542518.3975585 -11215770.50244617 -11215770.50244617 605406.6184172949 0 0 0 0 0 79926337.06605969 -10633399.72972167 -10633399.72972167 437510.0433450065 0 0 0 0 0 53411533.02626382 -10281350.87589893 -10281350.87589893 1016858.270236009 0 0 0 0 0 46754219.01968703 -9743753.217456279 -9743753.217456279 823220.7301515751 0 0 0 0 0 29613435.97248084 -4114142.784985755 -4114142.784985755 -1790747.25738252 0 0 0 0 0 44553640.6697733 -10165161.5014471 -10165161.5014471 1155836.34024799 0 0 0 0 0 34109576.72604927 -2985247.721703385 -2985247.721703385 -281306.6691725486 0 0 0 0 0 82279150.33292893 -10202194.90545448 -10202194.90545448 -428756.8335227861 0 0 0 0 0 82127992.91049077 -10179519.64836653 -10179519.64836653 436772.4731736579 0 0 0 0 0 59619043.4954308 -10745274.72995566 -10745274.72995566 1419165.360292677 0 0 0 0 0 64877768.83822413 -10466400.36112035 -10466400.36112035 1508532.102217822 0 0 0 0 0 68992464.08754723 -10168845.89387514 -10168845.89387514 1565134.71000377 0 0 0 0 0 72657597.27574067 -9661289.431071499 -9661289.431071499 1560642.15945752 0 0 0 0 0 75206269.84525089 -9387137.222881937 -9387137.222881937 1310394.270040124 0 0 0 0 0 77769974.06818631 -9159465.519932099 -9159465.519932099 1104157.075902628 0 0 0 0 0 59885383.36088131 -10452648.06696541 -10452648.06696541 2904010.477799309 0 0 0 0 0 53804282.19966312 -9879363.923937084 -9879363.923937084 2789411.145732388 0 0 0 0 0 43057998.71617313 -3143651.054009513 -3143651.054009513 2181785.31497812 0 0 0 0 0 37955605.04975662 -3851237.599480819 -3851237.599480819 1012645.417474317 0 0 0 0 0 79912120.65886727 -9051265.752377801 -9051265.752377801 702010.0773390887 0 0 0 0 0 63810398.76178677 -10730804.93381689 -10730804.93381689 2556602.436338093 0 0 0 0 0 68025718.21732543 -10433834.08500836 -10433834.08500836 2329580.971180788 0 0 0 0 0 71345087.01931487 -9972761.137307392 -9972761.137307392 2121678.183857089 0 0 0 0 0 74625569.82164747 -9454416.476752698 -9454416.476752698 2045725.103974526 0 0 0 0 0 77367122.4635447 -9147515.414265243 -9147515.414265243 1859579.058192552 0 0 0 0 0 79945896.36509974 -8894620.787347296 -8894620.787347296 1702468.435211818 0 0 0 0 0 55569441.29072088 -6923243.121808955 -6923243.121808955 2439646.938261614 0 0 0 0 0 47929174.69620384 -6010191.642462937 -6010191.642462937 1965008.349719871 0 0 0 0 0 45198397.62366651 -3378576.211862218 -3378576.211862218 2399520.318763665 0 0 0 0 0 60669855.7210997 -7537012.567516884 -7537012.567516884 2476521.552199665 0 0 0 0 0 65591096.45438291 -7661605.485301359 -7661605.485301359 2835778.711456033 0 0 0 0 0 69419254.70938946 -7343734.27684969 -7343734.27684969 2622053.411151348 0 0 0 0 0 72283722.43453492 -7270593.275544457 -7270593.275544457 2196425.476148095 0 0 0 0 0 75017793.77426583 -7366484.130481174 -7366484.130481174 2053057.593484868 0 0 0 0 0 77360166.48269601 -7508526.756765522 -7508526.756765522 1591740.402258752 0 0 0 0 0 56483833.99175174 -6271232.966299048 -6271232.966299048 4442263.74899962 0 0 0 0 0 61779685.34707091 -6833755.208774729 -6833755.208774729 4261760.62027246 0 0 0 0 0 51430346.32134011 -2916018.468776564 -2916018.468776564 3924191.066921021 0 0 0 0 0 64429631.80446137 -7884350.420350418 -7884350.420350418 3472420.902062746 0 0 0 0 0 68149488.76608323 -7557381.736217189 -7557381.736217189 3225427.884045196 0 0 0 0 0 72003956.16846597 -7176510.371669217 -7176510.371669217 3245723.371479658 0 0 0 0 0 75227727.1887293 -7143932.361885655 -7143932.361885655 2995762.589828807 0 0 0 0 0 77942101.05358413 -7112928.82101518 -7112928.82101518 2887670.940935189 0 0 0 0 0 53392439.02754369 -2035311.729671645 -2035311.729671645 3330730.229275543 0 0 0 0 0 58996635.97045687 -5648281.997538373 -5648281.997538373 3230999.100288219 0 0 0 0 0 50871211.41629933 -2471464.723579216 -2471464.723579216 3067993.15318703 0 0 0 0 0 63492894.67242199 -5100978.349471945 -5100978.349471945 4142381.412951462 0 0 0 0 0 67134067.66933337 -4633665.838697163 -4633665.838697163 3958353.430939891 0 0 0 0 0 69714042.98879801 -5078303.81649594 -5078303.81649594 3064323.394737579 0 0 0 0 0 73012575.79230279 -5152201.524872147 -5152201.524872147 2806962.424879046 0 0 0 0 0 75406992.94414864 -5622473.722550809 -5622473.722550809 2365762.037352298 0 0 0 0 0 56353493.90515477 -2342218.538649436 -2342218.538649436 3868679.33330927 0 0 0 0 0 59960738.42014316 -2040063.32714896 -2040063.32714896 4309789.339311356 0 0 0 0 0 64203349.20133307 -4883399.25149084 -4883399.25149084 3614080.687524119 0 0 0 0 0 67223716.75048879 -4365866.372918625 -4365866.372918625 3401264.92424472 0 0 0 0 0 71098407.43041106 -4183078.535177631 -4183078.535177631 4433966.875749199 0 0 0 0 0 72831486.34005314 -5013590.250179747 -5013590.250179747 3878911.079556204 0 0 0 0 0 76480121.9822657 -4958808.229917511 -4958808.229917511 3759985.539636207 0 0 0 0 0 60940922.75150524 -1899829.25166082 -1899829.25166082 3804800.567051545 0 0 0 0 0 63975125.84972607 -1719488.505211342 -1719488.505211342 4265465.51984425 0 0 0 0 0 67787519.08228283 -1535611.654400737 -1535611.654400737 4370080.513128682 0 0 0 0 0 69630213.07437913 -3532358.296270941 -3532358.296270941 3455279.428481039 0 0 0 0 0 72292222.39003046 -3045983.44954484 -3045983.44954484 3973218.864247516 0 0 0 0 0 74124040.36952056 -3497093.355957342 -3497093.355957342 2948684.796791333 0 0 0 0 0 65016592.30002236 -1643735.027819029 -1643735.027819029 3973436.75059769 0 0 0 0 0 68411269.34321207 -1335506.987536966 -1335506.987536966 4013223.922137468 0 0 0 0 0 70399402.68502121 -1230179.95448803 -1230179.95448803 4115264.39425312 0 0 0 0 0 72361185.35706669 -2796713.094131306 -2796713.094131306 3425397.404845367 0 0 0 0 0 75457516.08019595 -2598758.743958169 -2598758.743958169 4224318.711681958 0 0 0 0 0 71374026.78736953 -1153849.401843108 -1153849.401843108 3870183.045791433 0 0 0 0 0 72838219.49627811 -969944.8588306153 -969944.8588306153 3990761.045611628 0 0 0 0 0 73725366.13635087 -1291384.404968434 -1291384.404968434 3332355.583374367 0 0 0 0 0 74084725.04137512 -966405.5304870639 -966405.5304870639 4177565.347673588 0 0 0 0 0 </DataArray>
      </CellData>
      <PointData>
        <DataArray type="Int64" IdType="1" Name="vtkOriginalPointIds" format="ascii" RangeMin="0" RangeMax="498">55 3 484 56 108 439 54 57 309 498 102 53 316 58 94 310 456 397 52 313 59 317 311 312 315 488 91 51 314 60 320 318 449 382 448 450 465 50 486 61 85 321 491 209 187 399 250 272 383 49 184 62 323 322 426 206 167 376 233 234 478 83 48 173 63 96 324 483 251 240 157 166 185 227 337 495 339 47 402 64 330 459 427 438 420 156 150 168 186 228 338 446 46 268 151 255 65 81 271 226 306 265 148 348 149 373 229 230 93 431 45 476 225 236 242 66 340 347 393 203 417 424 140 147 308 395 261 231 327 464 244 44 202 414 243 67 98 341 444 208 201 217 354 139 136 152 400 196 392 294 328 466 245 43 182 409 246 68 355 342 343 475 388 181 353 235 135 416 128 408 262 396 474 104 451 257 247 42 170 377 248 4 86 345 344 404 389 153 141 133 124 326 305 125 263 127 69 291 440 423 41 154 130 303 70 356 367 346 442 183 163 142 134 132 122 121 197 304 126 129 71 89 292 169 40 155 131 433 99 357 366 365 479 165 164 381 407 137 120 380 119 325 219 378 72 109 110 112 39 349 138 114 375 358 359 362 178 177 198 350 411 145 118 405 379 116 336 334 73 79 111 113 38 237 146 115 105 368 360 361 363 437 199 200 413 162 160 117 123 412 418 335 218 74 289 452 207 37 352 161 385 485 384 369 374 364 477 210 204 205 415 398 175 143 144 188 421 429 428 75 288 494 454 2 419 176 332 90 36 468 100 473 471 391 232 239 238 195 193 158 159 394 241 266 307 76 279 286 333 35 371 422 194 174 277 34 370 458 302 301 425 222 221 387 171 172 189 220 430 443 77 278 280 463 33 88 275 445 299 106 282 32 441 432 80 351 273 274 447 179 180 190 401 249 252 78 300 281 284 31 493 254 480 461 283 295 30 29 28 97 293 462 290 331 191 192 213 215 253 0 492 469 285 27 256 260 5 95 287 482 26 472 82 298 216 211 212 214 406 410 6 481 455 489 460 259 390 7 436 25 24 490 23 258 372 223 224 270 470 8 84 92 296 297 9 22 329 267 264 269 453 319 10 21 87 467 11 496 457 276 435 103 20 12 386 101 497 434 19 13 403 14 15 107 18 16 487 17 1 </DataArray>
        <DataArray type="UInt8" Name="vtkGhostType" format="ascii" RangeMin="0" RangeMax="0">0 0 0 0 0 0 0 0 0 0 0 0 0 0 0 0 0 0 0 0 0 0 0 0 0 0 0 0 0 0 0 0 0 0 0 0 0 0 0 0 0 0 0 0 0 0 0 0 0 0 0 0 0 0 0 0 0 0 0 0 0 0 0 0 0 0 0 0 0 0 0 0 0 0 0 0 0 0 0 0 0 0 0 0 0 0 0 0 0 0 0 0 0 0 0 0 0 0 0 0 0 0 0 0 0 0 0 0 0 0 0 0 0 0 0 0 0 0 0 0 0 0 0 0 0 0 0 0 0 0 0 0 0 0 0 0 0 0 0 0 0 0 0 0 0 0 0 0 0 0 0 0 0 0 0 0 0 0 0 0 0 0 0 0 0 0 0 0 0 0 0 0 0 0 0 0 0 0 0 0 0 0 0 0 0 0 0 0 0 0 0 0 0 0 0 0 0 0 0 0 0 0 0 0 0 0 0 0 0 0 0 0 0 0 0 0 0 0 0 0 0 0 0 0 0 0 0 0 0 0 0 0 0 0 0 0 0 0 0 0 0 0 0 0 0 0 0 0 0 0 0 0 0 0 0 0 0 0 0 0 0 0 0 0 0 0 0 0 0 0 0 0 0 0 0 0 0 0 0 0 0 0 0 0 0 0 0 0 0 0 0 0 0 0 0 0 0 0 0 0 0 0 0 0 0 0 0 0 0 0 0 0 0 0 0 0 0 0 0 0 0 0 0 0 0 0 0 0 0 0 0 0 0 0 0 0 0 0 0 0 0 0 0 0 0 0 0 0 0 0 0 0 0 0 0 0 0 0 0 0 0 0 0 0 0 0 0 0 0 0 0 0 0 0 0 0 0 0 0 0 0 0 0 0 0 0 0 0 0 0 0 0 0 0 0 0 0 0 0 0 0 0 0 0 0 0 0 0 0 0 0 0 0 0 0 0 0 0 0 0 0 0 0 0 0 0 0 0 0 0 0 0 0 0 0 0 0 0 0 0 0 0 0 0 0 0 0 0 0 0 0 0 0 0 0 0 0 0 0 0 0 0 0 0 0 0 0 0 0 0 0 0 0 0 0 0 0 0 0 0 0 0 0 0 0 0 0 0 0 0 0 0 0 0 0 0 0 0 0 </DataArray>
      </PointData>
    </Piece>
  </UnstructuredGrid>
</VTKFile>
