<?xml version="1.0"?>
<VTKFile type="UnstructuredGrid" version="2.2">
  <UnstructuredGrid>
    <Piece NumberOfPoints="750" NumberOfCells="250">
      <Points>
        <DataArray type="Float64" NumberOfComponents="3" format="ascii">0.100000000000416 1 0 1.446963785689993e-18 1 0 0.07242270094929613 0.9287161546587116 0 1.795146145641597e-18 1 0 -4.226811170560926e-18 0.9042857142860056 0 0.07242270094929615 0.9287161546587116 0 0.1504496488130419 0.9205296551413742 0 0.100000000000416 1 0 0.07242270094929611 0.9287161546587116 0 1.209340022088356e-17 0.9042857142860056 0 0.08949214017363682 0.8499193320733646 0 0.07242270094929615 0.9287161546587116 0 0.2000000000008322 1 0 0.100000000000416 1 0 0.1504496488130418 0.9205296551413735 0 0.08949214017363684 0.8499193320733646 0 0.1504496488130419 0.9205296551413741 0 0.07242270094929612 0.9287161546587116 0 2.218247433362025e-18 0.9042857142860056 0 -5.223036048160649e-18 0.808571428572008 0 0.08949214017363681 0.849919332073364 0 0.2000000000008322 1 0 0.1504496488130419 0.9205296551413741 0 0.2499721953898766 0.9185928771667897 0 0.1985034546005834 0.8442209309135896 0 0.1504496488130419 0.9205296551413741 0 0.08949214017363677 0.849919332073364 0 1.140338797767989e-17 0.808571428572008 0 0.07981914983849681 0.7551853746224031 0 0.0894921401736368 0.849919332073364 0 0.3000000000012483 1 0 0.2000000000008322 1 0 0.2499721953898766 0.9185928771667897 0 0.2499721953898767 0.9185928771667903 0 0.1504496488130419 0.9205296551413741 0 0.1985034546005833 0.8442209309135891 0 0.1985034546005834 0.8442209309135896 0 0.08949214017363682 0.8499193320733646 0 0.1647172437482729 0.7772037251075428 0 1.978482399893969e-18 0.808571428572008 0 -4.658490635391215e-18 0.7128571428580416 0 0.07981914983849679 0.7551853746224025 0 0.08949214017363684 0.8499193320733646 0 0.07981914983849682 0.7551853746224031 0 0.1647172437482729 0.7772037251075428 0 0.3498228780407905 0.9196059642995656 0 0.3000000000012484 1 0 0.2499721953898766 0.9185928771667897 0 0.2499721953898767 0.9185928771667903 0 0.1985034546005834 0.8442209309135896 0 0.2982782210013578 0.8494663949300395 0 0.1985034546005834 0.8442209309135896 0 0.164717243748273 0.7772037251075433 0 0.2569918718770644 0.7888812511183687 0 0.07981914983849681 0.755185374622403 0 -9.829688881091098e-20 0.7128571428580416 0 0.07928054190150083 0.6639934880864437 0 0.07981914983849682 0.7551853746224031 0 0.1576018681843648 0.6958879033296576 0 0.1647172437482729 0.7772037251075428 0 0.4000000000016645 1 0 0.3000000000012484 1 0 0.3498228780407903 0.919605964299565 0 0.3498228780407905 0.9196059642995655 0 0.2499721953898767 0.9185928771667903 0 0.2982782210013578 0.8494663949300395 0 0.2982782210013579 0.8494663949300401 0 0.1985034546005834 0.8442209309135896 0 0.2569918718770643 0.7888812511183687 0 0.164717243748273 0.7772037251075433 0 0.2419461962806138 0.7223495853150375 0 0.2569918718770645 0.7888812511183687 0 1.965131890323949e-18 0.7128571428580415 0 -4.627055822621098e-18 0.6171428571437531 0 0.07928054190150084 0.6639934880864438 0 0.07981914983849682 0.7551853746224031 0 0.07928054190150087 0.6639934880864442 0 0.1576018681843647 0.695887903329657 0 0.1576018681843648 0.6958879033296576 0 0.2419461962806138 0.7223495853150375 0 0.1647172437482729 0.7772037251075428 0 0.4000000000016645 1 0 0.3498228780407905 0.9196059642995655 0 0.4518775995166423 0.920175648968118 0 0.3498228780407905 0.9196059642995655 0 0.298278221001358 0.8494663949300401 0 0.3974942312305071 0.8548415168052995 0 0.3344732598930564 0.7636851316684056 0 0.298278221001358 0.8494663949300401 0 0.2569918718770644 0.7888812511183687 0 0.2419461962806139 0.7223495853150375 0 0.3344732598930564 0.7636851316684056 0 0.2569918718770644 0.7888812511183687 0 1.111109193047859e-17 0.6171428571437529 0 0.07947867006930193 0.5692879274260042 0 0.07928054190150084 0.6639934880864438 0 0.1576018681843648 0.6958879033296574 0 0.07928054190150087 0.6639934880864442 0 0.1512795608421132 0.6093594627621801 0 0.1576018681843648 0.6958879033296574 0 0.2341354436611462 0.6391200623658057 0 0.2419461962806137 0.722349585315037 0 0.5000000000020587 1 0 0.4000000000016645 1 0 0.4518775995166423 0.920175648968118 0 0.4518775995166426 0.9201756489681185 0 0.3498228780407905 0.9196059642995655 0 0.3974942312305071 0.8548415168052995 0 0.2982782210013579 0.8494663949300401 0 0.3344732598930564 0.7636851316684056 0 0.3974942312305071 0.8548415168052995 0 0.3187788313469124 0.6664952827700944 0 0.3344732598930564 0.7636851316684056 0 0.2419461962806137 0.7223495853150369 0 1.970042905960056e-18 0.6171428571437529 0 -4.638619190762403e-18 0.5214285714291635 0 0.07947867006930191 0.5692879274260038 0 0.07928054190150087 0.6639934880864441 0 0.07947867006930194 0.5692879274260042 0 0.1512795608421132 0.6093594627621801 0 0.2341354436611462 0.6391200623658055 0 0.1576018681843648 0.6958879033296576 0 0.1512795608421132 0.6093594627621801 0 0.2341354436611462 0.6391200623658055 0 0.3187788313469124 0.6664952827700945 0 0.2419461962806137 0.722349585315037 0 0.5501260307163521 0.915708012406375 0 0.5000000000020587 1 0 0.4518775995166423 0.920175648968118 0 0.4982783550828406 0.8283290709972291 0 0.4518775995166426 0.9201756489681185 0 0.3974942312305071 0.8548415168052995 0 0.3344732598930564 0.7636851316684056 0 0.4270018182566808 0.7748455101960322 0 0.3974942312305071 0.8548415168052995 0 0.4034544632129961 0.6976365325937561 0 0.3344732598930564 0.7636851316684056 0 0.3187788313469122 0.666495282770094 0 0.07947867006930193 0.5692879274260041 0 1.090876063527233e-19 0.5214285714291635 0 0.07539619259043895 0.4768398233241383 0 0.1512795608421133 0.6093594627621804 0 0.07947867006930194 0.5692879274260042 0 0.1430235002238063 0.5157881957001366 0 0.2175071670863923 0.5477913784148303 0 0.2341354436611462 0.6391200623658055 0 0.1512795608421132 0.6093594627621801 0 0.2341354436611462 0.6391200623658055 0 0.3009805024402901 0.5741244053762115 0 0.3187788313469122 0.6664952827700941 0 0.6000000000013869 1 0 0.5000000000020588 1 0 0.5501260307163518 0.9157080124063743 0 0.5501260307163521 0.9157080124063749 0 0.4518775995166426 0.9201756489681185 0 0.4982783550828403 0.8283290709972285 0 0.4270018182566808 0.7748455101960322 0 0.4982783550828406 0.8283290709972291 0 0.3974942312305071 0.8548415168052995 0 0.4034544632129961 0.6976365325937562 0 0.4270018182566808 0.7748455101960322 0 0.3344732598930562 0.763685131668405 0 0.3874961043643119 0.6045058592691973 0 0.4034544632129961 0.6976365325937562 0 0.3187788313469122 0.6664952827700941 0 1.868850274163842e-18 0.5214285714291634 0 -4.400353271581865e-18 0.4257142857145927 0 0.07539619259043896 0.4768398233241383 0 0.07947867006930194 0.5692879274260041 0 0.07539619259043899 0.4768398233241385 0 0.1430235002238064 0.5157881957001366 0 0.2175071670863923 0.5477913784148303 0 0.1512795608421133 0.6093594627621804 0 0.1430235002238063 0.5157881957001366 0 0.2175071670863924 0.5477913784148303 0 0.3009805024402901 0.5741244053762113 0 0.2341354436611461 0.6391200623658052 0 0.3009805024402901 0.5741244053762113 0 0.387496104364312 0.6045058592691974 0 0.3187788313469122 0.6664952827700941 0 0.6000000000013869 1 0 0.5501260307163522 0.9157080124063749 0 0.654799606703854 0.9007657124885791 0 0.5501260307163521 0.9157080124063749 0 0.4982783550828406 0.8283290709972291 0 0.5904037090422986 0.8429143001779452 0 0.4270018182566808 0.7748455101960322 0 0.4913158036475584 0.7286208350277671 0 0.4982783550828403 0.8283290709972285 0 0.4034544632129961 0.6976365325937562 0 0.4913158036475584 0.7286208350277671 0 0.4270018182566805 0.7748455101960317 0 0.4745187976455849 0.6356120107071158 0 0.4034544632129961 0.6976365325937562 0 0.3874961043643117 0.604505859269197 0 0.07539619259043896 0.4768398233241385 0 -4.016476358478545e-19 0.4257142857145927 0 0.08017840601838512 0.3963300372633091 0 0.1430235002238064 0.5157881957001368 0 0.07539619259043899 0.4768398233241385 0 0.1336105785134735 0.4361702689209299 0 0.2005261161267241 0.4579553458730797 0 0.2175071670863923 0.5477913784148303 0 0.1430235002238063 0.5157881957001366 0 0.2845914509771853 0.4848763822095442 0 0.3009805024402902 0.5741244053762113 0 0.2175071670863922 0.5477913784148301 0 0.3009805024402901 0.5741244053762113 0 0.3706525466147029 0.5134749220451615 0 0.3874961043643118 0.604505859269197 0 0.7000000000006934 1 0 0.600000000001387 1 0 0.654799606703854 0.9007657124885791 0 0.6547996067038543 0.9007657124885796 0 0.5501260307163522 0.9157080124063749 0 0.5904037090422986 0.8429143001779452 0 0.4982783550828406 0.8283290709972291 0 0.5766230053158811 0.75658719427689 0 0.5904037090422986 0.8429143001779452 0 0.4982783550828406 0.8283290709972291 0 0.4913158036475584 0.7286208350277671 0 0.5766230053158807 0.7565871942768895 0 0.4745187976455849 0.6356120107071158 0 0.4913158036475584 0.7286208350277671 0 0.4034544632129958 0.6976365325937558 0 0.457563969842983 0.5427700263048028 0 0.4745187976455849 0.6356120107071158 0 0.3874961043643117 0.604505859269197 0 1.987387305927174e-18 0.4257142857145927 0 -4.679457928993095e-18 0.3300000000000001 0 0.08017840601838513 0.3963300372633091 0 0.07539619259043899 0.4768398233241385 0 0.08017840601838516 0.3963300372633093 0 0.1336105785134736 0.4361702689209299 0 0.2005261161267241 0.4579553458730797 0 0.1430235002238064 0.5157881957001368 0 0.1336105785134735 0.4361702689209299 0 0.2845914509771853 0.4848763822095442 0 0.2175071670863923 0.5477913784148303 0 0.200526116126724 0.4579553458730794 0 0.2845914509771853 0.4848763822095442 0 0.3706525466147029 0.5134749220451614 0 0.30098050244029 0.574124405376211 0 0.3706525466147029 0.5134749220451614 0 0.457563969842983 0.5427700263048028 0 0.3874961043643117 0.604505859269197 0 0.7543567317362885 0.9205245603071645 0 0.7000000000006935 1 0 0.6547996067038538 0.9007657124885791 0 0.6561937266592245 0.7952487040793247 0 0.6547996067038544 0.9007657124885796 0 0.5904037090422986 0.8429143001779452 0 0.5766230053158811 0.75658719427689 0 0.6561937266592246 0.7952487040793247 0 0.5904037090422986 0.8429143001779452 0 0.4913158036475585 0.7286208350277671 0 0.5631276294683252 0.6660590631089183 0 0.5766230053158807 0.7565871942768896 0 0.4745187976455849 0.6356120107071158 0 0.5631276294683252 0.6660590631089183 0 0.4913158036475582 0.7286208350277666 0 0.5449520634070173 0.5736116873632144 0 0.4745187976455849 0.6356120107071159 0 0.4575639698429828 0.5427700263048025 0 1.188053603126822e-17 0.3300000000000001 0 0.0854102851163888 0.3187555226130792 0 0.08017840601838513 0.3963300372633091 0 0.08017840601838518 0.3963300372633093 0 0.1640593670546961 0.3719448044930115 0 0.1336105785134736 0.4361702689209299 0 0.1640593670546961 0.3719448044930115 0 0.2005261161267241 0.4579553458730797 0 0.1336105785134735 0.4361702689209299 0 0.2845914509771853 0.4848763822095442 0 0.2005261161267241 0.4579553458730797 0 0.264324817562177 0.3987638366763463 0 0.3539299266278165 0.4249789750790706 0 0.3706525466147029 0.5134749220451614 0 0.2845914509771851 0.4848763822095439 0 0.3706525466147029 0.5134749220451614 0 0.4393289521948476 0.4527926136921334 0 0.4575639698429828 0.5427700263048024 0 0.7999999999999999 1 0 0.7000000000006935 1 0 0.754356731736288 0.9205245603071638 0 0.7543567317362886 0.9205245603071643 0 0.6547996067038544 0.9007657124885796 0 0.7337357534352456 0.8320636705894815 0 0.6547996067038543 0.9007657124885796 0 0.6561937266592246 0.7952487040793247 0 0.7337357534352457 0.8320636705894815 0 0.6531478674828473 0.7030485185081184 0 0.6561937266592246 0.7952487040793247 0 0.5766230053158807 0.7565871942768895 0 0.5631276294683252 0.6660590631089183 0 0.6531478674828474 0.7030485185081184 0 0.5766230053158807 0.7565871942768896 0 0.5449520634070173 0.5736116873632144 0 0.5631276294683252 0.6660590631089183 0 0.4745187976455846 0.6356120107071155 0 0.5264916765091932 0.4820143211785421 0 0.5449520634070173 0.5736116873632144 0 0.4575639698429828 0.5427700263048025 0 0.08541028511638882 0.3187555226130792 0 0.1640593670546961 0.3719448044930115 0 0.08017840601838511 0.3963300372633091 0 0.2005261161267241 0.4579553458730797 0 0.1640593670546961 0.3719448044930115 0 0.2643248175621771 0.3987638366763463 0 0.3539299266278165 0.4249789750790706 0 0.2845914509771854 0.4848763822095442 0 0.264324817562177 0.3987638366763463 0 0.3539299266278166 0.4249789750790706 0 0.4393289521948476 0.4527926136921334 0 0.3706525466147026 0.5134749220451612 0 0.4393289521948477 0.4527926136921334 0 0.5264916765091932 0.482014321178542 0 0.4575639698429828 0.5427700263048025 0 0.7999999999999999 1 0 0.7543567317362886 0.9205245603071643 0 0.8469936203143573 0.926623085875765 0 0.7543567317362886 0.9205245603071643 0 0.7337357534352461 0.8320636705894821 0 0.8112077680452554 0.8636996853036774 0 0.6561937266592245 0.7952487040793247 0 0.739472295912085 0.7432808756035071 0 0.7337357534352457 0.8320636705894815 0 0.6531478674828473 0.7030485185081184 0 0.739472295912085 0.7432808756035071 0 0.6561937266592242 0.7952487040793241 0 0.5631276294683252 0.6660590631089182 0 0.6374023866986618 0.6062433926805765 0 0.6531478674828469 0.703048518508118 0 0.5449520634070173 0.5736116873632144 0 0.6374023866986617 0.6062433926805765 0 0.563127629468325 0.6660590631089178 0 0.5264916765091932 0.4820143211785421 0 0.6148622751821855 0.511310542384763 0 0.5449520634070171 0.5736116873632141 0 0.08541028511638883 0.3187555226130791 0 0.1650000004351555 0.2857883829976277 0 0.164059367054696 0.3719448044930113 0 0.1640593670546961 0.3719448044930115 0 0.2462583129076185 0.3160366088497619 0 0.2643248175621771 0.3987638366763464 0 0.336583731679023 0.3367909035536117 0 0.3539299266278166 0.4249789750790706 0 0.2643248175621771 0.3987638366763463 0 0.3539299266278166 0.4249789750790706 0 0.4214663514767307 0.3644860394694712 0 0.4393289521948474 0.4527926136921331 0 0.4393289521948476 0.4527926136921334 0 0.5075735779823183 0.3921138039661038 0 0.5264916765091929 0.4820143211785418 0 0.8999999999995837 1 0 0.7999999999999999 1 0 0.8469936203143573 0.926623085875765 0 0.8469936203143579 0.9266230858757656 0 0.7543567317362886 0.9205245603071643 0 0.8112077680452554 0.8636996853036774 0 0.7337357534352461 0.8320636705894821 0 0.8192566252405328 0.7890860953933758 0 0.8112077680452554 0.8636996853036774 0 0.739472295912085 0.7432808756035071 0 0.8192566252405328 0.7890860953933758 0 0.7337357534352456 0.8320636705894815 0 0.6531478674828473 0.7030485185081184 0 0.739117542547439 0.6347508716709132 0 0.7394722959120845 0.7432808756035066 0 0.6531478674828473 0.7030485185081183 0 0.6374023866986618 0.6062433926805765 0 0.7391175425474386 0.6347508716709127 0 0.5449520634070173 0.5736116873632144 0 0.6148622751821855 0.5113105423847631 0 0.6374023866986613 0.606243392680576 0 0.5264916765091932 0.482014321178542 0 0.5953929619133022 0.4201954587110724 0 0.6148622751821852 0.5113105423847628 0 0.1640593670546961 0.3719448044930115 0 0.1650000004351555 0.2857883829976277 0 0.2462583129076184 0.3160366088497616 0 0.2462583129076185 0.3160366088497619 0 0.336583731679023 0.3367909035536117 0 0.2643248175621771 0.3987638366763464 0 0.336583731679023 0.3367909035536117 0 0.4214663514767307 0.3644860394694712 0 0.3539299266278163 0.4249789750790703 0 0.4393289521948476 0.4527926136921334 0 0.4214663514767307 0.3644860394694712 0 0.5075735779823181 0.3921138039661036 0 0.5264916765091932 0.482014321178542 0 0.5075735779823183 0.3921138039661038 0 0.5953929619133018 0.4201954587110722 0 0.8999999999995837 1 0 0.8469936203143579 0.9266230858757656 0 0.9267949192429041 0.9267949192429453 0 0.9016961094998545 0.8502010143526015 0 0.8469936203143579 0.9266230858757656 0 0.8112077680452554 0.8636996853036774 0 0.8192566252405328 0.7890860953933758 0 0.9016961094998545 0.8502010143526015 0 0.8112077680452554 0.8636996853036774 0 0.739472295912085 0.7432808756035071 0 0.8288651147246974 0.698679757807666 0 0.8192566252405322 0.7890860953933753 0 0.739117542547439 0.634750871670913 0 0.8288651147246974 0.698679757807666 0 0.7394722959120844 0.7432808756035066 0 0.6374023866986617 0.6062433926805764 0 0.702296650772572 0.5383879928347232 0 0.7391175425474386 0.6347508716709127 0 0.6374023866986617 0.6062433926805764 0 0.6148622751821856 0.5113105423847631 0 0.7022966507725715 0.5383879928347227 0 0.6148622751821855 0.511310542384763 0 0.5953929619133023 0.4201954587110724 0 0.6812846140412884 0.4460449154471238 0 0.1650000004351555 0.2857883829976276 0 0.2333452383548381 0.2333452372282832 0 0.2462583129076184 0.3160366088497616 0 0.2462583129076185 0.3160366088497618 0 0.3251853837121149 0.2418990257178654 0 0.3365837316790228 0.3367909035536115 0 0.3365837316790231 0.3367909035536117 0 0.4070425547712777 0.2792204871089636 0 0.4214663514767304 0.3644860394694709 0 0.5075735779823183 0.3921138039661038 0 0.4214663514767307 0.3644860394694712 0 0.4889892423138355 0.3038076761249731 0 0.5953929619133022 0.4201954587110724 0 0.5075735779823184 0.3921138039661038 0 0.5758076665880536 0.3296092558990191 0 1 1 0 0.8999999999995837 1 0 0.9267949192429041 0.9267949192429453 0 0.8469936203143579 0.9266230858757656 0 0.9016961094998545 0.8502010143526015 0 0.9267949192429041 0.9267949192429453 0 0.9016961094998545 0.8502010143526015 0 0.8192566252405328 0.7890860953933758 0 0.9105973158607923 0.7479451577263725 0 0.8192566252405328 0.7890860953933758 0 0.8288651147246974 0.698679757807666 0 0.9105973158607923 0.7479451577263725 0 0.8337113423553408 0.5996960087499144 0 0.8288651147246974 0.698679757807666 0 0.7391175425474384 0.6347508716709127 0 0.739117542547439 0.634750871670913 0 0.702296650772572 0.5383879928347232 0 0.7760953731115511 0.5499323499659107 0 0.7022966507725719 0.5383879928347231 0 0.6148622751821856 0.511310542384763 0 0.6812846140412884 0.4460449154471238 0 0.5953929619133022 0.4201954587110724 0 0.6649137529579178 0.357743695995514 0 0.6812846140412884 0.4460449154471238 0 0.2333452383548382 0.2333452372282833 0 0.3251853837121149 0.2418990257178654 0 0.2462583129076184 0.3160366088497616 0 0.3365837316790231 0.3367909035536117 0 0.325185383712115 0.2418990257178654 0 0.4070425547712774 0.2792204871089634 0 0.4214663514767307 0.3644860394694711 0 0.4070425547712777 0.2792204871089636 0 0.4889892423138355 0.3038076761249731 0 0.5758076665880539 0.3296092558990193 0 0.5075735779823184 0.3921138039661038 0 0.4889892423138355 0.3038076761249731 0 0.5953929619133022 0.4201954587110724 0 0.575807666588054 0.3296092558990193 0 0.6649137529579173 0.3577436959955137 0 1 0.899999999999737 0 1 1 0 0.9267949192429041 0.9267949192429453 0 0.9016961094998546 0.8502010143526015 0 1 0.8999999999997369 0 0.9267949192429041 0.9267949192429453 0 1 0.7999999999994735 0 0.9016961094998545 0.8502010143526015 0 0.9105973158607923 0.7479451577263725 0 0.8288651147246974 0.698679757807666 0 0.9137660456996721 0.6497040788059111 0 0.9105973158607923 0.7479451577263726 0 0.8337113423553408 0.5996960087499144 0 0.9137660456996721 0.6497040788059111 0 0.8288651147246968 0.6986797578076656 0 0.8337113423553408 0.5996960087499144 0 0.739117542547439 0.6347508716709132 0 0.7760953731115511 0.5499323499659108 0 0.702296650772572 0.5383879928347231 0 0.7640906286245651 0.4727193297685515 0 0.7760953731115511 0.5499323499659107 0 0.702296650772572 0.5383879928347231 0 0.6812846140412888 0.446044915447124 0 0.7640906286245647 0.4727193297685512 0 0.6649137529579177 0.357743695995514 0 0.7509658874862278 0.3837908846492591 0 0.6812846140412883 0.4460449154471238 0 0.2333452383548382 0.2333452372282832 0 0.2857883835161864 0.1649999995369853 0 0.3251853837121148 0.2418990257178653 0 0.4070425547712777 0.2792204871089636 0 0.325185383712115 0.2418990257178654 0 0.4035780771799721 0.2107049125048626 0 0.4889892423138358 0.3038076761249733 0 0.4070425547712777 0.2792204871089636 0 0.471144676174621 0.2206591250436208 0 0.5533431996313982 0.2396037875354144 0 0.5758076665880539 0.3296092558990193 0 0.4889892423138355 0.3038076761249731 0 0.6649137529579177 0.3577436959955139 0 0.575807666588054 0.3296092558990193 0 0.6436084350545207 0.2642353863415701 0 1 0.7999999999994735 0 1 0.8999999999997369 0 0.9016961094998539 0.850201014352601 0 1 0.6999999999992101 0 1 0.7999999999994735 0 0.9105973158607923 0.7479451577263725 0 0.9137660456996722 0.649704078805911 0 1 0.6999999999992101 0 0.9105973158607923 0.7479451577263726 0 0.9143104164693289 0.5502457745856388 0 0.9137660456996721 0.649704078805911 0 0.8337113423553403 0.599696008749914 0 0.8396680954007477 0.5041237028824694 0 0.8337113423553408 0.5996960087499144 0 0.7760953731115511 0.5499323499659108 0 0.7640906286245651 0.4727193297685515 0 0.8396680954007477 0.5041237028824694 0 0.7760953731115511 0.5499323499659107 0 0.6812846140412888 0.446044915447124 0 0.7509658874862278 0.3837908846492591 0 0.7640906286245646 0.4727193297685512 0 0.6649137529579177 0.357743695995514 0 0.7333924435874726 0.2993780894363458 0 0.7509658874862274 0.3837908846492589 0 0.3251853837121149 0.2418990257178654 0 0.2857883835161865 0.1649999995369853 0 0.3648957752606029 0.1555527535858052 0 0.325185383712115 0.2418990257178654 0 0.3648957752606031 0.1555527535858053 0 0.4035780771799721 0.2107049125048626 0 0.4711446761746212 0.220659125043621 0 0.4070425547712777 0.2792204871089636 0 0.4035780771799721 0.2107049125048626 0 0.5533431996313982 0.2396037875354144 0 0.4889892423138358 0.3038076761249733 0 0.471144676174621 0.2206591250436208 0 0.643608435054521 0.2642353863415702 0 0.575807666588054 0.3296092558990193 0 0.5533431996313979 0.2396037875354143 0 0.6649137529579177 0.3577436959955139 0 0.6436084350545211 0.2642353863415702 0 0.7333924435874721 0.2993780894363455 0 1 0.5999999999989468 0 1 0.6999999999992101 0 0.9137660456996716 0.6497040788059106 0 1 0.5999999999989468 0 0.9137660456996721 0.6497040788059111 0 0.9143104164693283 0.5502457745856386 0 0.9143104164693289 0.5502457745856388 0 0.8337113423553408 0.5996960087499144 0 0.8396680954007472 0.5041237028824692 0 0.8342331509350036 0.4140361328318219 0 0.8396680954007477 0.5041237028824694 0 0.7640906286245646 0.4727193297685512 0 0.7509658874862278 0.3837908846492591 0 0.8342331509350036 0.4140361328318219 0 0.7640906286245646 0.4727193297685512 0 0.7509658874862278 0.3837908846492591 0 0.7333924435874726 0.2993780894363458 0 0.8263642251709321 0.3235072125777744 0 0.2857883835161864 0.1649999995369853 0 0.3187555227431478 0.08541028463096598 0 0.3648957752606029 0.1555527535858052 0 0.3648957752606031 0.1555527535858053 0 0.4407949287895321 0.1503338094757088 0 0.4035780771799721 0.2107049125048626 0 0.4407949287895321 0.1503338094757088 0 0.4711446761746212 0.2206591250436209 0 0.4035780771799721 0.2107049125048626 0 0.5533431996313982 0.2396037875354144 0 0.4711446761746212 0.2206591250436209 0 0.5280186054028271 0.1570647192669499 0 0.643608435054521 0.2642353863415702 0 0.5533431996313983 0.2396037875354144 0 0.6132366197277305 0.170283671093053 0 0.7333924435874726 0.2993780894363457 0 0.6436084350545211 0.2642353863415702 0 0.7180649978892389 0.1971965142324814 0 1 0.4999999999986944 0 1 0.5999999999989468 0 0.9143104164693283 0.5502457745856386 0 0.9163687097838321 0.451507633737543 0 0.9143104164693289 0.5502457745856388 0 0.8396680954007472 0.5041237028824692 0 0.9163687097838321 0.451507633737543 0 0.8396680954007477 0.5041237028824694 0 0.8342331509350031 0.4140361328318217 0 0.7509658874862278 0.3837908846492591 0 0.8263642251709327 0.3235072125777746 0 0.8342331509350031 0.4140361328318217 0 0.8263642251709327 0.3235072125777746 0 0.7333924435874726 0.2993780894363458 0 0.7983682599267161 0.2535536781211905 0 0.3648957752606031 0.1555527535858053 0 0.3187555227431478 0.08541028463096598 0 0.3966376598822497 0.07841900855448643 0 0.3648957752606031 0.1555527535858053 0 0.39663765988225 0.0784190085544865 0 0.4407949287895319 0.1503338094757087 0 0.5280186054028274 0.15706471926695 0 0.4711446761746212 0.2206591250436209 0 0.4407949287895319 0.1503338094757087 0 0.6132366197277308 0.1702836710930531 0 0.5533431996313983 0.2396037875354144 0 0.5280186054028272 0.1570647192669499 0 0.7180649978892393 0.1971965142324815 0 0.6436084350545211 0.2642353863415702 0 0.6132366197277305 0.170283671093053 0 0.7333924435874726 0.2993780894363457 0 0.7180649978892394 0.1971965142324815 0 0.7983682599267161 0.2535536781211905 0 0.9163687097838322 0.451507633737543 0 1 0.4999999999986944 0 0.9143104164693283 0.5502457745856386 0 0.9127558318327541 0.3564464450364737 0 0.9163687097838321 0.4515076337375429 0 0.8342331509350031 0.4140361328318217 0 0.8263642251709327 0.3235072125777746 0 0.9127558318327541 0.3564464450364737 0 0.8342331509350031 0.4140361328318217 0 0.8955554812928542 0.2551442917568861 0 0.8263642251709327 0.3235072125777746 0 0.7983682599267161 0.2535536781211905 0 0.3187555227431478 0.08541028463096596 0 0.3300000000000001 2.520012541357939e-19 0 0.3966376598822497 0.07841900855448646 0 0.39663765988225 0.0784190085544865 0 0.4804947788369185 0.07960233789852755 0 0.4407949287895319 0.1503338094757087 0 0.4804947788369186 0.07960233789852755 0 0.5280186054028274 0.15706471926695 0 0.4407949287895319 0.1503338094757087 0 0.5713844803892864 0.08071061624839426 0 0.6132366197277309 0.1702836710930531 0 0.5280186054028272 0.15706471926695 0 0.6649999999991136 0.08289100293350839 0 0.7180649978892394 0.1971965142324815 0 0.6132366197277305 0.170283671093053 0 0.7180649978892394 0.1971965142324815 0 0.8239593393238149 0.175865982407799 0 0.7983682599267161 0.2535536781211906 0 1 0.399999999998975 0 1 0.4999999999986944 0 0.9163687097838316 0.4515076337375427 0 1 0.399999999998975 0 0.9163687097838321 0.4515076337375429 0 0.9127558318327536 0.3564464450364734 0 0.8263642251709327 0.3235072125777746 0 0.8955554812928542 0.2551442917568861 0 0.9127558318327536 0.3564464450364734 0 0.8239593393238149 0.175865982407799 0 0.8955554812928542 0.2551442917568861 0 0.7983682599267161 0.2535536781211906 0 0.3300000000000001 1.943777007849774e-18 0 0.4257142857140301 -4.576774091516917e-18 0 0.3966376598822497 0.07841900855448647 0 0.4257142857140301 1.110396804889263e-17 0 0.4804947788369185 0.07960233789852754 0 0.3966376598822497 0.07841900855448647 0 0.4804947788369186 0.07960233789852755 0 0.5713844803892864 0.08071061624839425 0 0.5280186054028272 0.1570647192669499 0 0.5713844803892864 0.08071061624839425 0 0.6649999999991137 0.08289100293350837 0 0.6132366197277305 0.170283671093053 0 0.7180649978892394 0.1971965142324815 0 0.6649999999991137 0.08289100293350837 0 0.7614399244630433 0.102444936578428 0 0.7180649978892394 0.1971965142324815 0 0.7614399244630438 0.1024449365784281 0 0.8239593393238144 0.1758659824077989 0 1 0.2999999999992664 0 1 0.399999999998975 0 0.9127558318327536 0.3564464450364734 0 0.8955554812928542 0.2551442917568861 0 1 0.2999999999992664 0 0.9127558318327536 0.3564464450364734 0 0.8955554812928542 0.2551442917568861 0 0.8239593393238149 0.175865982407799 0 0.9177753013045602 0.1474028499237798 0 0.4257142857140301 1.973108268395651e-18 0 0.521428571427989 -4.645836824945583e-18 0 0.4804947788369183 0.07960233789852753 0 0.4804947788369186 0.07960233789852754 0 0.521428571427989 -1.940618396839136e-19 0 0.571384480389286 0.08071061624839421 0 0.6171428571420018 1.153921142231409e-17 0 0.6649999999991137 0.08289100293350836 0 0.571384480389286 0.08071061624839422 0 0.6649999999991137 0.08289100293350837 0 0.7128571428562256 -1.275952047000152e-18 0 0.7614399244630433 0.1024449365784281 0 0.7614399244630438 0.1024449365784281 0 0.8564285714281222 0.08289100293390848 0 0.8239593393238144 0.1758659824077989 0 1 0.1999999999995579 0 1 0.2999999999992664 0 0.8955554812928537 0.255144291756886 0 1 0.1999999999995579 0 0.8955554812928542 0.2551442917568861 0 0.9177753013045602 0.1474028499237798 0 0.8239593393238149 0.175865982407799 0 0.8564285714281222 0.08289100293390848 0 0.9177753013045602 0.1474028499237798 0 0.521428571427989 2.0005792351227e-18 0 0.6171428571420018 -4.710519351942015e-18 0 0.571384480389286 0.08071061624839422 0 0.6171428571420018 2.054624620098486e-18 0 0.7128571428562256 -4.837773412837023e-18 0 0.6649999999991133 0.08289100293350835 0 0.7128571428562256 2.539309230789609e-18 0 0.8085714285708151 -5.979001012407198e-18 0 0.7614399244630432 0.1024449365784281 0 0.8085714285708151 1.207794141802704e-17 0 0.8564285714281222 0.08289100293390847 0 0.7614399244630432 0.1024449365784281 0 1 0.0999999999998147 0 1 0.1999999999995579 0 0.9177753013045602 0.1474028499237798 0 0.9177753013045608 0.1474028499237799 0 0.8564285714281222 0.08289100293390848 0 0.9307084157825721 0.07051582244471345 0 0.8085714285708151 2.054624620108403e-18 0 0.9042857142854291 -4.837773412860374e-18 0 0.8564285714281217 0.08289100293390846 0 1 0.09999999999981468 0 0.9177753013045608 0.1474028499237799 0 0.9307084157825721 0.07051582244471347 0 0.8564285714281222 0.08289100293390847 0 0.9042857142854291 5.875290786572487e-19 0 0.9307084157825721 0.07051582244471348 0 1 1.325531993502388e-17 0 1 0.09999999999981467 0 0.9307084157825721 0.07051582244471349 0 0.9042857142854293 1.747880225524851e-18 0 1 -4.115519886772499e-18 0 0.9307084157825721 0.07051582244471349 0 </DataArray>
      </Points>
      <Cells>
        <DataArray type="Int32" Name="connectivity" format="ascii">0 1 2 3 4 5 6 7 8 9 10 11 12 13 14 15 16 17 18 19 20 21 22 23 24 25 26 27 28 29 30 31 32 33 34 35 36 37 38 39 40 41 42 43 44 45 46 47 48 49 50 51 52 53 54 55 56 57 58 59 60 61 62 63 64 65 66 67 68 69 70 71 72 73 74 75 76 77 78 79 80 81 82 83 84 85 86 87 88 89 90 91 92 93 94 95 96 97 98 99 100 101 102 103 104 105 106 107 108 109 110 111 112 113 114 115 116 117 118 119 120 121 122 123 124 125 126 127 128 129 130 131 132 133 134 135 136 137 138 139 140 141 142 143 144 145 146 147 148 149 150 151 152 153 154 155 156 157 158 159 160 161 162 163 164 165 166 167 168 169 170 171 172 173 174 175 176 177 178 179 180 181 182 183 184 185 186 187 188 189 190 191 192 193 194 195 196 197 198 199 200 201 202 203 204 205 206 207 208 209 210 211 212 213 214 215 216 217 218 219 220 221 222 223 224 225 226 227 228 229 230 231 232 233 234 235 236 237 238 239 240 241 242 243 244 245 246 247 248 249 250 251 252 253 254 255 256 257 258 259 260 261 262 263 264 265 266 267 268 269 270 271 272 273 274 275 276 277 278 279 280 281 282 283 284 285 286 287 288 289 290 291 292 293 294 295 296 297 298 299 300 301 302 303 304 305 306 307 308 309 310 311 312 313 314 315 316 317 318 319 320 321 322 323 324 325 326 327 328 329 330 331 332 333 334 335 336 337 338 339 340 341 342 343 344 345 346 347 348 349 350 351 352 353 354 355 356 357 358 359 360 361 362 363 364 365 366 367 368 369 370 371 372 373 374 375 376 377 378 379 380 381 382 383 384 385 386 387 388 389 390 391 392 393 394 395 396 397 398 399 400 401 402 403 404 405 406 407 408 409 410 411 412 413 414 415 416 417 418 419 420 421 422 423 424 425 426 427 428 429 430 431 432 433 434 435 436 437 438 439 440 441 442 443 444 445 446 447 448 449 450 451 452 453 454 455 456 457 458 459 460 461 462 463 464 465 466 467 468 469 470 471 472 473 474 475 476 477 478 479 480 481 482 483 484 485 486 487 488 489 490 491 492 493 494 495 496 497 498 499 500 501 502 503 504 505 506 507 508 509 510 511 512 513 514 515 516 517 518 519 520 521 522 523 524 525 526 527 528 529 530 531 532 533 534 535 536 537 538 539 540 541 542 543 544 545 546 547 548 549 550 551 552 553 554 555 556 557 558 559 560 561 562 563 564 565 566 567 568 569 570 571 572 573 574 575 576 577 578 579 580 581 582 583 584 585 586 587 588 589 590 591 592 593 594 595 596 597 598 599 600 601 602 603 604 605 606 607 608 609 610 611 612 613 614 615 616 617 618 619 620 621 622 623 624 625 626 627 628 629 630 631 632 633 634 635 636 637 638 639 640 641 642 643 644 645 646 647 648 649 650 651 652 653 654 655 656 657 658 659 660 661 662 663 664 665 666 667 668 669 670 671 672 673 674 675 676 677 678 679 680 681 682 683 684 685 686 687 688 689 690 691 692 693 694 695 696 697 698 699 700 701 702 703 704 705 706 707 708 709 710 711 712 713 714 715 716 717 718 719 720 721 722 723 724 725 726 727 728 729 730 731 732 733 734 735 736 737 738 739 740 741 742 743 744 745 746 747 748 749 </DataArray>
        <DataArray type="Int32" Name="offsets" format="ascii">3 6 9 12 15 18 21 24 27 30 33 36 39 42 45 48 51 54 57 60 63 66 69 72 75 78 81 84 87 90 93 96 99 102 105 108 111 114 117 120 123 126 129 132 135 138 141 144 147 150 153 156 159 162 165 168 171 174 177 180 183 186 189 192 195 198 201 204 207 210 213 216 219 222 225 228 231 234 237 240 243 246 249 252 255 258 261 264 267 270 273 276 279 282 285 288 291 294 297 300 303 306 309 312 315 318 321 324 327 330 333 336 339 342 345 348 351 354 357 360 363 366 369 372 375 378 381 384 387 390 393 396 399 402 405 408 411 414 417 420 423 426 429 432 435 438 441 444 447 450 453 456 459 462 465 468 471 474 477 480 483 486 489 492 495 498 501 504 507 510 513 516 519 522 525 528 531 534 537 540 543 546 549 552 555 558 561 564 567 570 573 576 579 582 585 588 591 594 597 600 603 606 609 612 615 618 621 624 627 630 633 636 639 642 645 648 651 654 657 660 663 666 669 672 675 678 681 684 687 690 693 696 699 702 705 708 711 714 717 720 723 726 729 732 735 738 741 744 747 750 </DataArray>
        <DataArray type="Int8" Name="types" format="ascii">69 69 69 69 69 69 69 69 69 69 69 69 69 69 69 69 69 69 69 69 69 69 69 69 69 69 69 69 69 69 69 69 69 69 69 69 69 69 69 69 69 69 69 69 69 69 69 69 69 69 69 69 69 69 69 69 69 69 69 69 69 69 69 69 69 69 69 69 69 69 69 69 69 69 69 69 69 69 69 69 69 69 69 69 69 69 69 69 69 69 69 69 69 69 69 69 69 69 69 69 69 69 69 69 69 69 69 69 69 69 69 69 69 69 69 69 69 69 69 69 69 69 69 69 69 69 69 69 69 69 69 69 69 69 69 69 69 69 69 69 69 69 69 69 69 69 69 69 69 69 69 69 69 69 69 69 69 69 69 69 69 69 69 69 69 69 69 69 69 69 69 69 69 69 69 69 69 69 69 69 69 69 69 69 69 69 69 69 69 69 69 69 69 69 69 69 69 69 69 69 69 69 69 69 69 69 69 69 69 69 69 69 69 69 69 69 69 69 69 69 69 69 69 69 69 69 69 69 69 69 69 69 69 69 69 69 69 69 69 69 69 69 69 69 69 69 69 69 69 69 </DataArray>
      </Cells>
      <CellData>
        <DataArray type="UInt8" Name="vtkGhostType" format="ascii" RangeMin="0" RangeMax="1">0 0 0 0 0 0 0 0 0 0 0 0 0 0 0 0 0 0 0 0 0 0 0 0 0 0 0 0 0 0 0 0 0 0 0 0 0 0 0 0 0 0 0 0 0 0 0 0 0 0 0 0 0 0 0 0 0 0 0 0 0 0 0 0 0 0 0 0 0 0 0 0 0 0 0 0 0 0 0 0 0 0 0 0 0 0 0 0 0 0 0 0 0 0 0 0 0 0 0 0 0 0 0 0 0 0 0 0 0 0 0 0 0 0 0 0 0 0 0 0 0 0 0 0 0 0 0 0 0 0 0 0 0 0 0 0 0 0 0 0 0 0 0 0 0 0 0 0 0 0 0 0 0 0 0 0 0 0 0 0 0 0 0 0 0 0 0 0 0 0 0 0 0 0 0 0 0 0 0 0 0 0 0 0 0 0 0 0 0 0 0 0 0 0 0 0 0 0 0 0 0 0 0 0 0 0 0 0 0 0 0 0 0 0 0 0 0 0 0 0 0 0 0 0 0 0 0 0 0 0 0 0 0 0 0 0 0 0 0 0 0 0 0 0 0 0 0 0 0 0 </DataArray>
        <DataArray type="Int64" IdType="1" Name="vtkOriginalCellIds" format="ascii" RangeMin="0" RangeMax="249">0 1 2 3 4 5 6 7 8 9 10 11 12 13 14 15 16 17 18 19 20 21 22 23 24 25 26 27 28 29 30 31 32 33 34 35 36 37 38 39 40 41 42 43 44 45 46 47 48 49 50 51 52 53 54 55 56 57 58 59 60 61 62 63 64 65 66 67 68 69 70 71 72 73 74 75 76 77 78 79 80 81 82 83 84 85 86 87 88 89 90 91 92 93 94 95 96 97 98 99 100 101 102 103 104 105 106 107 108 109 110 111 112 113 114 115 116 117 118 119 120 121 122 123 124 125 126 127 128 129 130 131 132 133 134 135 136 137 138 139 140 141 142 143 144 145 146 147 148 149 150 151 152 153 154 155 156 157 158 159 160 161 162 163 164 165 166 167 168 169 170 171 172 173 174 175 176 177 178 179 180 181 182 183 184 185 186 187 188 189 190 191 192 193 194 195 196 197 198 199 200 201 202 203 204 205 206 207 208 209 210 211 212 213 214 215 216 217 218 219 220 221 222 223 224 225 226 227 228 229 230 231 232 233 234 235 236 237 238 239 240 241 242 243 244 245 246 247 248 249 </DataArray>
      </CellData>
      <PointData Tensors="stress">
        <DataArray type="Int64" IdType="1" Name="vtkOriginalPointIds" format="ascii" RangeMin="0" RangeMax="749">0 1 2 3 4 5 6 7 8 9 10 11 12 13 14 15 16 17 18 19 20 21 22 23 24 25 26 27 28 29 30 31 32 33 34 35 36 37 38 39 40 41 42 43 44 45 46 47 48 49 50 51 52 53 54 55 56 57 58 59 60 61 62 63 64 65 66 67 68 69 70 71 72 73 74 75 76 77 78 79 80 81 82 83 84 85 86 87 88 89 90 91 92 93 94 95 96 97 98 99 100 101 102 103 104 105 106 107 108 109 110 111 112 113 114 115 116 117 118 119 120 121 122 123 124 125 126 127 128 129 130 131 132 133 134 135 136 137 138 139 140 141 142 143 144 145 146 147 148 149 150 151 152 153 154 155 156 157 158 159 160 161 162 163 164 165 166 167 168 169 170 171 172 173 174 175 176 177 178 179 180 181 182 183 184 185 186 187 188 189 190 191 192 193 194 195 196 197 198 199 200 201 202 203 204 205 206 207 208 209 210 211 212 213 214 215 216 217 218 219 220 221 222 223 224 225 226 227 228 229 230 231 232 233 234 235 236 237 238 239 240 241 242 243 244 245 246 247 248 249 250 251 252 253 254 255 256 257 258 259 260 261 262 263 264 265 266 267 268 269 270 271 272 273 274 275 276 277 278 279 280 281 282 283 284 285 286 287 288 289 290 291 292 293 294 295 296 297 298 299 300 301 302 303 304 305 306 307 308 309 310 311 312 313 314 315 316 317 318 319 320 321 322 323 324 325 326 327 328 329 330 331 332 333 334 335 336 337 338 339 340 341 342 343 344 345 346 347 348 349 350 351 352 353 354 355 356 357 358 359 360 361 362 363 364 365 366 367 368 369 370 371 372 373 374 375 376 377 378 379 380 381 382 383 384 385 386 387 388 389 390 391 392 393 394 395 396 397 398 399 400 401 402 403 404 405 406 407 408 409 410 411 412 413 414 415 416 417 418 419 420 421 422 423 424 425 426 427 428 429 430 431 432 433 434 435 436 437 438 439 440 441 442 443 444 445 446 447 448 449 450 451 452 453 454 455 456 457 458 459 460 461 462 463 464 465 466 467 468 469 470 471 472 473 474 475 476 477 478 479 480 481 482 483 484 485 486 487 488 489 490 491 492 493 494 495 496 497 498 499 500 501 502 503 504 505 506 507 508 509 510 511 512 513 514 515 516 517 518 519 520 521 522 523 524 525 526 527 528 529 530 531 532 533 534 535 536 537 538 539 540 541 542 543 544 545 546 547 548 549 550 551 552 553 554 555 556 557 558 559 560 561 562 563 564 565 566 567 568 569 570 571 572 573 574 575 576 577 578 579 580 581 582 583 584 585 586 587 588 589 590 591 592 593 594 595 596 597 598 599 600 601 602 603 604 605 606 607 608 609 610 611 612 613 614 615 616 617 618 619 620 621 622 623 624 625 626 627 628 629 630 631 632 633 634 635 636 637 638 639 640 641 642 643 644 645 646 647 648 649 650 651 652 653 654 655 656 657 658 659 660 661 662 663 664 665 666 667 668 669 670 671 672 673 674 675 676 677 678 679 680 681 682 683 684 685 686 687 688 689 690 691 692 693 694 695 696 697 698 699 700 701 702 703 704 705 706 707 708 709 710 711 712 713 714 715 716 717 718 719 720 721 722 723 724 725 726 727 728 729 730 731 732 733 734 735 736 737 738 739 740 741 742 743 744 745 746 747 748 749 </DataArray>
        <DataArray type="UInt8" Name="vtkGhostType" format="ascii" RangeMin="0" RangeMax="0">0 0 0 0 0 0 0 0 0 0 0 0 0 0 0 0 0 0 0 0 0 0 0 0 0 0 0 0 0 0 0 0 0 0 0 0 0 0 0 0 0 0 0 0 0 0 0 0 0 0 0 0 0 0 0 0 0 0 0 0 0 0 0 0 0 0 0 0 0 0 0 0 0 0 0 0 0 0 0 0 0 0 0 0 0 0 0 0 0 0 0 0 0 0 0 0 0 0 0 0 0 0 0 0 0 0 0 0 0 0 0 0 0 0 0 0 0 0 0 0 0 0 0 0 0 0 0 0 0 0 0 0 0 0 0 0 0 0 0 0 0 0 0 0 0 0 0 0 0 0 0 0 0 0 0 0 0 0 0 0 0 0 0 0 0 0 0 0 0 0 0 0 0 0 0 0 0 0 0 0 0 0 0 0 0 0 0 0 0 0 0 0 0 0 0 0 0 0 0 0 0 0 0 0 0 0 0 0 0 0 0 0 0 0 0 0 0 0 0 0 0 0 0 0 0 0 0 0 0 0 0 0 0 0 0 0 0 0 0 0 0 0 0 0 0 0 0 0 0 0 0 0 0 0 0 0 0 0 0 0 0 0 0 0 0 0 0 0 0 0 0 0 0 0 0 0 0 0 0 0 0 0 0 0 0 0 0 0 0 0 0 0 0 0 0 0 0 0 0 0 0 0 0 0 0 0 0 0 0 0 0 0 0 0 0 0 0 0 0 0 0 0 0 0 0 0 0 0 0 0 0 0 0 0 0 0 0 0 0 0 0 0 0 0 0 0 0 0 0 0 0 0 0 0 0 0 0 0 0 0 0 0 0 0 0 0 0 0 0 0 0 0 0 0 0 0 0 0 0 0 0 0 0 0 0 0 0 0 0 0 0 0 0 0 0 0 0 0 0 0 0 0 0 0 0 0 0 0 0 0 0 0 0 0 0 0 0 0 0 0 0 0 0 0 0 0 0 0 0 0 0 0 0 0 0 0 0 0 0 0 0 0 0 0 0 0 0 0 0 0 0 0 0 0 0 0 0 0 0 0 0 0 0 0 0 0 0 0 0 0 0 0 0 0 0 0 0 0 0 0 0 0 0 0 0 0 0 0 0 0 0 0 0 0 0 0 0 0 0 0 0 0 0 0 0 0 0 0 0 0 0 0 0 0 0 0 0 0 0 0 0 0 0 0 0 0 0 0 0 0 0 0 0 0 0 0 0 0 0 0 0 0 0 0 0 0 0 0 0 0 0 0 0 0 0 0 0 0 0 0 0 0 0 0 0 0 0 0 0 0 0 0 0 0 0 0 0 0 0 0 0 0 0 0 0 0 0 0 0 0 0 0 0 0 0 0 0 0 0 0 0 0 0 0 0 0 0 0 0 0 0 0 0 0 0 0 0 0 0 0 0 0 0 0 0 0 0 0 0 0 0 0 0 0 0 0 0 0 0 0 0 0 0 0 0 0 0 0 0 0 0 0 0 0 0 0 0 0 0 0 0 0 0 0 0 0 0 0 0 0 0 0 0 0 0 0 0 0 0 0 0 0 0 0 0 0 0 0 0 0 0 0 0 0 0 0 0 0 0 0 0 0 0 0 0 0 0 0 0 0 0 0 0 0 0 0 0 0 0 0 0 0 0 0 0 0 0 0 0 0 0 0 0 0 0 0 0 0 0 0 0 0 0 0 0 0 0 0 0 0 </DataArray>
        <DataArray type="Float64" Name="stress" format="ascii" NumberOfComponents="9">107415322.5801725 2468890.800148794 2468890.800148794 13560184.03169615 0 0 0 0 0 107218771.3658109 25167.41226081026 25167.41226081031 14861979.32835421 0 0 0 0 0 108753774.6021355 2087537.517562683 2087537.517562683 15904369.94628352 0 0 0 0 0 107080898.5822303 -114863.2219178861 -114863.2219178861 14472394.92997162 0 0 0 0 0 109213954.0814049 27385.37276778021 27385.37276778024 17172541.81933725 0 0 0 0 0 108857246.9240627 2209112.926548173 2209112.926548173 16259823.36847716 0 0 0 0 0 109671126.1808402 4186840.814486721 4186840.814486721 14251825.05265458 0 0 0 0 0 107377509.1764126 2397310.506660808 2397310.506660808 13629615.99402129 0 0 0 0 0 108890416.6072181 2204358.597783945 2204358.597783945 15802849.04567473 0 0 0 0 0 109359309.9488034 4048.251178877192 4048.251178877192 17816584.53522026 0 0 0 0 0 111083935.1067015 3093509.947934061 3093509.947934061 17815898.66882404 0 0 0 0 0 108787856.6939802 2198522.985229148 2198522.985229148 15850015.05377292 0 0 0 0 0 108183681.8022069 4325599.188387308 4325599.188387308 10894714.54603477 0 0 0 0 0 107529786.8370196 2526096.330028427 2526096.330028427 13853574.17747579 0 0 0 0 0 109561337.7509315 4105363.931999454 4105363.931999453 14111712.79506937 0 0 0 0 0 111134022.2399783 3255540.081321182 3255540.081321182 17921318.31804075 0 0 0 0 0 109589761.113136 4150690.121296798 4150690.121296798 14005330.86941159 0 0 0 0 0 108902204.4210258 2178489.737883846 2178489.737883846 15867922.21791262 0 0 0 0 0 109101336.9782502 -166229.8014547589 -166229.8014547589 17243959.4675337 0 0 0 0 0 112273934.1115385 170699.3313756943 170699.3313756943 20694265.86939101 0 0 0 0 0 111294780.0743256 3242219.877636592 3242219.877636592 18502105.15675892 0 0 0 0 0 108145740.3196434 4232734.745507167 4232734.745507167 11068947.10958659 0 0 0 0 0 109587189.2678383 4246488.800190354 4246488.800190354 13850129.9135662 0 0 0 0 0 110829174.8247969 5712855.225937955 5712855.225937955 10297429.70099586 0 0 0 0 0 112697479.5371512 6038787.16198254 6038787.16198254 13754645.03501075 0 0 0 0 0 109516918.6512066 4140345.603032643 4140345.603032643 14077011.52787011 0 0 0 0 0 111148462.0478798 3287421.483103955 3287421.483103956 17820870.1640534 0 0 0 0 0 112487451.9643054 67278.29771365883 67278.29771365883 21568033.73466527 0 0 0 0 0 115042159.5890882 3410625.562579546 3410625.562579546 21457842.13409848 0 0 0 0 0 111082529.9774143 3350833.440264194 3350833.440264194 17714136.78710926 0 0 0 0 0 109103174.5250268 5133605.74487835 5133605.74487835 7316423.585775296 0 0 0 0 0 108354728.1346181 4390474.516116101 4390474.516116101 11334690.54367273 0 0 0 0 0 110598787.8956676 5519789.502050073 5519789.502050073 9969972.595097711 0 0 0 0 0 110658186.4117564 5650975.157542169 5650975.157542169 9737262.58100212 0 0 0 0 0 109757384.6728838 4330439.10812299 4330439.10812299 14403923.57558206 0 0 0 0 0 112447487.6776843 5782142.568613062 5782142.568613062 13305099.63388783 0 0 0 0 0 112493760.9077398 5961941.401666567 5961941.401666567 13105036.6769519 0 0 0 0 0 111391567.9580857 3370773.361535768 3370773.361535768 18599893.07865628 0 0 0 0 0 114771727.7482131 5932709.774957059 5932709.774957059 16499725.28639013 0 0 0 0 0 112154557.7009418 -172607.1883808153 -172607.1883808153 20692959.65655393 0 0 0 0 0 117307425.4155155 211606.4369097869 211606.4369097869 25088441.65828525 0 0 0 0 0 115321011.9547069 3629225.659049158 3629225.659049158 22399254.12714775 0 0 0 0 0 110970463.1137682 3039330.346614184 3039330.346614184 17764539.96137723 0 0 0 0 0 115206349.5637781 3755745.460020904 3755745.460020904 21413627.30316294 0 0 0 0 0 115084004.8239449 6195105.075356256 6195105.075356256 17184992.03290857 0 0 0 0 0 111641195.1138145 5720572.460850609 5720572.460850609 5567345.326035618 0 0 0 0 0 109028159.7782266 5039892.79558748 5039892.79558748 7491860.048478023 0 0 0 0 0 110703336.085575 5649234.359869267 5649234.359869265 9727562.243592396 0 0 0 0 0 110599904.4105892 5551228.67122396 5551228.67122396 9959029.330893844 0 0 0 0 0 112534342.6359275 5926431.719887283 5926431.719887283 12983768.89413328 0 0 0 0 0 113529490.0611103 6487853.662338196 6487853.662338196 7968443.53539712 0 0 0 0 0 112428893.4769669 5812089.033887405 5812089.033887405 13314452.63805694 0 0 0 0 0 115046780.375876 6182678.775847184 6182678.775847184 16158677.81348563 0 0 0 0 0 115566463.5982011 7045013.005740435 7045013.005740435 10576312.85309609 0 0 0 0 0 115007605.4954875 3825166.73072578 3825166.73072578 21504417.53328616 0 0 0 0 0 117555327.0541316 62369.71439922212 62369.71439922214 26218462.77210537 0 0 0 0 0 121383410.4863305 4073642.97823959 4073642.97823959 25452554.53274019 0 0 0 0 0 115414462.5516617 3789330.138325269 3789330.138325269 22387085.11923084 0 0 0 0 0 119498817.4447897 6644216.680517114 6644216.680517114 18723055.62001389 0 0 0 0 0 114905385.7419737 6166328.792910555 6166328.792910555 16349634.53629822 0 0 0 0 0 109792282.4370889 4878967.548812448 4878967.548812448 3615166.398832398 0 0 0 0 0 109270103.9598164 5199267.9517773 5199267.9517773 7759115.644221285 0 0 0 0 0 111377649.0568934 5529956.347168292 5529956.347168293 5245248.11468587 0 0 0 0 0 111479218.39385 5636053.351103717 5636053.351103717 5019819.773056106 0 0 0 0 0 110873525.2079841 5741234.270704654 5741234.270704653 10303129.05121045 0 0 0 0 0 113244468.9853314 6255469.09286969 6255469.09286969 7536644.802912108 0 0 0 0 0 113336398.030973 6419120.403370177 6419120.403370177 7287748.677391042 0 0 0 0 0 112759858.9650206 6024859.030793794 6024859.030793794 13787114.71774282 0 0 0 0 0 115326238.430935 6833363.942525116 6833363.942525116 9996779.389249995 0 0 0 0 0 115256958.0199525 6252565.644538423 6252565.644538423 16976197.54992344 0 0 0 0 0 118603542.2765486 7397742.266068354 7397742.266068354 11174203.37681586 0 0 0 0 0 115406748.799854 6981406.37818696 6981406.37818696 9942911.567610433 0 0 0 0 0 117132702.1492356 -223931.2787415142 -223931.2787415142 25162665.22525012 0 0 0 0 0 125989015.5029863 334012.8051789297 334012.8051789298 30514698.8283411 0 0 0 0 0 121634194.473149 4273856.681256576 4273856.681256576 26687440.99123965 0 0 0 0 0 114976238.8171982 3480990.575433723 3480990.575433723 21500293.89341758 0 0 0 0 0 121490951.6672805 4517465.906362368 4517465.906362368 25477997.87181646 0 0 0 0 0 119793439.249674 6887107.324678579 6887107.324678579 19570149.234527 0 0 0 0 0 119723880.1634566 6984264.914737672 6984264.914737672 18711460.95372593 0 0 0 0 0 118768724.9446629 7525288.284974826 7525288.284974826 11640519.45311885 0 0 0 0 0 114898765.5227143 6022007.776516934 6022007.776516934 16380604.4428998 0 0 0 0 0 109685497.2492024 4816720.477504865 4816720.477504866 3740373.731700661 0 0 0 0 0 111531711.6956262 5609962.167033484 5609962.167033486 5082615.043041868 0 0 0 0 0 111859164.4239767 4517738.079010505 4517738.079010504 1125548.546510548 0 0 0 0 0 111417112.7491941 5548720.275660649 5548720.275660649 5236741.838486047 0 0 0 0 0 113368392.9947607 6359743.740216909 6359743.740216909 7263384.540231907 0 0 0 0 0 113687356.9675541 5334671.949008976 5334671.949008976 2487722.028133926 0 0 0 0 0 117065509.082175 6455096.49643495 6455096.49643495 4713120.152327004 0 0 0 0 0 113146530.2968825 6291570.804385356 6291570.804385356 7586585.249053099 0 0 0 0 0 115539935.9313244 6891790.410290037 6891790.410290037 9835687.681185154 0 0 0 0 0 118736991.8503459 7543099.257234545 7543099.257234545 11121133.49571742 0 0 0 0 0 116812313.0705968 6285053.761260333 6285053.761260333 4191149.974248217 0 0 0 0 0 115591297.8621326 6904742.814758913 6904742.814758913 10035332.28618696 0 0 0 0 0 126328530.2152091 89953.95976838042 89953.95976838042 31958093.59973715 0 0 0 0 0 133016869.6437231 4253661.268007586 4253661.268007586 30095537.97859482 0 0 0 0 0 121034571.5409856 4661273.988189179 4661273.988189179 25499899.50323215 0 0 0 0 0 119497189.1891661 7041198.672761259 7041198.672761259 18687954.293208 0 0 0 0 0 121683475.7997756 4463971.587053077 4463971.587053077 26419410.32332486 0 0 0 0 0 127334038.5802271 6947182.923307171 6947182.923307171 21328605.3437794 0 0 0 0 0 119853162.389727 6967053.599244513 6967053.599244513 19264245.24565629 0 0 0 0 0 124378128.1672383 7628860.859193109 7628860.859193109 11533655.49647025 0 0 0 0 0 118623604.4462811 7567704.862736909 7567704.862736909 11113480.70430942 0 0 0 0 0 109989955.5055342 3827505.587991591 3827505.587991591 377742.1714442965 0 0 0 0 0 109910987.3276375 4940990.22822466 4940990.22822466 3949227.847902409 0 0 0 0 0 111605839.6728799 4373575.312756828 4373575.312756828 882103.5841478719 0 0 0 0 0 111738279.8288251 4438433.170329902 4438433.170329902 718724.7443949899 0 0 0 0 0 111654610.6393807 5692308.716145708 5692308.716145708 5496301.140894206 0 0 0 0 0 113425608.0500175 5175554.871064099 5175554.871064099 2199678.269060563 0 0 0 0 0 113528880.5576892 6488679.042259691 6488679.042259691 7864289.304098067 0 0 0 0 0 116675895.1979348 6165812.208084837 6165812.208084837 4327651.804675838 0 0 0 0 0 113529133.5243163 5253751.985797249 5253751.985797249 1917199.324154625 0 0 0 0 0 121916483.9000956 6178659.516981918 6178659.516981917 3378068.95483938 0 0 0 0 0 116719441.9882588 6370800.834987993 6370800.834987995 4313498.921972193 0 0 0 0 0 118794598.8950434 7498058.031800731 7498058.031800731 11139470.53154521 0 0 0 0 0 125853321.1054186 -231176.5073562665 -231176.5073562665 30691629.88425262 0 0 0 0 0 142863367.3033166 483912.77168943 483912.77168943 36305368.04907406 0 0 0 0 0 132966175.1618046 4282382.211375206 4282382.211375206 31536978.12116232 0 0 0 0 0 121442312.6137867 4251096.217471182 4251096.217471184 25619989.11271927 0 0 0 0 0 132568737.4477312 4816428.768586872 4816428.76858687 29964161.17748977 0 0 0 0 0 127380542.0801513 7073063.738390599 7073063.738390599 22089595.22214361 0 0 0 0 0 124372424.3295984 7678306.079045667 7678306.079045667 11933849.20077537 0 0 0 0 0 119726050.2943996 6850725.696947988 6850725.696947988 18791741.60798791 0 0 0 0 0 127198854.0337443 7347271.059441481 7347271.059441481 21212580.23259947 0 0 0 0 0 124285303.8048793 7727096.276830124 7727096.276830124 11482521.20799098 0 0 0 0 0 121702696.9446535 6068082.872461114 6068082.872461114 3250666.713178858 0 0 0 0 0 118900156.9947482 7552130.858897931 7552130.858897931 11198034.30272571 0 0 0 0 0 111404984.6306885 2678566.802258973 2678566.802258973 -2264181.258191337 0 0 0 0 0 109881709.0771281 3799336.772051459 3799336.772051459 435004.1205376902 0 0 0 0 0 111747536.560841 4392715.789001806 4392715.789001806 838343.0384676476 0 0 0 0 0 113857473.7293475 3027393.069359181 3027393.069359181 -2489576.408699695 0 0 0 0 0 111590186.5858955 4391999.042301954 4391999.042301954 919036.3608131695 0 0 0 0 0 113572932.8249426 5228517.423306552 5228517.423306552 1981911.418310408 0 0 0 0 0 116967096.1788898 6284661.719301991 6284661.719301991 4017759.805310128 0 0 0 0 0 115913741.2288675 4218868.008428072 4218868.008428072 -851048.5405849015 0 0 0 0 0 113396014.240518 5156693.25701901 5156693.25701901 2148523.36125777 0 0 0 0 0 118813318.8903279 3620817.482489265 3620817.482489265 -2362439.894391801 0 0 0 0 0 117081880.4812599 6434558.173388322 6434558.173388322 4386582.320140418 0 0 0 0 0 121640807.0369143 6103452.966061694 6103452.966061694 3333783.888185369 0 0 0 0 0 131693616.9423421 5069126.184930794 5069126.184930794 29977595.82226177 0 0 0 0 0 143311327.942004 175451.3691252792 175451.3691252792 37642440.45867047 0 0 0 0 0 155630437.8639248 1377369.041808117 1377369.041808117 34252388.4566171 0 0 0 0 0 126534394.8118196 7609381.747068149 7609381.747068149 21118480.7086632 0 0 0 0 0 132969925.917794 4559126.521550681 4559126.52155068 30806093.3321321 0 0 0 0 0 141563883.6819659 5012213.04832445 5012213.04832445 24253974.52557171 0 0 0 0 0 133610687.4282106 6147270.768946475 6147270.768946475 12533737.12910573 0 0 0 0 0 123980692.0270426 7961224.749355395 7961224.749355395 11276730.29067145 0 0 0 0 0 127360749.1153348 7293722.903852671 7293722.903852671 21830299.87033388 0 0 0 0 0 124353726.9570432 7646652.40997199 7646652.40997199 11475519.17176705 0 0 0 0 0 128189092.3414336 4573415.292227342 4573415.292227342 1932147.502901541 0 0 0 0 0 121549136.1492842 6232986.966465771 6232986.966465771 3199099.412796877 0 0 0 0 0 109627369.4483782 2347450.09634558 2347450.09634558 -2086373.394013894 0 0 0 0 0 110042582.0366014 3869304.977973914 3869304.977973914 546371.9179478614 0 0 0 0 0 111224570.0903997 2595968.036642778 2595968.036642778 -2396222.942330329 0 0 0 0 0 111344335.0124266 2609967.324944841 2609967.324944841 -2440400.932853649 0 0 0 0 0 111834602.2045133 4501819.379748078 4501819.379748078 1087098.878674578 0 0 0 0 0 113520694.4231466 2872989.712773522 2872989.712773522 -2725533.50552703 0 0 0 0 0 115738188.0854332 4083419.561547618 4083419.561547618 -1016482.474363217 0 0 0 0 0 113589603.6079098 2820530.028142769 2820530.028142769 -3013075.726867355 0 0 0 0 0 113799390.3814404 5393392.811769307 5393392.811769307 2454132.566545221 0 0 0 0 0 119023784.4132668 3747641.400677126 3747641.400677126 -2097931.898619523 0 0 0 0 0 115866935.5924506 4161602.181663068 4161602.181663068 -1077216.021421756 0 0 0 0 0 117006364.0513102 6381473.082521899 6381473.082521899 4261081.231696647 0 0 0 0 0 123216887.6541575 1733126.804750933 1733126.804750933 -4810452.816094649 0 0 0 0 0 118716751.8909134 3758060.218691603 3758060.218691603 -2128237.502638712 0 0 0 0 0 121695872.1813467 5972573.715450709 5972573.715450709 2894821.592504289 0 0 0 0 0 143095570.4690371 21627.02989765846 21627.02989765846 36769912.50989218 0 0 0 0 0 180316775.746154 457498.5353390725 457498.5353390725 38489919.08432157 0 0 0 0 0 154299109.1222695 621313.7817004005 621313.7817004005 34837667.30916931 0 0 0 0 0 133509825.3824508 4707503.968803129 4707503.968803129 30560777.48722679 0 0 0 0 0 153069087.3152436 1905964.749676521 1905964.749676521 33427804.9335501 0 0 0 0 0 140680503.2651509 4802904.429317174 4802904.429317174 24834543.5871447 0 0 0 0 0 133109298.9740475 6064326.958670019 6064326.958670019 12836644.09572151 0 0 0 0 0 127815997.7929231 7367673.496555812 7367673.496555812 21549439.9729412 0 0 0 0 0 140100645.2545548 5460424.935819872 5460424.935819872 23722330.45819986 0 0 0 0 0 132752818.1302487 6414666.990825159 6414666.990825162 12174662.47322951 0 0 0 0 0 127618081.8006188 4357968.627907325 4357968.627907324 1722042.769357838 0 0 0 0 0 124818820.5156278 7804498.474034891 7804498.474034891 11577568.59100403 0 0 0 0 0 127424880.5171414 4514725.013977694 4514725.013977694 1758727.647129473 0 0 0 0 0 122536711.5838968 1361976.457564767 1361976.457564767 -5504122.596137269 0 0 0 0 0 122306069.0551441 6275260.752704076 6275260.752704076 3378901.19841521 0 0 0 0 0 109549338.5515278 2352391.559541743 2352391.559541743 -2090500.343596341 0 0 0 0 0 111364415.9898354 2593814.667629705 2593814.667629705 -2400347.868814928 0 0 0 0 0 110366913.850957 382630.6859866934 382630.6859866935 -4851652.347550758 0 0 0 0 0 111273515.4355656 2593649.91026645 2593649.91026645 -2408130.129262517 0 0 0 0 0 113641064.7826265 2869024.069284867 2869024.069284867 -2725702.613101158 0 0 0 0 0 111924856.6224314 740652.6323988879 740652.6323988879 -4946670.36463318 0 0 0 0 0 115912173.0724474 4049613.154326685 4049613.154326685 -1315442.141940163 0 0 0 0 0 116208049.737527 1395162.94346719 1395162.94346719 -5192896.004374376 0 0 0 0 0 113407984.3730519 2847955.785166226 2847955.785166226 -2642673.296396425 0 0 0 0 0 118810658.2871446 3678266.161636527 3678266.161636527 -2086721.866941929 0 0 0 0 0 115815788.964495 1159728.722638751 1159728.722638751 -5693809.896763323 0 0 0 0 0 116107491.3342983 4170628.540525677 4170628.540525677 -1033358.027101412 0 0 0 0 0 118049144.6924908 -1400009.580208226 -1400009.580208226 -8879951.521483105 0 0 0 0 0 119430713.5389227 3934218.477260653 3934218.477260653 -2012475.212700799 0 0 0 0 0 122432604.9323812 1514268.335202951 1514268.335202951 -4926222.834254755 0 0 0 0 0 150919056.2838794 2369830.888815354 2369830.888815354 33780755.92392563 0 0 0 0 0 183149253.868025 -830048.577116085 -830048.577116085 37415109.47933234 0 0 0 0 0 196616915.5245901 -10746061.53791 -10746061.53791 31745480.11211937 0 0 0 0 0 139035321.71161 5820117.58453468 5820117.58453468 23518393.12103444 0 0 0 0 0 154433143.4484012 1065246.125315323 1065246.125315323 34392655.84070449 0 0 0 0 0 162755572.6315962 -3029428.762434613 -3029428.762434613 26437525.12649972 0 0 0 0 0 147182419.0324522 -365441.8647878512 -365441.8647878512 14212452.16052377 0 0 0 0 0 131952657.4993178 6933793.36752442 6933793.36752442 11785643.44729436 0 0 0 0 0 140808640.5838303 4916901.159948861 4916901.159948861 24256141.76601842 0 0 0 0 0 135419416.4818624 -155852.9428487179 -155852.9428487182 -98028.16780541239 0 0 0 0 0 127203350.8016357 4792737.003272155 4792737.003272155 1493859.176775952 0 0 0 0 0 133072002.7734882 6048169.373837766 6048169.373837768 12219800.15871051 0 0 0 0 0 127616471.4402138 4175732.267190694 4175732.267190694 1051186.893574504 0 0 0 0 0 126949985.317035 -2701264.03425982 -2701264.03425982 -8406284.110567035 0 0 0 0 0 122341696.055105 1648688.499456515 1648688.499456515 -5085418.132231737 0 0 0 0 0 108787650.7053949 778004.1622001148 778004.1622001148 -3725848.10392492 0 0 0 0 0 109623003.7023929 2364957.446079671 2364957.446079671 -2071043.182187231 0 0 0 0 0 110275152.0059156 386253.9629795977 386253.9629795977 -4845426.095825929 0 0 0 0 0 110299561.9673097 292332.83946502 292332.83946502 -4971191.424135271 0 0 0 0 0 111395958.2488885 2635190.879381951 2635190.879381951 -2343154.604898907 0 0 0 0 0 111875304.9883337 760607.1084334275 760607.1084334275 -4914724.504672293 0 0 0 0 0 113586613.2146624 2848235.994371776 2848235.994371776 -2953389.624915466 0 0 0 0 0 113584138.9186036 -603211.4779228077 -603211.4779228077 -6791859.943684446 0 0 0 0 0 111917485.4046002 784514.8556228202 784514.8556228202 -4907609.366807257 0 0 0 0 0 113923844.0857978 3050678.297299637 3050678.297299637 -2527067.164759363 0 0 0 0 0 115838950.0703042 1276078.985682694 1276078.985682694 -5280333.62239465 0 0 0 0 0 113235240.1553453 -817853.4312389969 -817853.4312389969 -7255900.977369964 0 0 0 0 0 118701283.178295 -1025894.658800536 -1025894.658800536 -8130960.903928441 0 0 0 0 0 115787878.0372782 1257810.360976693 1257810.360976693 -5334773.262792026 0 0 0 0 0 118793488.5188004 3597020.793290319 3597020.793290319 -2604959.779079488 0 0 0 0 0 120253999.1631265 -5390910.438335221 -5390910.438335221 -11745851.56119978 0 0 0 0 0 117932105.0431919 -1173361.735310425 -1173361.735310425 -8310449.608603453 0 0 0 0 0 122532168.3423615 1256092.695939446 1256092.695939446 -5763431.500187874 0 0 0 0 0 185245612.7059777 1054603.173433502 1054603.173433501 38719209.65557943 0 0 0 0 0 277930755.8961679 -4156397.545470122 -4156397.545470123 10637104.50655673 0 0 0 0 0 189995469.7977544 -17865537.00964177 -17865537.00964177 34336138.94786756 0 0 0 0 0 157740359.8098127 2772094.351703686 2772094.351703686 35867413.0184206 0 0 0 0 0 186469303.4215333 -11875885.37729019 -11875885.37729019 28559139.70496467 0 0 0 0 0 159564473.6336186 -4400632.172806871 -4400632.172806871 27677518.08988579 0 0 0 0 0 145497836.7017375 -917906.9008347397 -917906.9008347397 13831194.5088619 0 0 0 0 0 142625820.7752849 5507108.8198384 5507108.8198384 24646301.62918338 0 0 0 0 0 158748004.9663714 -2521883.210424644 -2521883.210424644 25129773.18162698 0 0 0 0 0 133870182.1680346 -732376.2350328946 -732376.2350328946 -555891.4394009603 0 0 0 0 0 134773745.5930887 6669090.602448183 6669090.602448183 12670751.49829626 0 0 0 0 0 143879617.3339715 299614.2449079836 299614.2449079835 12999772.98199969 0 0 0 0 0 133280856.299555 -270880.840170299 -270880.840170299 -617818.4993059319 0 0 0 0 0 125651720.9682906 -3365272.287296496 -3365272.287296496 -9497925.900895419 0 0 0 0 0 129005419.5284325 4833508.179208594 4833508.179208594 1958949.714382245 0 0 0 0 0 125362287.9657832 -3020979.12056044 -3020979.12056044 -8677209.909880705 0 0 0 0 0 119177851.810693 -5979177.399047781 -5979177.399047781 -12841973.30537515 0 0 0 0 0 123702618.6083909 1845132.6847715 1845132.6847715 -4815467.525565719 0 0 0 0 0 108524274.0340752 -1181208.111190855 -1181208.111190855 -5644581.966951508 0 0 0 0 0 108802087.7969786 800432.4744697738 800432.4744697738 -3752747.93836 0 0 0 0 0 110234080.9952363 326872.7576864685 326872.7576864685 -4774487.032755971 0 0 0 0 0 111211542.1277792 -1681954.568424016 -1681954.568424016 -6966470.076177418 0 0 0 0 0 110137204.2608179 318168.8887146172 318168.8887146172 -4847538.954852703 0 0 0 0 0 111955302.2597178 764593.9811446316 764593.9811446316 -5052655.266679177 0 0 0 0 0 113148139.1935979 -753060.6683921556 -753060.6683921556 -6849797.763727952 0 0 0 0 0 110925271.0496437 -1846699.63855695 -1846699.63855695 -7273893.152518483 0 0 0 0 0 112186902.2982239 889171.2869935117 889171.2869935117 -4876852.046528853 0 0 0 0 0 115862252.19122 1130238.739777483 1130238.739777483 -5808871.808628483 0 0 0 0 0 114679443.5960049 -3179385.615144207 -3179385.615144207 -9295477.733241597 0 0 0 0 0 113201534.784803 -692139.1938602064 -692139.1938602064 -6868758.502112083 0 0 0 0 0 117956196.492259 -1237343.565943088 -1237343.565943088 -8231887.87406668 0 0 0 0 0 114136610.3526552 -3493908.228960844 -3493908.228960844 -9934271.820308497 0 0 0 0 0 116437294.8701548 1440363.962400051 1440363.962400051 -5245977.925076116 0 0 0 0 0 114082295.6327513 -7576926.521954553 -7576926.521954553 -13027207.0199764 0 0 0 0 0 118964941.9344535 -975890.8932943238 -975890.8932943238 -8126969.754790912 0 0 0 0 0 118972059.5234992 -5682862.57494597 -5682862.57494597 -11951111.61711004 0 0 0 0 0 306682046.6179146 -12612664.23770791 -12612664.23770791 3256210.771412813 0 0 0 0 0 266726464.3963254 -64889425.43106877 -64889425.43106876 23510028.05247496 0 0 0 0 0 170301432.5035924 -8679769.208731897 -8679769.208731899 29224181.27100264 0 0 0 0 0 194016371.1926323 -15698595.85442214 -15698595.85442214 32944532.18632971 0 0 0 0 0 169971916.5165431 -20585859.7254353 -20585859.7254353 21592237.89201131 0 0 0 0 0 157683761.6739095 -3452033.160453897 -3452033.160453897 26615073.15879649 0 0 0 0 0 168962001.5705285 -20526793.00378661 -20526793.00378661 21588833.73244013 0 0 0 0 0 143080573.2499772 1339436.350123425 1339436.350123425 11616592.31119641 0 0 0 0 0 159968083.6177189 -3570729.0674651 -3570729.0674651 26642476.34587097 0 0 0 0 0 132689590.9879742 448280.2932291124 448280.2932291124 -1372455.412462373 0 0 0 0 0 145106461.1223433 -963607.7408202239 -963607.7408202242 13695209.26767808 0 0 0 0 0 140783865.5543124 -11027033.83347459 -11027033.83347459 -512507.1763470647 0 0 0 0 0 127366859.542102 -10860852.74672806 -10860852.74672806 -12143247.11445219 0 0 0 0 0 125221540.1324651 -2771356.748845162 -2771356.748845162 -8985147.034923602 0 0 0 0 0 133855878.003321 -1090044.116605195 -1090044.116605195 -1418453.997001805 0 0 0 0 0 125629792.5424315 -3538214.982714799 -3538214.982714799 -9722935.637935169 0 0 0 0 0 118880357.0829646 -12264265.74199043 -12264265.74199043 -15543052.98847563 0 0 0 0 0 118971397.6688311 -5590561.303351818 -5590561.303351818 -12084629.40014802 0 0 0 0 0 107625526.9251185 -669450.2538953281 -669450.2538953281 -4661790.148717259 0 0 0 0 0 108741309.0409708 754514.9640888169 754514.9640888169 -3835868.081053919 0 0 0 0 0 108603872.7825677 -1115527.351750131 -1115527.351750131 -5524253.813907495 0 0 0 0 0 108536369.8658301 -1129862.851344343 -1129862.851344343 -5497052.170644623 0 0 0 0 0 110200263.8538973 261404.0546430002 261404.0546430002 -5032344.415234175 0 0 0 0 0 109317812.3907668 -2407228.978200667 -2407228.978200667 -6855868.819458372 0 0 0 0 0 110506333.9147177 426414.3957837896 426414.3957837896 -4733140.063489698 0 0 0 0 0 110866657.8485696 -1762590.584099802 -1762590.584099802 -7072650.718073092 0 0 0 0 0 109107478.5324174 -2526165.097163401 -2526165.097163401 -7088884.531298835 0 0 0 0 0 111304888.0604464 -4353638.669039631 -4353638.669039631 -9076964.355260238 0 0 0 0 0 110859796.1151939 -1790846.970627866 -1790846.970627866 -7121844.727072511 0 0 0 0 0 113218030.8392359 -821421.2586876423 -821421.2586876423 -7184828.985672023 0 0 0 0 0 114031881.5524442 -3352539.408244858 -3352539.408244858 -9408999.3863774 0 0 0 0 0 110899134.2627477 -4592641.574482946 -4592641.574482946 -9544468.037504036 0 0 0 0 0 113650936.0559059 -577045.094660291 -577045.0946602909 -6787996.284629137 0 0 0 0 0 114889640.6897736 -7135862.883574493 -7135862.883574493 -12206368.85045904 0 0 0 0 0 114048754.1548358 -3300842.12822102 -3300842.12822102 -9452004.709977405 0 0 0 0 0 118027702.3828134 -1450911.396193444 -1450911.396193444 -8901518.650951141 0 0 0 0 0 112529629.8659908 -12963280.43133136 -12963280.43133136 -15125848.33428477 0 0 0 0 0 113921689.7710288 -7295359.035634244 -7295359.035634244 -12435757.96129861 0 0 0 0 0 119169592.7060383 -6039793.354955114 -6039793.354955114 -12734115.40272323 0 0 0 0 0 231221127.8795039 -58818627.89449713 -58818627.89449713 13507524.43044981 0 0 0 0 0 167843506.7352771 -25772051.22474409 -25772051.2247441 30156810.20818976 0 0 0 0 0 199220029.3332056 -9925995.336643241 -9925995.336643241 36232404.51104816 0 0 0 0 0 148994703.4355223 225326.6928313364 225326.6928313357 13666390.48298417 0 0 0 0 0 160763022.6892716 -19684006.19619187 -19684006.19619187 19564783.90275869 0 0 0 0 0 136970825.0038448 -11795793.87387701 -11795793.87387701 1224236.930627954 0 0 0 0 0 125248988.9527307 -11829043.79435199 -11829043.79435199 -13332776.48069613 0 0 0 0 0 136542422.778738 83027.85630428298 83027.85630428273 -186809.7865143246 0 0 0 0 0 135922586.8334576 -11006669.68345945 -11006669.68345945 -1734390.220947199 0 0 0 0 0 124676830.1343617 -11273973.68946011 -11273973.68946011 -12656731.94650072 0 0 0 0 0 117359530.8733696 -13062446.25184779 -13062446.25184779 -16934830.94589277 0 0 0 0 0 127506050.4338564 -2643939.309491202 -2643939.309491202 -8438109.793354893 0 0 0 0 0 117006334.4453425 -12614622.07376446 -12614622.07376446 -15847430.0818955 0 0 0 0 0 111473578.0644263 -13518309.43268378 -13518309.43268378 -16094695.22152709 0 0 0 0 0 120471031.1871386 -5407605.613491366 -5407605.613491366 -11789094.07316527 0 0 0 0 0 107650878.1705346 -652578.0979480642 -652578.0979480642 -4690589.424312137 0 0 0 0 0 108543287.1959993 -1138471.251905399 -1138471.251905399 -5484226.23252925 0 0 0 0 0 107005951.4947483 -2362043.154238506 -2362043.154238506 -5876470.646915086 0 0 0 0 0 108682809.2191106 -1076702.03645871 -1076702.03645871 -5493235.398019442 0 0 0 0 0 109027293.4138757 -2494548.694817726 -2494548.694817726 -6874620.636454446 0 0 0 0 0 107532834.2452598 -3048869.740967618 -3048869.740967618 -6668468.470093513 0 0 0 0 0 110975159.9811409 -1857469.035213724 -1857469.035213724 -7286546.757463266 0 0 0 0 0 108774332.8221765 -4811180.415351938 -4811180.415351938 -8378958.608182315 0 0 0 0 0 109032254.8455686 -2458781.042368151 -2458781.042368151 -6914020.890700345 0 0 0 0 0 110796248.2767967 -4449826.963286636 -4449826.963286636 -9220786.504348747 0 0 0 0 0 108551047.249026 -4946377.329241141 -4946377.329241141 -8626715.70805119 0 0 0 0 0 111255031.2454371 -1690011.990934567 -1690011.990934567 -7012330.556388108 0 0 0 0 0 114139613.2862586 -3502665.767742357 -3502665.767742357 -9852059.269728485 0 0 0 0 0 110552548.7681609 -7991666.857114625 -7991666.857114625 -11292585.90214833 0 0 0 0 0 110789592.6441464 -4459834.793141066 -4459834.793141066 -9255582.379762162 0 0 0 0 0 113902693.2659371 -7342091.848220322 -7342091.848220322 -12360675.2394077 0 0 0 0 0 109949169.1378044 -8318594.075224333 -8318594.075224333 -11862241.7562699 0 0 0 0 0 114802579.6302726 -3159995.890165984 -3159995.890165984 -9325524.854272485 0 0 0 0 0 111224052.5620238 -13170525.48051515 -13170525.48051515 -15358733.34560973 0 0 0 0 0 107177147.0152086 -13168606.49433548 -13168606.49433548 -13912106.88454336 0 0 0 0 0 114966450.9527031 -7170258.222616157 -7170258.222616157 -12227784.0103389 0 0 0 0 0 254751743.6506829 -71226764.10176177 -71226764.10176177 28274315.22220221 0 0 0 0 0 165267439.3140722 -87661261.42251609 -87661261.42251609 47662452.94567602 0 0 0 0 0 151969026.6308246 -15270497.99123637 -15270497.99123637 14992149.68004715 0 0 0 0 0 166989836.208834 -26321734.23030316 -26321734.23030316 26029811.15321279 0 0 0 0 0 129827505.5140801 -32221762.2958919 -32221762.2958919 7399105.687366182 0 0 0 0 0 133528206.9782305 -8615306.907118494 -8615306.907118494 -3839624.726543918 0 0 0 0 0 116885828.7268216 -23235201.11330992 -23235201.11330992 -13934240.71379322 0 0 0 0 0 124445809.1497023 -10781490.75087037 -10781490.75087037 -13266174.90710838 0 0 0 0 0 137524655.5230976 -12924574.54415111 -12924574.54415111 -1258425.38507954 0 0 0 0 0 125209705.5243341 -12120876.95625692 -12120876.95625692 -13694424.16037096 0 0 0 0 0 110325673.4795338 -21746721.04284667 -21746721.04284667 -18541322.97590318 0 0 0 0 0 117090386.3576259 -12546385.87346359 -12546385.87346359 -16025114.04006305 0 0 0 0 0 117325407.3515963 -13138170.58036342 -13138170.58036341 -16636554.65375243 0 0 0 0 0 105130529.9392472 -20485005.80109725 -20485005.80109725 -17283565.57525726 0 0 0 0 0 111290160.2371043 -13172804.52271778 -13172804.52271778 -15434101.16831731 0 0 0 0 0 106321071.8934653 -1848701.708326153 -1848701.708326153 -5021401.15479483 0 0 0 0 0 107582751.2018117 -694361.4476319815 -694361.4476319815 -4761369.057011845 0 0 0 0 0 107075237.2870395 -2310857.417595025 -2310857.417595025 -5787983.396564627 0 0 0 0 0 107038908.7545617 -2342701.615115409 -2342701.615115409 -5753950.675826385 0 0 0 0 0 108501223.6968852 -1165663.492733698 -1165663.492733698 -5642050.094343118 0 0 0 0 0 107626402.1174057 -2999511.397356942 -2999511.397356942 -6578708.6262249 0 0 0 0 0 109076156.5494319 -2554527.676700509 -2554527.676700509 -7004171.177426431 0 0 0 0 0 106996200.5158941 -4737328.872215673 -4737328.872215673 -7501775.915899609 0 0 0 0 0 107496099.7991704 -3003456.87531641 -3003456.87531641 -6568511.150457174 0 0 0 0 0 108441595.0519601 -4879091.412176414 -4879091.412176414 -8488937.212356135 0 0 0 0 0 106906716.289837 -4797619.085406647 -4797619.085406647 -7584577.176101882 0 0 0 0 0 109260256.546824 -2430204.370367113 -2430204.370367113 -6841680.934259289 0 0 0 0 0 110940961.2328916 -4578848.389998983 -4578848.389998983 -9475164.959511623 0 0 0 0 0 106902491.8095701 -8472353.289332658 -8472353.289332658 -9940157.620268609 0 0 0 0 0 108429665.7758577 -4843073.49580093 -4843073.49580093 -8485304.190433331 0 0 0 0 0 111409786.0400579 -4340394.887006683 -4340394.887006683 -9135489.068825707 0 0 0 0 0 109826177.1339535 -8123869.670098877 -8123869.670098877 -11436515.52239922 0 0 0 0 0 106430541.0811421 -8710582.09156134 -8710582.09156134 -10270779.17947246 0 0 0 0 0 114060345.6266334 -7602164.086553671 -7602164.086553671 -12856128.65076088 0 0 0 0 0 107911606.6032678 -12803001.46932674 -12803001.46932674 -13330039.8671455 0 0 0 0 0 109815895.5970804 -8102395.177983479 -8102395.177983479 -11462533.81129143 0 0 0 0 0 111460466.0045844 -13523929.5438798 -13523929.5438798 -15758499.12422778 0 0 0 0 0 101469829.5237962 -18618590.17573991 -18618590.17573991 -14476575.6702004 0 0 0 0 0 107033993.8796011 -12925781.49220503 -12925781.49220503 -13539311.99545662 0 0 0 0 0 177032615.2057358 -21819929.57473202 -21819929.57473202 21799098.6511388 0 0 0 0 0 142245582.6788939 -76044923.64639783 -76044923.64639783 40225052.29358947 0 0 0 0 0 125479416.5124272 -33730237.12089051 -33730237.12089051 14022434.64194293 0 0 0 0 0 122158581.3896602 -31247426.80827302 -31247426.80827302 4874830.551550479 0 0 0 0 0 114385110.3902631 -24197721.84811988 -24197721.84811988 -14387518.62895977 0 0 0 0 0 141990336.8489281 -11158757.2878748 -11158757.2878748 -208429.4844976834 0 0 0 0 0 113677095.6481063 -23853469.37558497 -23853469.37558497 -14462663.38021789 0 0 0 0 0 108629895.6636316 -22648639.87736997 -22648639.87736997 -20159504.132225 0 0 0 0 0 127696539.1067144 -11007139.50704174 -11007139.50704174 -12289994.87763175 0 0 0 0 0 118854043.276361 -12420103.16947315 -12420103.16947315 -15629742.62951013 0 0 0 0 0 108245642.2180016 -22196255.56003238 -22196255.56003238 -18847560.81818085 0 0 0 0 0 104030371.6225132 -21059408.89842395 -21059408.89842395 -18279653.37421595 0 0 0 0 0 112415970.2123771 -13089818.30886352 -13089818.30886352 -15188351.01052999 0 0 0 0 0 103751727.481779 -20691064.30155173 -20691064.30155173 -17526638.56514737 0 0 0 0 0 100796269.7967368 -18939228.06419672 -18939228.06419672 -14946031.49746158 0 0 0 0 0 106334644.9704754 -1835664.563494083 -1835664.563494083 -5054002.369916678 0 0 0 0 0 107042269.0966493 -2319239.6315851 -2319239.6315851 -5760646.622984188 0 0 0 0 0 105723748.0867132 -3197481.94013218 -3197481.94013218 -5782413.634570854 0 0 0 0 0 105665228.0528794 -4316752.633899903 -4316752.633899903 -6615893.341078907 0 0 0 0 0 107115667.2485693 -2313194.380672564 -2313194.380672564 -5804263.782602963 0 0 0 0 0 107534421.3470837 -3027377.338779236 -3027377.338779236 -6530688.045363178 0 0 0 0 0 106837975.6446549 -4768125.147687544 -4768125.147687544 -7556229.74579712 0 0 0 0 0 105710495.4277806 -4283949.499512502 -4283949.499512502 -6499808.237145863 0 0 0 0 0 107531180.2465675 -3013781.204487605 -3013781.204487605 -6561265.631180294 0 0 0 0 0 108536768.4454761 -4936751.429286684 -4936751.429286684 -8478592.473769734 0 0 0 0 0 105287018.6268328 -7225995.379383142 -7225995.379383142 -8354924.364255612 0 0 0 0 0 106830719.4771206 -4752390.982997375 -4752390.982997375 -7551799.372627988 0 0 0 0 0 106477576.4460315 -8490059.868391894 -8490059.868391894 -10067477.61537816 0 0 0 0 0 105247562.5550475 -7254831.719032994 -7254831.719032994 -8337341.842633229 0 0 0 0 0 108705003.3529565 -4819728.082871656 -4819728.082871656 -8402903.999563659 0 0 0 0 0 109917770.7465457 -8339391.695573783 -8339391.695573783 -11741843.46641557 0 0 0 0 0 104645690.8785125 -12174322.03768327 -12174322.03768327 -11315492.64199564 0 0 0 0 0 106323798.0302135 -8457843.974100951 -8457843.974100949 -9909787.278499788 0 0 0 0 0 110617687.1666934 -8038587.42846527 -8038587.42846527 -11303903.80874688 0 0 0 0 0 106987872.1149209 -12898779.21510607 -12898779.21510607 -13498814.05869804 0 0 0 0 0 104095042.7573588 -12406523.59180748 -12406523.59180748 -11644780.50175639 0 0 0 0 0 107795563.702797 -12910419.73539522 -12910419.73539522 -13351576.02378068 0 0 0 0 0 100588607.0015846 -18681066.28786106 -18681066.28786106 -14668628.41360348 0 0 0 0 0 98634438.75287406 -16809685.63751473 -16809685.63751473 -11926251.54459947 0 0 0 0 0 150605992.8945484 -81590739.54828294 -81590739.54828294 55713462.07650796 0 0 0 0 0 57133650.1919631 -57596283.63736964 -57596283.63736964 47687488.65249387 0 0 0 0 0 121102870.5239309 -29489703.00395349 -29489703.00395349 2375093.399484274 0 0 0 0 0 125507114.8036506 -34785147.29798814 -34785147.29798814 9656429.253033768 0 0 0 0 0 72280121.81218688 -31871217.37167936 -31871217.37167936 -11965200.78860895 0 0 0 0 0 114161525.4133934 -23923491.07831064 -23923491.07831064 -14614925.09748413 0 0 0 0 0 114170772.631733 -24668090.78510065 -24668090.78510065 -15563944.24735399 0 0 0 0 0 87436092.76880623 -30739653.56990417 -30739653.56990417 -19311504.59371663 0 0 0 0 0 108766364.8569314 -22492962.5481501 -22492962.5481501 -18794572.77389909 0 0 0 0 0 103998783.6171478 -20839144.12126413 -20839144.12126413 -17502521.76853191 0 0 0 0 0 108549299.0305227 -22705749.97487728 -22705749.97487728 -19511090.18523483 0 0 0 0 0 89103041.63747488 -28121383.43607279 -28121383.43607279 -17641903.30529 0 0 0 0 0 100707826.2037641 -18764788.55445832 -18764788.55445832 -14646172.75766949 0 0 0 0 0 104005640.6544636 -21028363.48272135 -21028363.48272135 -17700107.14940833 0 0 0 0 0 89267422.05288579 -24470192.72391501 -24470192.72391501 -14028590.16449314 0 0 0 0 0 105008118.9643548 -2719503.869952463 -2719503.869952463 -4984457.227992171 0 0 0 0 0 106290928.1151257 -1862490.012152142 -1862490.012152142 -5088162.316763518 0 0 0 0 0 105753242.203903 -3162522.826062073 -3162522.826062073 -5742649.234008535 0 0 0 0 0 107005060.0689484 -2362752.116949755 -2362752.116949755 -5885490.486290036 0 0 0 0 0 105780388.6655516 -4249840.885845926 -4249840.885845926 -6497646.325275299 0 0 0 0 0 105740378.6000591 -3163898.496030286 -3163898.496030286 -5726351.078853329 0 0 0 0 0 105680714.0998 -4263618.144987876 -4263618.144987876 -6557173.14560706 0 0 0 0 0 106892368.6615041 -4797815.692279025 -4797815.692279025 -7508939.975481967 0 0 0 0 0 104186680.1023016 -6493937.069593643 -6493937.069593643 -7203162.68070048 0 0 0 0 0 106932606.4926386 -4764169.385316004 -4764169.385316004 -7525549.937345386 0 0 0 0 0 105159571.8372806 -7223501.866881997 -7223501.866881997 -8391152.534419427 0 0 0 0 0 104165701.5351084 -6514166.708748973 -6514166.708748973 -7162098.154835354 0 0 0 0 0 102032909.8182345 -10230142.13577612 -10230142.13577612 -8711538.047829209 0 0 0 0 0 105213733.6320754 -7232681.585079132 -7232681.585079132 -8396856.298480138 0 0 0 0 0 106523776.7444791 -8529282.676229835 -8529282.676229835 -9906077.594629684 0 0 0 0 0 106948869.0124082 -8402069.888538519 -8402069.888538519 -9867068.90006719 0 0 0 0 0 104002622.7828161 -12197897.42274641 -12197897.42274641 -11394563.4468556 0 0 0 0 0 101708291.4223097 -11996757.43747702 -11996757.43747702 -9891787.889230477 0 0 0 0 0 103991871.985455 -12229802.73791771 -12229802.73791771 -11438542.41957965 0 0 0 0 0 107173626.4828431 -13163670.59558737 -13163670.59558737 -13659909.07937696 0 0 0 0 0 99080537.76517132 -16639848.94668481 -16639848.94668481 -11750443.53888093 0 0 0 0 0 100788069.6358433 -18899518.22918177 -18899518.22918176 -14558287.43234117 0 0 0 0 0 89746917.52184978 -20695404.57862758 -20695404.57862758 -10778734.53240157 0 0 0 0 0 98550139.11113805 -16685359.34667302 -16685359.34667302 -11853319.4630779 0 0 0 0 0 53611826.17033023 -47914672.56705958 -47914672.56705958 41994615.47028027 0 0 0 0 0 74292197.75795065 -31251876.30694626 -31251876.30694626 -11908390.5234652 0 0 0 0 0 127685514.3129454 -34841624.63730909 -34841624.63730909 6668852.838673934 0 0 0 0 0 114376018.0562572 -24390604.80115071 -24390604.80115071 -14406887.2356679 0 0 0 0 0 76589126.58324529 -34365082.19395804 -34365082.19395804 -9947077.334977742 0 0 0 0 0 87723642.76008981 -31115840.41022683 -31115840.41022683 -22110963.41700471 0 0 0 0 0 109288629.4288187 -22298056.40940904 -22298056.40940904 -18738078.10896584 0 0 0 0 0 87617155.97356877 -31359021.21995776 -31359021.21995776 -18987169.59006445 0 0 0 0 0 88581642.95492335 -28504749.06883677 -28504749.06883677 -18628284.46820427 0 0 0 0 0 89004856.47800954 -24602188.56539518 -24602188.56539518 -14247288.38718843 0 0 0 0 0 104553731.0417419 -20785608.00062148 -20785608.00062148 -17388393.95251882 0 0 0 0 0 88550907.15577331 -28347532.90311366 -28347532.90311366 -17659579.83183537 0 0 0 0 0 101043213.9272232 -18811340.65743212 -18811340.65743211 -14533485.2845618 0 0 0 0 0 88926228.19101192 -24476273.03040316 -24476273.03040317 -14112761.60167987 0 0 0 0 0 89730968.44404989 -20672717.12450425 -20672717.12450424 -10650370.48960603 0 0 0 0 0 104446238.1749271 -4130386.315838354 -4130386.315838354 -5682336.388367787 0 0 0 0 0 105006588.1945046 -2709389.545881417 -2709389.545881417 -5020493.947553934 0 0 0 0 0 105750129.2444047 -3165115.556666767 -3165115.556666767 -5729906.132263567 0 0 0 0 0 105608496.5202411 -4294606.413047209 -4294606.41304721 -6492449.431063098 0 0 0 0 0 104419938.7872213 -4155406.351416541 -4155406.351416541 -5690959.371917468 0 0 0 0 0 105770524.2626006 -3143003.964476778 -3143003.964476777 -5738745.488581628 0 0 0 0 0 103255793.8877424 -5827416.972146735 -5827416.972146735 -6141631.605855142 0 0 0 0 0 105752418.4173744 -4293251.293025796 -4293251.293025796 -6542879.436580687 0 0 0 0 0 104105732.4841681 -6480921.525991647 -6480921.525991647 -7223935.059292946 0 0 0 0 0 105243789.5092513 -7275279.89644346 -7275279.89644346 -8294700.742386874 0 0 0 0 0 101689606.2805464 -8805682.808687432 -8805682.808687434 -7409346.886526165 0 0 0 0 0 104119020.355219 -6484877.61656488 -6484877.61656488 -7230135.617610177 0 0 0 0 0 102093243.3766403 -10146603.20378983 -10146603.20378983 -8682927.894461866 0 0 0 0 0 101714507.3887298 -8788350.179605205 -8788350.179605205 -7300058.327592795 0 0 0 0 0 105235002.4535417 -7282786.385988983 -7282786.385988983 -8396904.788386982 0 0 0 0 0 102116678.9398975 -10175635.82885712 -10175635.82885712 -8540636.940626061 0 0 0 0 0 106383985.1108814 -8619693.386658873 -8619693.386658875 -10194518.23544495 0 0 0 0 0 101948096.6726553 -11907257.65231359 -11907257.65231359 -9756247.808337437 0 0 0 0 0 104071144.2890066 -12420855.55332537 -12420855.55332537 -11476815.18441173 0 0 0 0 0 97697094.26475811 -14707827.49568904 -14707827.49568904 -9547482.518241633 0 0 0 0 0 101676301.6494377 -11816070.23112287 -11816070.23112287 -9740319.73373715 0 0 0 0 0 104502918.8021211 -12261626.25445813 -12261626.25445814 -11290562.56193761 0 0 0 0 0 98500693.46173762 -16639485.18033818 -16639485.18033818 -11896864.40209785 0 0 0 0 0 97520023.31784892 -14753281.10920762 -14753281.10920762 -9557744.414183335 0 0 0 0 0 89673069.47685166 -20628183.28534194 -20628183.28534194 -10831295.59331894 0 0 0 0 0 90369578.70485947 -17503824.47618977 -17503824.47618977 -8103326.324799488 0 0 0 0 0 98673749.25880207 -16775371.44743359 -16775371.44743359 -11776302.07000658 0 0 0 0 0 53149694.78523421 -42928625.68090045 -42928625.68090045 45921090.77032037 0 0 0 0 0 -1842118.121989871 -7090072.37432138 -7090072.374321378 1849586.667454048 0 0 0 0 0 75345603.77341335 -33817039.29529061 -33817039.29529061 -14148376.89663563 0 0 0 0 0 89774973.72577362 -32464730.20372448 -32464730.20372448 -18589715.19460683 0 0 0 0 0 72264345.23885179 -31315081.42081691 -31315081.42081691 -14718016.86670805 0 0 0 0 0 57865893.32036127 -32581927.05903478 -32581927.05903478 -18938074.91254472 0 0 0 0 0 89105488.64137837 -28798511.47535736 -28798511.47535736 -17292260.73135399 0 0 0 0 0 87116094.0501672 -31092018.60405853 -31092018.60405853 -20317035.00913485 0 0 0 0 0 63842658.31746771 -31732171.31263741 -31732171.31263741 -16095219.91259761 0 0 0 0 0 70041399.20705757 -27921166.39256071 -27921166.39256071 -11605910.87152153 0 0 0 0 0 89155488.60566308 -24702325.41104289 -24702325.41104289 -13920066.35083419 0 0 0 0 0 88553539.90194128 -28360984.65627081 -28360984.65627081 -17696575.20119482 0 0 0 0 0 89804542.019354 -20776629.73304261 -20776629.73304261 -10719920.7598641 0 0 0 0 0 89008342.32904688 -24477122.69537668 -24477122.69537668 -13718564.0832866 0 0 0 0 0 75451931.04248166 -23228553.58013117 -23228553.58013117 -8146871.68050065 0 0 0 0 0 103290979.2689301 -5802687.136973673 -5802687.136973673 -6151891.112296628 0 0 0 0 0 104386076.6657522 -4132397.99466983 -4132397.99466983 -5712874.132958727 0 0 0 0 0 105677962.9313234 -4344944.206094203 -4344944.206094204 -6542760.382787617 0 0 0 0 0 101260762.487832 -7651281.444119503 -7651281.444119504 -6286165.223755228 0 0 0 0 0 103209859.6391518 -5798900.872919514 -5798900.872919514 -6190500.348725208 0 0 0 0 0 104161564.4671264 -6516265.095711265 -6516265.095711263 -7138038.452513162 0 0 0 0 0 101676716.5944406 -8765544.780640926 -8765544.780640926 -7409834.477575679 0 0 0 0 0 101285789.0816048 -7635692.841387621 -7635692.841387621 -6194913.867796343 0 0 0 0 0 104151322.2679348 -6522215.894133604 -6522215.894133604 -7223607.87632885 0 0 0 0 0 97841738.91183773 -11091012.39805637 -11091012.39805637 -6959605.932481895 0 0 0 0 0 101718014.8150252 -8784333.602907728 -8784333.602907728 -7406693.77459701 0 0 0 0 0 102133253.9101766 -10176420.03340114 -10176420.03340114 -8537718.873080734 0 0 0 0 0 97263657.30613641 -12930709.04148296 -12930709.04148296 -8078812.647658762 0 0 0 0 0 102225627.0934467 -10184243.31364395 -10184243.31364395 -8686906.259301016 0 0 0 0 0 101716610.6458067 -11857561.33659628 -11857561.33659628 -9603604.923250109 0 0 0 0 0 97459433.46146543 -14693021.93091067 -14693021.93091067 -9619543.384956615 0 0 0 0 0 97364994.98651278 -12861791.18731156 -12861791.18731156 -7880092.621038686 0 0 0 0 0 101742742.9071147 -11857642.15076707 -11857642.15076707 -9704931.898750234 0 0 0 0 0 98650936.10103695 -16759061.29314924 -16759061.29314924 -11665425.70510786 0 0 0 0 0 90282713.11424884 -17583875.84464185 -17583875.84464185 -8343967.872181127 0 0 0 0 0 97452486.26987992 -14683743.98984928 -14683743.98984928 -9594407.020094536 0 0 0 0 0 89748408.53515343 -20611613.61162357 -20611613.61162357 -10417104.07620126 0 0 0 0 0 80796892.81090321 -19110927.253851 -19110927.253851 -6127627.257789335 0 0 0 0 0 90371712.91976702 -17546898.3552791 -17546898.3552791 -8256045.789643564 0 0 0 0 0 72237820.97418025 -35575129.82877338 -35575129.82877338 -10745313.53945856 0 0 0 0 0 5266898.13393064 -5887843.48779705 -5887843.48779705 93164.71412161658 0 0 0 0 0 28400781.51736246 -24115828.94867695 -24115828.94867695 -27312468.65480975 0 0 0 0 0 69940772.9483356 -34207572.75977193 -34207572.75977193 -9216342.588468937 0 0 0 0 0 27783603.16997596 -22621419.51703948 -22621419.51703948 -25462808.35936015 0 0 0 0 0 58385704.87985526 -32051744.30254846 -32051744.30254846 -19315073.86434721 0 0 0 0 0 64282752.03190267 -31759870.90157495 -31759870.90157495 -16835396.38094199 0 0 0 0 0 86391045.3320028 -31196345.32479125 -31196345.32479125 -19763895.01784165 0 0 0 0 0 59599215.72265878 -33533127.0211805 -33533127.0211805 -18296965.33637276 0 0 0 0 0 70584830.1669686 -27757590.1782897 -27757590.1782897 -11543861.85320966 0 0 0 0 0 88018988.90964422 -28515123.7999956 -28515123.7999956 -17732377.00593219 0 0 0 0 0 64990769.75292038 -32069321.9845302 -32069321.9845302 -15608819.20290637 0 0 0 0 0 76070626.9914802 -22923143.83558746 -22923143.83558746 -7639472.623229512 0 0 0 0 0 88496074.33194827 -24713370.96643774 -24713370.96643774 -14072493.10062919 0 0 0 0 0 70854686.13526559 -27932991.39549284 -27932991.39549284 -11401087.14198214 0 0 0 0 0 89275579.86493477 -20853504.99631284 -20853504.99631284 -10806964.53701216 0 0 0 0 0 76358357.03262635 -23135948.19246375 -23135948.19246375 -7974168.401349824 0 0 0 0 0 81279066.45906101 -18849717.59400355 -18849717.59400355 -5654517.231676032 0 0 0 0 0 98237832.31406991 -9452263.050861917 -9452263.050861917 -5897304.00904643 0 0 0 0 0 101273069.4559064 -7625507.554652989 -7625507.55465299 -6295061.189586034 0 0 0 0 0 101713012.2685215 -8790752.093759879 -8790752.093759879 -7269614.612505513 0 0 0 0 0 98341626.31098762 -9386288.162351349 -9386288.162351349 -5729059.630097698 0 0 0 0 0 101616028.5260542 -8852644.109391784 -8852644.109391784 -7438258.997893072 0 0 0 0 0 97990012.43871044 -11012307.81236812 -11012307.81236812 -6914007.883046995 0 0 0 0 0 97962578.48002517 -11013361.64816806 -11013361.64816806 -6741427.126234598 0 0 0 0 0 101996650.4557897 -10263399.10784492 -10263399.10784492 -8767631.077911351 0 0 0 0 0 97406674.5694291 -12865172.30364016 -12865172.30364016 -8025780.967971644 0 0 0 0 0 91265169.19313504 -14969910.40227064 -14969910.40227064 -6700461.216525515 0 0 0 0 0 97353663.04024969 -12864663.07451095 -12864663.07451095 -7988839.493127277 0 0 0 0 0 97512753.58516839 -14712188.97151636 -14712188.97151636 -9385122.521985935 0 0 0 0 0 90370412.14029205 -17504084.37173953 -17504084.37173953 -8350227.555245413 0 0 0 0 0 91465432.1638258 -14842492.98858311 -14842492.98858311 -6403042.439539261 0 0 0 0 0 97411537.59797373 -14782522.56489946 -14782522.56489946 -9567721.193951022 0 0 0 0 0 89941455.73351564 -17645743.45465715 -17645743.45465715 -8313722.296322375 0 0 0 0 0 81433538.63019052 -19003346.41727659 -19003346.41727659 -6021072.163190809 0 0 0 0 0 84038266.30410807 -15629658.09102086 -15629658.09102086 -4003241.003014999 0 0 0 0 0 4121789.655242935 2396505.449616745 2396505.449616745 -10102287.99882539 0 0 0 0 0 -12989884.19026787 18307169.41357268 18307169.41357268 -68276743.83917415 0 0 0 0 0 30912952.22006035 -27596139.00248521 -27596139.00248521 -15936756.66489099 0 0 0 0 0 30211365.69813508 -24562625.33701723 -24562625.33701723 -21856637.66209928 0 0 0 0 0 36751745.33803274 -28715830.95317703 -28715830.95317703 -18740466.02887965 0 0 0 0 0 58275524.59593517 -32122335.30524453 -32122335.30524453 -19139252.22492673 0 0 0 0 0 36484818.3177143 -27720227.34131289 -27720227.34131289 -16915239.19248989 0 0 0 0 0 65101233.08142245 -32359128.41519373 -32359128.41519373 -14738309.37765899 0 0 0 0 0 58750841.29796293 -32588253.03406349 -32588253.03406349 -20025065.25933186 0 0 0 0 0 71014623.35697795 -28222136.53601905 -28222136.53601905 -10958267.64083184 0 0 0 0 0 64480093.69059666 -31385401.64330142 -31385401.64330142 -15984343.74898142 0 0 0 0 0 46948719.11754277 -25688257.00647982 -25688257.00647982 -8529018.903490093 0 0 0 0 0 76376171.46344684 -23352740.87726844 -23352740.87726843 -7666409.842663682 0 0 0 0 0 70625776.42062783 -27481324.23496775 -27481324.23496776 -10972523.77999107 0 0 0 0 0 56832093.66882928 -21732407.08203006 -21732407.08203006 -4321387.487414141 0 0 0 0 0 81723999.06081595 -19305578.06505905 -19305578.06505905 -5923159.42706736 0 0 0 0 0 76056058.98830181 -22764145.06051633 -22764145.06051633 -7361266.103196677 0 0 0 0 0 66949937.34268369 -17614238.9375415 -17614238.9375415 -2137432.951466993 0 0 0 0 0 94141802.2223419 -10868000.4003639 -10868000.4003639 -4857329.184766109 0 0 0 0 0 98383380.69348548 -9407968.519427851 -9407968.519427851 -5858361.985842382 0 0 0 0 0 97964658.33899823 -11001804.9326551 -11001804.9326551 -6727280.21285072 0 0 0 0 0 92584850.42439719 -12783639.60467445 -12783639.60467445 -5617619.93858954 0 0 0 0 0 98042972.792821 -11050199.26579562 -11050199.26579562 -6888155.498964968 0 0 0 0 0 97334677.31227687 -12837047.5363199 -12837047.5363199 -7798836.431218001 0 0 0 0 0 92826416.49467675 -12637833.4292674 -12637833.4292674 -5309304.196615421 0 0 0 0 0 97114007.29700367 -12966743.4727939 -12966743.4727939 -8043912.071663143 0 0 0 0 0 91520754.80743732 -14885369.77496429 -14885369.77496428 -6637908.254293352 0 0 0 0 0 90360884.69186035 -17424870.88460812 -17424870.88460812 -7959547.81189168 0 0 0 0 0 83595066.0644528 -15869259.54907964 -15869259.54907964 -4415545.35007425 0 0 0 0 0 91501421.93003793 -14910429.82425509 -14910429.82425509 -6579132.832832751 0 0 0 0 0 84027355.09465855 -15703626.98628252 -15703626.98628252 -4263741.230929854 0 0 0 0 0 81411755.19832774 -18884930.01712788 -18884930.01712788 -5769347.546603589 0 0 0 0 0 76605791.36330934 -15848792.7909448 -15848792.7909448 -2283794.494784025 0 0 0 0 0 21228632.55444329 -21693911.80056156 -21693911.80056156 -24290001.49364181 0 0 0 0 0 -664996.4870810694 9791530.571289016 9791530.571289016 -52864174.82221333 0 0 0 0 0 3475524.64518258 -15102520.82258091 -15102520.82258091 -35573830.63570524 0 0 0 0 0 28717341.33115878 -24802962.7246267 -24802962.72462671 -26763768.67879304 0 0 0 0 0 3307435.716384991 -11361017.38794181 -11361017.38794181 -31379498.6106293 0 0 0 0 0 38310166.84574357 -29898764.01585316 -29898764.01585315 -12753793.68280499 0 0 0 0 0 48314237.96685218 -25445035.42184655 -25445035.42184655 -8682897.19940562 0 0 0 0 0 63042528.27104422 -31645443.24548026 -31645443.24548026 -15834545.06121342 0 0 0 0 0 38157128.05833676 -28748852.12748684 -28748852.12748684 -15491263.78394365 0 0 0 0 0 58292055.52245678 -21190708.62857242 -21190708.62857242 -3593348.728174487 0 0 0 0 0 69100123.58203951 -27986564.28228335 -27986564.28228335 -11557228.76422189 0 0 0 0 0 48875963.94926696 -25821112.15358501 -25821112.15358501 -8011679.76845427 0 0 0 0 0 68302021.97567631 -16998411.82842363 -16998411.82842363 -1318160.324922156 0 0 0 0 0 74757978.992883 -23326558.32661827 -23326558.32661827 -8015718.053456786 0 0 0 0 0 58726863.26800819 -21770484.37990411 -21770484.37990411 -3905938.330989412 0 0 0 0 0 80544317.27572061 -19338067.52748248 -19338067.52748248 -6239987.984847392 0 0 0 0 0 68867863.65206093 -17473714.3820813 -17473714.3820813 -1656770.344010507 0 0 0 0 0 77020895.34876233 -15648575.30123165 -15648575.30123165 -2213037.579354864 0 0 0 0 0 92936217.22431216 -12687007.05529417 -12687007.05529417 -5507110.739568676 0 0 0 0 0 94350065.72792797 -10738410.25482573 -10738410.25482573 -4611221.916528174 0 0 0 0 0 97736168.49327368 -11143631.46926189 -11143631.46926189 -6985140.092270847 0 0 0 0 0 86418388.91658629 -13400078.81964382 -13400078.81964382 -3586991.274331658 0 0 0 0 0 92917068.12193781 -12721154.74147781 -12721154.74147781 -5459967.051113272 0 0 0 0 0 91451395.45237927 -14807878.5126924 -14807878.5126924 -6345221.215469817 0 0 0 0 0 84156969.14609154 -15751605.90791679 -15751605.90791679 -4277496.207227685 0 0 0 0 0 86809781.37987553 -13179191.42540821 -13179191.42540821 -3196185.536800388 0 0 0 0 0 91052003.06485833 -15025882.10478525 -15025882.10478525 -6684710.470701761 0 0 0 0 0 79536847.90823361 -12467815.78055814 -12467815.78055814 -602878.990596744 0 0 0 0 0 83627011.73520371 -15732684.1682257 -15732684.1682257 -4290787.025813099 0 0 0 0 0 77017115.44910549 -15737983.05871488 -15737983.05871488 -2344496.363201481 0 0 0 0 0 -6879109.087521251 15664583.81371169 15664583.81371169 -77306037.31632933 0 0 0 0 0 -5493797.284980568 7922098.664259017 7922098.664259017 -103804468.7234065 0 0 0 0 0 9003733.927099871 -16952962.14681478 -16952962.14681478 -13996294.08012927 0 0 0 0 0 9509697.058556162 -14772902.56246338 -14772902.56246338 -25776555.30534973 0 0 0 0 0 22837333.51917852 -16964757.40139874 -16964757.40139874 -11149631.33961593 0 0 0 0 0 33919073.07697819 -27582501.85823016 -27582501.85823016 -16541846.72088852 0 0 0 0 0 21247448.75965809 -16444554.18693592 -16444554.18693592 -10284865.4499736 0 0 0 0 0 49067999.00225347 -26378890.72007815 -26378890.72007815 -6761260.3377232 0 0 0 0 0 37470030.58165107 -28042167.6209095 -28042167.6209095 -17341600.61593482 0 0 0 0 0 36628285.60686567 -13956773.57973777 -13956773.57973777 -1744148.611156956 0 0 0 0 0 58641796.56669115 -21938242.89227289 -21938242.89227289 -3427628.962005094 0 0 0 0 0 48579026.48957241 -25008074.35321929 -25008074.35321929 -7891680.864395116 0 0 0 0 0 49242916.1500275 -10901206.51947602 -10901206.51947602 1639756.07468763 0 0 0 0 0 68938940.53067033 -18003074.34081123 -18003074.34081123 -1515914.905497177 0 0 0 0 0 58325752.98352974 -20990722.93674329 -20990722.93674329 -3362062.054745344 0 0 0 0 0 67967308.08560568 -17055150.91661664 -17055150.91661664 -1637335.855698368 0 0 0 0 0 70992108.35000703 -12072879.24129943 -12072879.24129943 980597.0922842436 0 0 0 0 0 77394211.06668323 -15811177.26698137 -15811177.26698137 -2324484.357141905 0 0 0 0 0 89162968.40647776 -11438060.82431988 -11438060.82431988 -3143539.075668793 0 0 0 0 0 94471641.24570677 -10807648.61271437 -10807648.61271437 -4747412.614526375 0 0 0 0 0 92802161.99408779 -12612060.81426254 -12612060.81426254 -5298674.380918773 0 0 0 0 0 89479681.55051219 -11248419.68421209 -11248419.68421209 -2853544.927783009 0 0 0 0 0 92463132.74657746 -12813938.76468145 -12813938.76468145 -5586378.294230602 0 0 0 0 0 86991114.91371669 -13302154.2667681 -13302154.2667681 -3425607.238042978 0 0 0 0 0 83997741.78922075 -15555603.01259493 -15555603.01259493 -4005751.432419184 0 0 0 0 0 79066741.16930234 -12690378.89446815 -12690378.89446815 -956776.1280078174 0 0 0 0 0 86978167.62091503 -13367877.897728 -13367877.897728 -3364375.363526781 0 0 0 0 0 71265421.98192787 -12099774.33286452 -12099774.33286452 1010884.975918024 0 0 0 0 0 79466429.03746794 -12562886.83079638 -12562886.83079638 -851296.6570671021 0 0 0 0 0 77022917.00902525 -15727172.30341398 -15727172.30341398 -2323607.303895369 0 0 0 0 0 -6872394.554493859 956581.6694881371 956581.6694881371 -81903164.52532183 0 0 0 0 0 3014023.245347096 -126243.5031944034 -126243.5031944034 -23662341.07326826 0 0 0 0 0 1367702.853473293 -9557945.582276151 -9557945.582276151 -29142891.81363817 0 0 0 0 0 -574220.6749749017 456195.1471612448 456195.1471612448 -23684932.26244543 0 0 0 0 0 24322696.81865014 -18248730.89714754 -18248730.89714754 -6352558.844988777 0 0 0 0 0 7472770.417180481 -13888187.7176014 -13888187.7176014 -32462144.31907476 0 0 0 0 0 24147357.1001739 -17426739.07999809 -17426739.07999809 -8768463.607209664 0 0 0 0 0 39027177.67952761 -13512784.91386547 -13512784.91386547 -1078228.884915862 0 0 0 0 0 46277309.9598101 -25343558.64780637 -25343558.64780637 -8382635.297957164 0 0 0 0 0 39275608.44286973 -14292569.60189667 -14292569.60189667 -1076219.319626054 0 0 0 0 0 51645261.79231838 -10243006.32768485 -10243006.32768485 2636145.185160538 0 0 0 0 0 55881420.62676304 -21545966.71128476 -21545966.71128476 -4178862.600468176 0 0 0 0 0 66699268.68449998 -17837713.75120879 -17837713.75120879 -1931598.171270832 0 0 0 0 0 51965265.48858657 -11151196.08634521 -11151196.08634521 2208245.845852934 0 0 0 0 0 61982693.46023676 -9050521.785574354 -9050521.785574356 2960571.279822589 0 0 0 0 0 67842406.16219249 -17446035.46497846 -17446035.46497846 -1323819.621599816 0 0 0 0 0 61266744.4252779 -9278665.740909142 -9278665.740909142 2601718.904718849 0 0 0 0 0 70971990.84595762 -12089883.82866437 -12089883.82866437 938323.1594576503 0 0 0 0 0 83753933.44404235 -10720981.23729721 -10720981.23729721 -957716.9982322146 0 0 0 0 0 89652207.8048687 -11375744.51449312 -11375744.51449312 -2964500.019295328 0 0 0 0 0 86799616.32023169 -13157603.27190424 -13157603.27190424 -3220038.284729993 0 0 0 0 0 79856898.32040612 -12587206.17965977 -12587206.17965977 -786583.5452621983 0 0 0 0 0 84216007.64876096 -10460738.68270695 -10460738.68270695 -673325.6589348667 0 0 0 0 0 86331715.32544032 -13421775.19682239 -13421775.19682239 -3517202.393443781 0 0 0 0 0 79594852.22482355 -12672354.19894363 -12672354.19894363 -598660.3403950947 0 0 0 0 0 70951872.19052823 -11974403.33954412 -11974403.33954412 835177.6811583125 0 0 0 0 0 73675316.40936239 -8148489.042729166 -8148489.042729164 2310662.955806836 0 0 0 0 0 3315217.114570045 -1418496.700263184 -1418496.700263182 -20562098.29149781 0 0 0 0 0 24279351.86279142 596996.5971021929 596996.5971021935 -2717620.046392416 0 0 0 0 0 19775609.18964708 -16057124.76689534 -16057124.76689534 -10003274.54369143 0 0 0 0 0 23799090.25429052 -16010509.66644259 -16010509.66644259 -9780137.844412003 0 0 0 0 0 20563912.82031934 -130058.1391049496 -130058.1391049499 -3916987.503415271 0 0 0 0 0 39325213.49641062 -14533859.38691918 -14533859.38691918 -192286.9122790041 0 0 0 0 0 38385497.66284759 -108194.4033879999 -108194.4033879999 1944281.685070519 0 0 0 0 0 51637062.79787413 -10948858.87136725 -10948858.87136725 2466032.760127021 0 0 0 0 0 39292014.53605413 -13037058.8147228 -13037058.8147228 -767552.9977098766 0 0 0 0 0 51390932.34781891 -9985061.083244514 -9985061.083244514 2391727.814923787 0 0 0 0 0 51434810.3584955 -173746.2689743999 -173746.2689744 3683489.591802924 0 0 0 0 0 62435218.0761469 -9838093.747107362 -9838093.747107362 3083246.436733641 0 0 0 0 0 61844404.14691277 -9375850.13994013 -9375850.13994013 2562876.86873624 0 0 0 0 0 67898701.79279275 -5633131.566376628 -5633131.566376628 3683166.866448267 0 0 0 0 0 70776836.5026792 -12091823.98439644 -12091823.98439644 1049831.582173885 0 0 0 0 0 78856415.90308127 -8434709.634274051 -8434709.634274052 1305736.55713948 0 0 0 0 0 84462380.10398753 -10671334.0748837 -10671334.0748837 -694225.8087492358 0 0 0 0 0 79461398.44380097 -12237447.96156423 -12237447.96156423 -640062.5222514761 0 0 0 0 0 79197290.50931072 -8209792.426347381 -8209792.426347381 1475938.561523432 0 0 0 0 0 78929758.58771326 -12590984.58641794 -12590984.58641794 -727919.1606695522 0 0 0 0 0 74059635.87418945 -8208993.333351398 -8208993.333351398 2378029.782931819 0 0 0 0 0 71038178.38767096 -11968078.74404782 -11968078.74404782 1214754.395656246 0 0 0 0 0 67501438.18930514 -5850327.863710019 -5850327.863710018 3405050.593319877 0 0 0 0 0 73731330.65437308 -8055894.755637217 -8055894.755637217 2221349.269718099 0 0 0 0 0 24494248.2682384 -925403.9952926398 -925403.9952926411 -2839879.005458611 0 0 0 0 0 41279926.55557699 571900.9619499673 571900.9619499658 2985131.717961163 0 0 0 0 0 35999671.38516193 -13591356.82398516 -13591356.82398515 -1593746.820062953 0 0 0 0 0 41326028.90335941 -597060.3247571451 -597060.3247571451 2650752.971032176 0 0 0 0 0 53847996.92376517 328800.2049699153 328800.2049699152 4432309.966313965 0 0 0 0 0 49123380.8271654 -10441952.22836909 -10441952.22836909 1713662.108322851 0 0 0 0 0 53638452.82947363 -524063.9061708576 -524063.9061708576 4324158.813988463 0 0 0 0 0 62738300.9075346 389234.167945699 389234.1679456991 4677546.068886219 0 0 0 0 0 60196773.99442039 -9530582.91166012 -9530582.91166012 2496374.193302905 0 0 0 0 0 61298473.40614859 31717.0033592172 31717.0033592172 4085080.5286317 0 0 0 0 0 67716256.66729915 -5908808.668267421 -5908808.668267421 3556716.299167147 0 0 0 0 0 62132814.91463619 -9139916.690519683 -9139916.690519683 3177987.296116355 0 0 0 0 0 75547011.92704055 -4626528.22146112 -4626528.221461119 3087754.580545064 0 0 0 0 0 79548161.99166007 -8400915.938426243 -8400915.938426243 1568152.206615795 0 0 0 0 0 73713549.26619126 -8016497.31730831 -8016497.317308311 2226465.618943285 0 0 0 0 0 73745805.80425116 -8114799.704057884 -8114799.704057884 2409202.743945919 0 0 0 0 0 67698939.66361979 -5890351.931484191 -5890351.931484191 3377070.416446596 0 0 0 0 0 71857020.28315322 -3910160.909503313 -3910160.909503313 3584883.805216668 0 0 0 0 0 62913904.15687416 -173944.1891188567 -173944.1891188567 4368272.222952558 0 0 0 0 0 69561312.40158708 217911.5143350531 217911.514335053 4184847.505970742 0 0 0 0 0 66870334.04530852 -5822775.396078711 -5822775.396078711 3444551.805061155 0 0 0 0 0 75748174.1510223 -4506069.722637977 -4506069.722637977 3070802.360803289 0 0 0 0 0 73617868.26749767 -8070355.295205988 -8070355.295205988 2393747.714068215 0 0 0 0 0 71900738.68293849 -4020493.221947951 -4020493.221947951 3548197.737599783 0 0 0 0 0 67906393.48321228 -5632827.182726928 -5632827.182726928 3722994.00605274 0 0 0 0 0 68742071.67571673 27666.35506808028 27666.35506808025 3897879.705990752 0 0 0 0 0 71831239.10062946 -4003640.068329846 -4003640.068329846 3639707.639530633 0 0 0 0 0 74172094.55597188 35093.42010794015 35093.42010794054 3718010.637524446 0 0 0 0 0 75910773.94893932 -4627614.288137035 -4627614.288137035 3233068.342347096 0 0 0 0 0 71759855.37076829 -3896705.566553245 -3896705.566553246 3579458.285526726 0 0 0 0 0 69583464.88982868 -56392.47701660828 -56392.47701660828 4123561.332687398 0 0 0 0 0 74710056.28038256 180269.5870397836 180269.5870397835 3736099.319977413 0 0 0 0 0 71316947.34263283 -4015740.573027249 -4015740.573027249 3566326.875922924 0 0 0 0 0 </DataArray>
      </PointData>
    </Piece>
  </UnstructuredGrid>
</VTKFile>
