<?xml version="1.0"?>
<VTKFile type="UnstructuredGrid" version="2.2">
  <UnstructuredGrid>
    <Piece NumberOfPoints="1812" NumberOfCells="3467">
      <Points>
        <DataArray type="Float64" NumberOfComponents="3" format="ascii">0.3290772530756106 0.02466093080584207 0 0.33 0 0 0.3477603422905194 0.01839861105349879 0 0.3548148148147337 0 0 0.3507861334070558 0.04005222258421488 0 0.3672204995161572 0.02149324383402151 0 0.3263141726783756 0.04918394767835577 0 0.3796296296294943 0 0 0.3448127603620459 0.06610442189734428 0 0.3780611605622604 0.04252324555600066 0 0.3919769333081103 0.02151903925086009 0 0.404444444444236 0 0 0.3217262110731744 0.07343190797261936 0 0.3650109033901158 0.05964178392539154 0 0.4165442445776424 0.02058052294143028 0 0.429259259258989 0 0 0.339126112609807 0.09007757257058298 0 0.364905589860354 0.0836521673251901 0 0.386488872758863 0.06587686226420772 0 0.4058761818398673 0.04596939214959726 0 0.4405772947731607 0.02080084709476175 0 0.315339025999087 0.09726920726492613 0 0.4285630946400109 0.0382088771183812 0 0.4540740740737054 0 0 0.3313897820086208 0.1159582995718135 0 0.3533509462210948 0.1047617729843049 0 0.3914107554309301 0.09134599130030074 0 0.4098477245561723 0.07378689453493613 0 0.4284315989360415 0.05863137712820021 0 0.4668525492458321 0.02196851156018458 0 0.4480127478958283 0.04291429819759832 0 0.3071883371932287 0.1205625376825623 0 0.3729245579803991 0.1079930397771608 0 0.4788888888884407 0 0 0.3169894199757927 0.1387378323813034 0 0.3551548351541882 0.1251882976128027 0 0.4149291096157371 0.09936475713201554 0 0.3964254772675205 0.1158107080840949 0 0.4334400653549189 0.08289615662590546 0 0.4522340780470127 0.06660495339662326 0 0.4912962962958273 0.01450852354697549 0 0.470838576631939 0.0495600234638754 0 0.5037037037032137 0 0 0.2973197266164828 0.1431816334754564 0 0.3381281364569727 0.1417027333249429 0 0.3779400200447969 0.1323558881811412 0 0.4916193393621504 0.03491121914216735 0 0.5155147264517113 0.02209116480429343 0 0.3076477269658431 0.162424238625563 0 0.325614562521354 0.15813210934937 0 0.3593233659490317 0.1490653393731506 0 0.4384446285710152 0.1071604121996936 0 0.419936164299843 0.1236123261794661 0 0.401448867081298 0.140083934214497 0 0.4569596620927895 0.09069448158633676 0 0.4754804444118204 0.07422038361800519 0 0.493873019920651 0.05814285477711956 0 0.528518518517892 0 0 0.2857883835154311 0.1649999995382936 0 0.3427596712747102 0.1657913435132305 0 0.3829329790170022 0.1566038019327543 0 0.5105263283730229 0.04530514594093288 0 0.5409271608251429 0.02148954705000138 0 0.5533333333326754 0 0 0.2973950200901271 0.1848972762543642 0 0.3225478579334515 0.18200439890181 0 0.364219888346259 0.1736334141740358 0 0.4619603417111561 0.1149647770364784 0 0.4434483566358859 0.1314306902408089 0 0.4249419354653539 0.1478986675589968 0 0.4064339139824101 0.1643630990170198 0 0.4804826420693221 0.09849633848250447 0 0.4990134146930919 0.08202294352285519 0 0.5342389869581085 0.04587637115209072 0 0.5173855691724937 0.06550411982899333 0 0.5657407600236524 0.02032009434769682 0 0.2726587958544359 0.185895618676743 0 0.3457277195136924 0.1906971351782883 0 0.387872069398734 0.1810194000934934 0 0.5538405116663107 0.03741161606095697 0 0.5781481481473866 0 0 0.2855771411918563 0.2101435945491163 0 0.3090199521388682 0.201658293535773 0 0.3271293505180573 0.207113226631519 0 0.3691115430381949 0.1983427621556907 0 0.4669690804858371 0.139232281234126 0 0.4854920780065054 0.1227658861437222 0 0.4484510793107354 0.1557030612929239 0 0.4299341027182894 0.1721686521766443 0 0.4114213048134555 0.1886231928743197 0 0.5040115358761671 0.1062970267405536 0 0.5225520835450159 0.08981537573983467 0 0.5411581918347609 0.07315698995880539 0 0.5594640016573365 0.05772361829365055 0 0.590564703795089 0.02124064458178284 0 0.5760353844374944 0.04099873563023593 0 0.6029629629621371 0 0 0.2580043896252853 0.2057516340982108 0 0.3505024454638854 0.2147945079922051 0 0.3928197340028445 0.2054138279401191 0 0.6147850966860462 0.0207394917468406 0 0.6277777777768812 0 0 0.2660354752220878 0.2294035904747645 0 0.309510584703436 0.2225772540747418 0 0.331547040173616 0.2306871043655891 0 0.3741128864327291 0.2225193637330685 0 0.4719761752655433 0.1635070506519012 0 0.4905031301503381 0.1470339804933232 0 0.5090257377462122 0.1305709128753475 0 0.4534471287096929 0.1799734770797853 0 0.4349250295056258 0.1964304023287197 0 0.4164118842430234 0.2128829309295759 0 0.5275762672831623 0.1140632178947543 0 0.5461520791072918 0.097485386611196 0 0.5647167515723286 0.08095681938990498 0 0.5835061994006557 0.06435055756142606 0 0.6036031497588777 0.04490015420341999 0 0.6389935515769317 0.01969725785334627 0 0.2419071182136165 0.2244570029149979 0 0.2895171280631488 0.2377762730651491 0 0.3555897160973436 0.2391239874163996 0 0.3977805282137661 0.2297465080949013 0 0.625413730784027 0.03715880519216439 0 0.6525925925915987 0 0 0.2477497814183456 0.2484777948188574 0 0.2714181047400089 0.255929673150273 0 0.3135612023490114 0.2471120632532999 0 0.3371029201114297 0.2555550240893838 0 0.3791268859206863 0.246727079623225 0 0.4769763191665882 0.1877941185930548 0 0.4955154421473968 0.1713139111282749 0 0.5140502559861541 0.1548365952268373 0 0.5325803252512568 0.1383587982757901 0 0.4584475874849424 0.2042510512254445 0 0.4399137625713176 0.2206934586952445 0 0.4213175571220695 0.2373924274162315 0 0.5511358421730307 0.1218518071258043 0 0.5697111576708722 0.1052963080931381 0 0.5882762940925739 0.08876926692974513 0 0.6068288941303834 0.07226935935909608 0 0.6262219233758328 0.05670904072215981 0 0.6649854432403818 0.02343654993820941 0 0.6455467477251142 0.0413195765124368 0 0.2244570040178031 0.2419071171903628 0 0.2950911061350528 0.2641090809407269 0 0.3605777547522244 0.2633520910564466 0 0.4026083956428395 0.254369537320313 0 0.6774074074063781 0 0 0.2286900013547602 0.2656901974990419 0 0.2525403453587286 0.2732222059085284 0 0.2764973199869606 0.2805542187522665 0 0.318598434907385 0.2719676429842086 0 0.3420631827475578 0.2797835470293084 0 0.3840658431200895 0.2711555390357422 0 0.5005211121119826 0.1956065047093845 0 0.4819830695447134 0.2120751411561455 0 0.5190604087820875 0.1791261434403908 0 0.5375999295440311 0.1626421992121118 0 0.5561391558607411 0.1461554053014023 0 0.4634382223695306 0.2285453859800602 0 0.4448804874195158 0.2450512934139544 0 0.4262158747457022 0.2617756205943106 0 0.5747044892784443 0.1296314418716619 0 0.5932772187677232 0.1131002279354966 0 0.6118395046832894 0.09658709891291951 0 0.6303914673798965 0.08008502028840747 0 0.6490641337108883 0.06403846602657483 0 0.6911864113330559 0.01996498723740298 0 0.6674100700553153 0.04874020445448846 0 0.2057516351387071 0.2580043887955171 0 0.3000337549027281 0.2883830107548556 0 0.3655091041756725 0.2875162155959823 0 0.4075142723659204 0.2785055672277439 0 0.7022222222212797 0 0 0.6835601627207462 0.03819146929780848 0 0.2088575852978029 0.2817950579264201 0 0.2336318670756505 0.2897585344036819 0 0.2577718962939641 0.2974210870525208 0 0.2814416487672567 0.3044737257581406 0 0.3234471019183635 0.29623101049694 0 0.3470489792585763 0.3040158051244973 0 0.3889369708434645 0.295102155409656 0 0.5240670025926787 0.2034284759844315 0 0.5055237693818104 0.2199092667610192 0 0.4869799268304337 0.2363772161946866 0 0.5426060692438802 0.1869397419931046 0 0.561155376975919 0.1704500373138342 0 0.5797070956322162 0.1539476626306602 0 0.4684397526492287 0.2528396654355129 0 0.4499087636430573 0.2693251419520415 0 0.4312779871227238 0.2859127139411712 0 0.5982797687124773 0.1374259440554362 0 0.6168531621778067 0.1209017554518679 0 0.6354105645509063 0.1044028452932492 0 0.6539799724490787 0.08800438320477268 0 0.6724694723821518 0.07158917040740292 0 0.714629629628724 0.01749517122348697 0 0.7044116995944939 0.04041201736878875 0 0.6906625935956622 0.05618246749194938 0 0.7270370370361676 0 0 0.7518518518510555 0 0 0.7394444444436117 0.02149026001989936 0 0.1858956196345984 0.2726587952013812 0 0.3048127041900643 0.3125861474750927 0 0.3705578259831029 0.3117405798655801 0 0.4126385078112256 0.3024926943355679 0 0.7642592592585037 0.02026348917675766 0 0.7766666666659507 0 0 0.1873547267945348 0.2997702288161244 0 0.2143655087186934 0.3063187913890434 0 0.2392090145579546 0.3140144268288957 0 0.2626455874531332 0.3214602668094815 0 0.2861547378101904 0.3289637576039727 0 0.3282831038036916 0.3205009346758002 0 0.3520102570293662 0.3282610642604954 0 0.3940806513548465 0.3192343443954179 0 0.5290733926251476 0.2277363574485657 0 0.5476239879330473 0.2112457213303058 0 0.5105240241147393 0.2442165355512518 0 0.4919788375093469 0.2606874597826749 0 0.5661743507298374 0.1947531631333362 0 0.5847289639912024 0.1782507555243562 0 0.6032907465258605 0.1617452811059893 0 0.4734411955397327 0.2771618106462988 0 0.4549050335675187 0.2936317920415843 0 0.4363756712334082 0.3100956176406653 0 0.6218646104445544 0.1452246915313926 0 0.6404252634903314 0.1287226466955969 0 0.6589894526236073 0.1122124483796636 0 0.6775417642730424 0.0957591377192758 0 0.696115398735639 0.07919135901828575 0 0.7323344480438467 0.04475924831370908 0 0.7146736259241269 0.062683482159857 0 0.7518518518510564 0.03574711575372718 0 0.7890740740734019 0.0214902600199008 0 0.8014814814808531 0 0 0.8511111111106724 0 0 0.875925925925582 0 0 0.8642349252682709 0.02239881073736975 0 0.8389068005470434 0.01668091820467709 0 0.826296296295737 0 0 0.8164218827729318 0.02530198896595518 0 0.1650000004322072 0.2857883829993298 0 0.3095158779381556 0.3369644455608476 0 0.3755935416684182 0.3359022887106755 0 0.4177896573303989 0.3266821528427619 0 0.7734607444055723 0.03995984147275857 0 0.8883333333330139 0.01608823996309144 0 0.8410148017712085 0.03957286494555063 0 0.9007407407404482 0 0 0.9255555555553578 0 0 0.9132565455101176 0.02213960461137708 0 0.1624140857038263 0.3096297665024592 0 0.1968718679788365 0.3222749351747802 0 0.2202679906073817 0.3302995651843582 0 0.2438297294523106 0.3382409307902071 0 0.2674664978371225 0.3456476728231526 0 0.2908134622802496 0.3534667924400561 0 0.3333240663342419 0.344724242075952 0 0.3570454161996557 0.3524713821964185 0 0.3991633361434501 0.3435386191536023 0 0.5526311324630875 0.2355617326456055 0 0.5340758390458162 0.252049776472328 0 0.5711905053858504 0.2190648905298015 0 0.5155222760017695 0.2685402160483484 0 0.4969744511393132 0.2849983315822697 0 0.5897503239337664 0.2025639228881654 0 0.6083121106033306 0.1860582823580539 0 0.6268752329177769 0.1695530544480033 0 0.4784002353898976 0.301567281559421 0 0.4598747471844001 0.3179686431304725 0 0.4413689760862404 0.3343696468245234 0 0.6454378078943205 0.1530495528545262 0 0.6640004471904778 0.1365447067710074 0 0.68256565368494 0.1200343787516331 0 0.7011306357628382 0.1035230865538969 0 0.7196929184533759 0.08701246760529247 0 0.7381502718867822 0.07051363683878985 0 0.7570779941741794 0.05547599944075574 0 0.7978753307502561 0.04457410091963708 0 0.8895138849891597 0.0358628576050162 0 0.8661342330500408 0.0465512781248293 0 0.9371185286787299 0.01643406614303421 0 0.950370370370224 0 0 0.9751851851851336 0 0 0.9604164173529302 0.02261974492386788 0 0.1431816342921367 0.2973197262231903 0 0.1784327829060834 0.3207063683611038 0 0.3145508253170056 0.3612203034609009 0 0.3805495922637888 0.3602796834388425 0 0.4227922471178942 0.351007541900283 0 0.7806259563260373 0.06220808352577295 0 0.8216000083408482 0.05276026235349711 0 0.8462536964173417 0.06201935729285549 0 0.9359937546050197 0.03741098117992609 0 0.9818661039166057 0.01818407024132333 0 1 0 0 0.1410187125854422 0.3219593476947541 0 0.1596306369067156 0.3330196511047262 0 0.1789599134588012 0.3393369983098246 0 0.2018359521472431 0.346525761451502 0 0.2252646310269177 0.3544542196334451 0 0.2487551675714283 0.3622349891937595 0 0.2722795886886512 0.369929030242186 0 0.2957816799977598 0.3777086475439514 0 0.3383752937780673 0.3689584762947614 0 0.3618192502191128 0.3767697661114645 0 0.4041162521092648 0.3679293325290303 0 0.5761995634370101 0.2433877884545206 0 0.5576370559265512 0.2598862606305017 0 0.5390737390156486 0.2763877423153328 0 0.5947611300008553 0.2268873939032576 0 0.5205067651857527 0.2929014505862336 0 0.5019280853244781 0.3094479827722231 0 0.6133212509768704 0.2103859093764363 0 0.6318847795486863 0.1938836883272512 0 0.6504500346516844 0.1773794880904405 0 0.4832614789984516 0.3262548349861297 0 0.4646571234164975 0.3429106457799923 0 0.4461248050835209 0.3593817130066286 0 0.6690153472891446 0.160874010421066 0 0.687578611805038 0.1443679846735744 0 0.7061454570631819 0.1278583620259954 0 0.7247112723865189 0.1113461173719108 0 0.7432774208385708 0.09483335650576957 0 0.7618452238865935 0.07831726700735528 0 0.8040671634690006 0.06960899399987458 0 0.8932358480532133 0.0625537408594698 0 0.9136335572280359 0.05004009695709014 0 0.8704897227637376 0.07136754622968201 0 0.979537742058721 0.03825381024085357 0 1 0.02499999999995287 0 0.1205625383738343 0.3071883369219244 0 0.3194844102624021 0.3854794295162788 0 0.3854426772454178 0.3845463616665703 0 0.4276267785880801 0.3757597408275526 0 0.785433732191796 0.08613779330297408 0 0.8277957825978113 0.07726048062473453 0 0.8514827428488154 0.08509226343028731 0 0.9352152905894797 0.06248766295430325 0 0.9575671315420836 0.04977783338059058 0 0.1153279426859208 0.3360124139883537 0 0.139193555447945 0.3467590619896337 0 0.1604506364208979 0.3557439817625753 0 0.1833470876665316 0.3629246772882617 0 0.2068093876288755 0.3707497792339337 0 0.230295194309617 0.3785361892383688 0 0.2537851983921705 0.3863481419885134 0 0.2772824733121277 0.394159541547237 0 0.3008079315403669 0.4019637278848653 0 0.3428812063112402 0.3932915994812895 0 0.3666213155165072 0.4010710935909044 0 0.4090402226808763 0.3923546989180686 0 0.5997742891099221 0.2512140630078458 0 0.5812074644686153 0.2677190747320717 0 0.5626399474529595 0.2842284720698341 0 0.5440677087235299 0.300747662588881 0 0.6183333873086897 0.2347106243778039 0 0.5254613584055909 0.3173395721498182 0 0.5068553731989377 0.3339334709099166 0 0.6368959139099101 0.2182115885096317 0 0.6554636701494556 0.2017129918641883 0 0.6740317110482386 0.1852061091944608 0 0.4882093364701993 0.3506780717358902 0 0.4696098258599714 0.3672229639726233 0 0.4510822947490432 0.383682381276693 0 0.692589070467448 0.1686884078375981 0 0.711156735432722 0.152190536801672 0 0.7297199312527162 0.1356678617294189 0 0.748297039981333 0.1191718262234448 0 0.7668658715674994 0.1026549752760922 0 0.8090892639026803 0.09388108381678759 0 0.9131448032637169 0.07932733073004578 0 0.8917698944235485 0.08219160457299188 0 0.8748190929567642 0.0937506726162033 0 0.9784800336079593 0.06272122387550871 0 1 0.04999999999989965 0 0.0972692078232136 0.3153390258268781 0 0.3243459006904633 0.4097649764254162 0 0.3902779270209418 0.4088644186229112 0 0.4325735458547566 0.4001780082590383 0 0.7904610277830391 0.1104393684983687 0 0.8328141761434484 0.1015850697724575 0 0.856548207402176 0.1092957859032673 0 0.9383777816480806 0.08867376417003904 0 0.9571684556350957 0.07439423330936436 0 0.09088202270828556 0.339176325258719 0 0.1192670609574741 0.362981011678466 0 0.1414841651702391 0.3716276840364489 0 0.1648510897206956 0.3793361378356489 0 0.188318580022031 0.3871526458110206 0 0.2117905148817825 0.39496615250905 0 0.235268871292608 0.4027926232074593 0 0.2587777669408387 0.4106073483617543 0 0.2822935347129659 0.418419363510851 0 0.3058225001001575 0.426226457443925 0 0.3478770096322309 0.4175707853336753 0 0.3715046898773021 0.4253680047891715 0 0.4139424362202254 0.4166701156172644 0 0.6047859649829492 0.2755467427572381 0 0.6233507880144709 0.2590395124280973 0 0.5862139186147278 0.292054324770684 0 0.5676432687094048 0.3085572488211359 0 0.5490374285941687 0.3251508317062007 0 0.6419109692758453 0.2425358610776674 0 0.5303493506130686 0.3419302267536818 0 0.5117620136958713 0.3584792365025036 0 0.6604731690812278 0.2260511388452288 0 0.6790428907420966 0.2095389724411982 0 0.6976183742088591 0.1929953452882884 0 0.4931648628755133 0.3749983121588805 0 0.4745994342157937 0.3914140839034935 0 0.4560848446754771 0.4079188649679834 0 0.7161489248914059 0.1764744061525486 0 0.7347385472849935 0.1599630372836153 0 0.7533154525194214 0.1434816431222181 0 0.7718882531676312 0.1269980627940253 0 0.8141139211531989 0.1181781283120806 0 0.8987758629840622 0.1005957105225958 0 0.880155308884032 0.1170979543368828 0 0.9209945908265178 0.1066346801085778 0 0.9789285260376674 0.08687397750218474 0 1 0.07499999999985282 0 0.07343190839887077 0.3217262109758853 0 0.09856833527364794 0.3581691150673835 0 0.3293489294970102 0.4340366488291113 0 0.3951162205853222 0.4331762371554884 0 0.4375585056969254 0.4244992664734653 0 0.7955185747124884 0.1347458817241179 0 0.837851974357338 0.125902209464638 0 0.8615497790924864 0.1336715981459533 0 0.959846539917433 0.09913205663884508 0 0.9446335831908632 0.1147517096420206 0 0.06406863068987256 0.345673196676714 0 0.07907269335889348 0.3639882737080145 0 0.1240002052538145 0.3876435943754505 0 0.09827580921140695 0.3817528354035314 0 0.1465076454825822 0.395746892431357 0 0.1698196160554624 0.4035689498035193 0 0.1932908737636773 0.4113975068153113 0 0.2167699420301746 0.4192362505221134 0 0.240261423321482 0.4270593853132658 0 0.2637713864907418 0.4348761563986571 0 0.2872935207610262 0.44269010589512 0 0.3108188327884669 0.4505049042718739 0 0.3528767787578171 0.4418491570648692 0 0.3764638734515497 0.4496651579450556 0 0.4189120243643329 0.4409778255409179 0 0.6097944638789868 0.2998879753241435 0 0.6283708210377523 0.2833749232855468 0 0.6469410392529802 0.2668655428732677 0 0.5912193131197132 0.316390792861281 0 0.5726470790951519 0.3328872786332817 0 0.5540566647501738 0.349436795853 0 0.6655052316393886 0.250366567534405 0 0.53529489543636 0.3663533258630232 0 0.5167376803403864 0.3827687495549414 0 0.6840689761424257 0.233867206932956 0 0.7026670242078776 0.2173179655050875 0 0.7212838763908258 0.200737445174514 0 0.4982327290597822 0.3991602769248748 0 0.4797062171539377 0.4155664865109435 0 0.4611160500490512 0.4321986010991125 0 0.7398222890691756 0.1842414539453796 0 0.7583865403111001 0.1677446125771645 0 0.7769498696159439 0.1512840583896441 0 0.819292790013145 0.1424184707621912 0 0.9036060133585867 0.1245981075835125 0 0.8851075257282095 0.141119783710296 0 0.9274295005137969 0.1318614580032529 0 1 0.09999999999981467 0 0.979751135630778 0.1118027676920138 0 0.04918394795091135 0.3263141726372945 0 0.334356005406747 0.4583184011515827 0 0.400353805064937 0.4574620361142469 0 0.4425182873301668 0.4487745096025855 0 0.8006422164916589 0.1590173929487305 0 0.8429364223366336 0.150223918127744 0 0.8665008823335887 0.1579834554099102 0 0.9629779202915016 0.1232702243711512 0 0.9515738227743069 0.1392571593310525 0 0.03839907693663803 0.3519361876324672 0 0.05469448199804167 0.3699390237978379 0 0.0707310272510772 0.3883578467513205 0 0.127669954304209 0.412257301272835 0 0.1097924908875145 0.4031345907432592 0 0.1512208423910728 0.4200476872642394 0 0.174743511592209 0.4278555505356061 0 0.1982393390991885 0.4356854404458504 0 0.2217391479837957 0.4435104480777428 0 0.2452442282381646 0.4513348375168691 0 0.2687607907106716 0.4591544994913713 0 0.2922847931893215 0.4669750747648991 0 0.3158169243378649 0.4747928331005558 0 0.3579873038575623 0.4661206811862292 0 0.3816433454550792 0.4739326556318267 0 0.4239774044419503 0.4652758899546061 0 0.6333814949167187 0.307726350247897 0 0.6148020521278875 0.3242311698385941 0 0.6519660866237724 0.2912095448981827 0 0.6705426410947366 0.2746975446603027 0 0.5962217832368306 0.3407264756680042 0 0.57764754333188 0.357226217129972 0 0.5589750485842824 0.373875760605986 0 0.6891172266833341 0.2581917026569139 0 0.5403753418306971 0.3904664586456961 0 0.5218346211905905 0.4069887956394954 0 0.7076958581590566 0.2416600576931908 0 0.7262921696040037 0.2251087655003776 0 0.7449173307163629 0.2085503048197396 0 0.5033535585824714 0.4232252337814945 0 0.4847443318990615 0.439799534577782 0 0.4661319647574131 0.4564509159974351 0 0.7635117250894057 0.1920179552744546 0 0.7820435006356564 0.1755477531563354 0 0.8243122323615311 0.1667927202724421 0 0.9090868195355111 0.1482234149846745 0 0.8903434502606214 0.1652217952878601 0 0.9327932446403095 0.1559121501551841 0 1 0.1249999999997738 0 0.9760818880219586 0.1395466186011858 0 0.02466093094001071 0.3290772530655561 0 0.08981445596199912 0.4050596014280541 0 0.3393996715894907 0.4825993537352394 0 0.4053241754217245 0.4817553073941294 0 0.4475437313518437 0.4730148873462 0 0.8057363316111896 0.1833154733876523 0 0.8479000305012608 0.1745446566822179 0 0.8716579911288331 0.1819588569539124 0 0.9579564497272033 0.1641613808172871 0 0.0184046735739704 0.3477661511691212 0 0.0368681824280504 0.376088920182139 0 0.04723601828187862 0.3933675051460651 0 0.06209613990136305 0.4130185081294612 0 0.1069688165434588 0.4257523976759495 0 0.1326480233194778 0.4365162404508103 0 0.1561753005939447 0.4443231987225436 0 0.1796955550325506 0.452139266212094 0 0.2031970041927239 0.4599736205122351 0 0.2267153892572634 0.4677998681025116 0 0.2502348127450159 0.4756195118640144 0 0.2737485883747923 0.4834419806363466 0 0.2972750455716378 0.4912678239496614 0 0.3208161075211634 0.4990900286537617 0 0.363059326197492 0.4903921711987387 0 0.3866957977266883 0.4982304333557345 0 0.4289836983359595 0.48957780937596 0 0.6569786557467329 0.3155651813572882 0 0.6383934661679039 0.3320771095524874 0 0.6198079475618339 0.3485814292952948 0 0.6755659962466058 0.2990428360033396 0 0.6941509010732367 0.2825255394858429 0 0.6012184369916012 0.3650753336159248 0 0.5826322925941145 0.3815804581574789 0 0.563997272348126 0.3981409760517693 0 0.7127425477864633 0.265989767167485 0 0.5454125330844378 0.4146711441589613 0 0.5269096882930748 0.4310912219177901 0 0.7313275681100579 0.2494496660377494 0 0.7499215086971552 0.2329133610361203 0 0.7685248661908619 0.2163839893467826 0 0.5083523634720861 0.4475555895516517 0 0.4897465793139669 0.4641349946379847 0 0.4711228086003887 0.4807829687209467 0 0.7871315193241963 0.199855730852022 0 0.829327917622813 0.1911193659580426 0 0.9141003436469417 0.1726171638322653 0 0.8956071391906459 0.1894280968361023 0 0.9373017375553518 0.1804484831661777 0 1 0.1499999999997036 0 0 0.33 0 0.01961697483099211 0.3676233253727331 0 0.08324458501475546 0.4253954162406472 0 0.3444411952297685 0.5068898863060832 0 0.4104188364188689 0.5060849854027917 0 0.4525718370833476 0.4973376279619022 0 0.8106852661868988 0.2076180154852393 0 0.8531448667566003 0.1985881930369579 0 0.8769720503827381 0.2060642525365315 0 0.9816340229594344 0.1630391404119292 0 0.9551537078717955 0.1895113718087187 0 0 0.3548148148148881 0 0.02366547200188613 0.3934299386543805 0 0.03946641554680291 0.4109628226697091 0 0.06675850707164541 0.4380193197472296 0 0.1141103619957533 0.4529622438097788 0 0.1376267912305044 0.4607838857808054 0 0.09058500559531084 0.4451272542225414 0 0.1611370083491448 0.4686082794290023 0 0.1846466193238102 0.4764411947822674 0 0.2081773995311652 0.484269437358103 0 0.2317070107925374 0.4920885720127919 0 0.2552289802408488 0.4999054358128319 0 0.278722565236832 0.5077390864978916 0 0.3022669212466781 0.5155702459508122 0 0.3258172564746353 0.5233957055135057 0 0.3680169047502226 0.5146907255115567 0 0.3917121981167429 0.5225267549953637 0 0.433989743214147 0.5138902528065953 0 0.6805811232241697 0.3234016658516262 0 0.6619913436994445 0.3399256815192169 0 0.6434016558409114 0.3564408489321442 0 0.6248102910058696 0.3729376381646144 0 0.6991700226242569 0.3068785490600858 0 0.7177123315071096 0.2903018714348238 0 0.6062216744373741 0.3894094465612799 0 0.587638571140404 0.4059107198361454 0 0.5690824653856472 0.4223944508369659 0 0.7362982464091914 0.2737655536389136 0 0.5504887006266415 0.4389135520092989 0 0.5319267153229544 0.4553926915019341 0 0.754887305039315 0.257228118295202 0 0.7735171981624828 0.2407324007581086 0 0.7920911522445732 0.2241662234947986 0 0.5133631185641501 0.4719266182473145 0 0.4947531339683396 0.4885624100230143 0 0.4761447618039049 0.505165109777803 0 0.8342860278375602 0.2151238423331151 0 0.9196171271078757 0.1968635406098752 0 0.9010085212332666 0.2135372750039299 0 0.9771947152888731 0.1875659834663629 0 0.9430558037238792 0.2047400566929839 0 1 0.1749999999996307 0 0 0.3796296296297976 0 0.04348039373643296 0.4299211580963785 0 0.3494130825584083 0.5312041428336345 0 0.4153873491488554 0.5303538448415432 0 0.4575577332308785 0.5217185536719323 0 0.8158282555601071 0.2316416965154147 0 0.8582276805109862 0.222630914890825 0 0.8821861034760966 0.2302421784974618 0 0.9616395598859816 0.2045562194459886 0 0 0.4044444444446639 0 0.02148279520966402 0.4191625659728141 0 0.04809908012615683 0.45371667346757 0 0.07205009080675122 0.4615795452369424 0 0.1190910212986484 0.4772386238566813 0 0.09557109106143387 0.469411633012797 0 0.1425897024629778 0.4850516273711941 0 0.1661071006746537 0.4928923086916492 0 0.1896127201743774 0.5007376404988023 0 0.2131762606726681 0.5085653678695643 0 0.2367098917611313 0.5163902917687526 0 0.2602209173265724 0.524217046338995 0 0.2837238914664837 0.5320481884814794 0 0.3072612340393963 0.5398819798787857 0 0.3308254909198856 0.5476932662075417 0 0.3730763179270225 0.538996721952373 0 0.3968058176419359 0.5468357843785725 0 0.4389884446226274 0.5382210930915733 0 0.6855989708292164 0.3477642031301976 0 0.7041376353536047 0.3311200306868124 0 0.6670053716650318 0.3642913701844351 0 0.6484130946969421 0.3808048244359288 0 0.6298304974758826 0.3972719722305493 0 0.7227331355671165 0.3144652778131075 0 0.7412026680015963 0.2978760863852228 0 0.6112513722093257 0.4137237458102415 0 0.5926677726982328 0.4302332367855013 0 0.5740812582884627 0.4467332424704584 0 0.7599420644380239 0.2813080440328979 0 0.5555039813228986 0.4632332269919225 0 0.5369286078712181 0.4797788314258646 0 0.7785534860037957 0.2647888799142266 0 0.7973224965878769 0.2482483867888298 0 0.5183972703052921 0.4963254544725764 0 0.499728114538258 0.5130061449172081 0 0.4811285207238694 0.5295526495850662 0 0.839699139072813 0.2391541296515791 0 0.9256495817795037 0.2210819367214129 0 0.9057840375421806 0.2379309600498568 0 1 0.1999999999995579 0 0.9544360274045181 0.2278712338546352 0 0.9783575451408425 0.2130924514072426 0 0.02241547776394759 0.4457255982643779 0 0.3544929234486202 0.5555076971402868 0 0.4204014056874151 0.5547012991984063 0 0.4625401922438488 0.5460452665778495 0 0.8210769406595686 0.2557705046272412 0 0.863475915073726 0.2466816629760409 0 0.8871509135582709 0.2545207366604837 0 0 0.4292592592595735 0 0.05350969881244695 0.4780341553099566 0 0.0311783742616128 0.4716251531567359 0 0.0770297417642601 0.4858647390399261 0 0.1240227372624072 0.5015112577254148 0 0.1005436546062946 0.493685216189266 0 0.1475181497063036 0.5093706765442431 0 0.1710529167876076 0.5171977391948147 0 0.1946011430973676 0.5250466389967436 0 0.2181720997968347 0.532877822538256 0 0.2417196192234773 0.5407058452247595 0 0.2652253062503022 0.5485386961134979 0 0.2887302582779369 0.5563581777238557 0 0.3122950085163612 0.564169375760071 0 0.3359367885324193 0.5720143961903517 0 0.3782091694462135 0.5633695962385488 0 0.4018429289271292 0.5712148344601078 0 0.443935784814721 0.5625426428766651 0 0.6906183858564441 0.3721310410277274 0 0.7092175523033333 0.355425380599187 0 0.7279031378152695 0.3386443704301935 0 0.6720173024596652 0.3886630024747897 0 0.6534254412133282 0.4051717093417416 0 0.6348302935332715 0.4216857305119728 0 0.746613319018536 0.321856449509398 0 0.7651453821586635 0.3054926412344905 0 0.6162311162351926 0.4382258584799761 0 0.5976325096922482 0.4547706042009618 0 0.5790482843688562 0.4712754639548707 0 0.7837244533761394 0.2889181845040785 0 0.5604622938504276 0.4878018264717593 0 0.5419077943172577 0.5043189599320345 0 0.8024101399718671 0.2723043579396277 0 0.5233209919388986 0.5208363392464337 0 0.5047068872559052 0.5373916561667662 0 0.4861079137675831 0.5538983096915648 0 0.8449183787288939 0.2633511564011371 0 0.9305265643259319 0.2455559707327015 0 0.9108327183696114 0.2623644191728991 0 1 0.224999999999485 0 0.9783493649054522 0.2374999999994485 0 0 0.454074074074455 0 0.01265633470770033 0.4664814814819018 0 0.3595795822031226 0.5798548466884264 0 0.4253508507254936 0.5789975465881957 0 0.4674844072124758 0.5704109193537977 0 0.8262832340358535 0.279923300466859 0 0.8685200952960247 0.2711060889292314 0 0.9548789044832446 0.2534816534784473 0 0.892196858950178 0.2789495630162996 0 0.05940656137948076 0.5023671740401603 0 0.03681559110272199 0.4956722502860266 0 0.01627669665287338 0.4890828888975736 0 0.08194846437481346 0.5101678537646338 0 0.1054241643891802 0.5180187449197012 0 0.1288898268385929 0.5258796468503263 0 0.1524466142115825 0.5336914794320601 0 0.1759963666051561 0.541542958806021 0 0.1996074171971913 0.5493610244330048 0 0.2231688021421831 0.5571983709623123 0 0.2467236727452798 0.5650313624310919 0 0.2702334784620631 0.5728715564808067 0 0.2938006997638472 0.5806870290713528 0 0.3173889940280058 0.5885064514618366 0 0.3410387320785203 0.5963547398839483 0 0.3832441341262139 0.5877013273423259 0 0.4067757641972879 0.5955180652447774 0 0.4488272798175423 0.5869353325314486 0 0.6956300929966993 0.3964988570364705 0 0.7142761199043478 0.3798430592443154 0 0.7330662410180412 0.3627830839034657 0 0.7516509436309857 0.3462160000691901 0 0.6770307789007879 0.4130332375050491 0 0.6584306802134212 0.4295714888921605 0 0.6398281971719189 0.4460998817866069 0 0.7703381683066014 0.3296454947719966 0 0.7889589940921717 0.313070205317851 0 0.6212322891482436 0.4626312870847502 0 0.6026399434281795 0.4791617802656255 0 0.5840459107027736 0.4956840124793952 0 0.8076018241768328 0.2964304573135005 0 0.5654621350122899 0.5122088740676579 0 0.5468868887572966 0.5287164339852884 0 0.5282937438579967 0.54523203606409 0 0.509686808813411 0.5617501686216537 0 0.4910714853561945 0.5782565423522648 0 0.849888645957101 0.2876983069329062 0 0.9345194777757543 0.2702151213114246 0 0.9158814001057729 0.2867976678978286 0 1 0.2499999999994121 0 0.9782803882586361 0.2631802189108203 0 0 0.4788888888893493 0 0.3646638306692006 0.6042123497456354 0 0.430277565944254 0.6034021462439869 0 0.4724237872749651 0.5947874220929934 0 0.8312622701027113 0.304273205465861 0 0.8735634203665756 0.2955345608414626 0 0.957446649036383 0.2775247331556301 0 0.8972434240845866 0.3033806937274387 0 0.06389556879218455 0.5265231357525915 0 0.04099107313300766 0.5200679840762945 0 0.0190502886376104 0.5128136781090631 0 0 0.5037037037042373 0 0.08679963484338271 0.5345199903938072 0 0.1103406684095903 0.54234850459476 0 0.1338657589246711 0.5502014820276068 0 0.1574265495580472 0.5580284091467951 0 0.1810083957788824 0.5658598353597075 0 0.2045895348584033 0.5736932442767009 0 0.2281698323326953 0.5815232064239757 0 0.2517259396693075 0.5893631815334934 0 0.2752900119347619 0.5971918917152819 0 0.2988664473639545 0.6050247212862657 0 0.3225153188966809 0.6128792472353928 0 0.3460874383777551 0.6207179956558375 0 0.3882365916642461 0.6120345960002235 0 0.4117502981844005 0.6198924221670545 0 0.45380125150597 0.6113214063466468 0 0.7006184103843258 0.4208433247180774 0 0.7192898294209995 0.4042101690146116 0 0.7380781092727896 0.3872693207647145 0 0.7567827255341458 0.3705049408900576 0 0.7753908214667125 0.3539800961519955 0 0.6820245809440826 0.4373891721463927 0 0.6634334018413504 0.4539337087298677 0 0.6448215061740845 0.4704483112655725 0 0.7940120218329727 0.3374112320987761 0 0.8126381387429459 0.3208394021371289 0 0.626230483281518 0.486982865008921 0 0.6076522707125165 0.5035278061130275 0 0.589043696320649 0.5200305511401022 0 0.5704677989886343 0.5365706217045413 0 0.5518830807616008 0.5530827664247981 0 0.533290513012129 0.5695984544199454 0 0.5146503096306577 0.5861240130352915 0 0.4960211723444405 0.6026480998240265 0 0.8549311942779396 0.3121155450766265 0 0.9387444297355005 0.2939171881274487 0 0.9209315167238485 0.3112313990511543 0 1 0.2749999999993392 0 0.9790846051792635 0.2878207790658676 0 0.3696849539018439 0.6285601831658232 0 0.4352321322010209 0.6278117203866797 0 0.4774116479233309 0.6191701858442327 0 0.8363009966377306 0.3286893589623863 0 0.8786061208275898 0.3199621939686328 0 0.9603158273724692 0.3018016466732101 0 0.9022882485322687 0.3278131820775742 0 0.06822075958203602 0.5510095643494707 0 0.0451119687005224 0.5448387735938709 0 0.02166646018552588 0.5381928926760549 0 0 0.5285185185191252 0 0.09175879251136254 0.5588491222954601 0 0.1153057155975396 0.566684204475846 0 0.1388603362533999 0.57451638822494 0 0.1624346389923621 0.5823511690593317 0 0.1860165166683806 0.590189066555679 0 0.2095923717940554 0.5980173841814272 0 0.2331702494708242 0.6058589522923162 0 0.2567503707418713 0.6136999351851019 0 0.2803348035577348 0.621543443581033 0 0.3039252897032281 0.6293865285149818 0 0.3275156694977805 0.6372292771335485 0 0.3511056181570162 0.645072387616436 0 0.3933174990140738 0.6363930910090397 0 0.4167657283053408 0.6442708012145372 0 0.4588056491382691 0.635693364822173 0 0.7056733573967101 0.4450558298091197 0 0.724364577276032 0.4284263092836068 0 0.7430783299080966 0.4116663470500487 0 0.7617903952715485 0.3949986600483711 0 0.7804169157143214 0.3784078273591341 0 0.7990430589374884 0.3618273053379641 0 0.6870513016514478 0.4616359429131996 0 0.6684696306399981 0.4781649983781417 0 0.649865937305717 0.4946973936731823 0 0.8176721370606934 0.3452562734195729 0 0.6312426368278249 0.5112531780660146 0 0.6126008153233446 0.5277728876492028 0 0.5940610822305263 0.5443210060460738 0 0.5754645161189604 0.5608894347637412 0 0.5568874390684198 0.5774474966554852 0 0.5382789556401019 0.5939695578280895 0 0.5196513875789284 0.6104954460738263 0 0.5010273338737432 0.6270200749907852 0 0.8599718367982018 0.3365398539101743 0 0.9433299951150995 0.3183333261670508 0 0.9259045111786708 0.3355845685158865 0 1 0.2999999999992664 0 0.979305358508583 0.3125293719468861 0 0.3747346193705543 0.6529071752595837 0 0.4402085177953136 0.652206462777545 0 0.4824219055062554 0.6435476141199976 0 0.841337960731751 0.3531183416665101 0 0.8836498533292321 0.3443905236757461 0 0.9631816573277008 0.3244480856019261 0 0.9072424378009375 0.3521364418229735 0 0.07332786380320704 0.5752983796560381 0 0.04965995953872089 0.5674802428356077 0 0.02498344662395559 0.5651528626111484 0 0 0.5533333333340349 0 0.09674629115947321 0.5831635492503962 0 0.1202995322585304 0.5910010870886051 0 0.1438619260550685 0.5988369531347451 0 0.167434109640394 0.606676361934124 0 0.1910142718786762 0.6145146190006138 0 0.2145897867122931 0.6223551487142687 0 0.2381669067575835 0.6301995848378825 0 0.2617472225624525 0.6380451383829437 0 0.2853302738861428 0.6458941109685716 0 0.3089227236988549 0.6537427509521188 0 0.3325253065178996 0.6615852543067342 0 0.3561435025317129 0.6694202961813709 0 0.3983658381878072 0.6607359091903859 0 0.4217755322065199 0.6686470060453141 0 0.4638097302168512 0.660073569535347 0 0.7108010400395811 0.4693270578253451 0 0.7294117247569245 0.4527426002074199 0 0.7481158117891358 0.4360395849023637 0 0.7668165423843176 0.419414390253454 0 0.7854405115919888 0.4028493619084527 0 0.8040719569130396 0.3862715395448756 0 0.822704085703307 0.3696960597466975 0 0.6921935356497495 0.4858525896951693 0 0.6735805317536251 0.5024224975237228 0 0.6549639429176045 0.5189835335028034 0 0.6363420309741834 0.535514419986771 0 0.6177833072096253 0.5519918237299364 0 0.5991257405972436 0.5686369535982907 0 0.5804981325272505 0.5852355905753617 0 0.5618973408314814 0.6018174714043847 0 0.5432757029968467 0.6183425451771932 0 0.5246548509877803 0.6348683855875723 0 0.5060449438987318 0.6513999899877538 0 0.8650133327589615 0.3609698314961342 0 0.9531236649779926 0.3442266817732453 0 0.9305828502485098 0.3600532203327741 0 1 0.3249999999991935 0 0.9783493649054522 0.337499999999157 0 0.3797615314906226 0.6772665981412278 0 0.4452184102656507 0.6765827080230468 0 0.4874325970846668 0.6679314364642595 0 0.8463760247717015 0.3775511812021082 0 0.8886951415234459 0.3688217870664881 0 0.9118292370204355 0.3759890111096696 0 0.07818058969366874 0.5996435249183421 0 0.05540079033398092 0.5916442742869522 0 0.03838623720237222 0.5824496453125007 0 0 0.5781481481489228 0 0.1017345219363101 0.6074844702268859 0 0.1252947760257384 0.6153252171631493 0 0.1488627021720616 0.6231658900265079 0 0.1724352512820611 0.631007333947154 0 0.1960101373307905 0.6388506250075392 0 0.2195821934257557 0.6466922125708727 0 0.2431523941554038 0.6545439789109431 0 0.2667318254645604 0.6624017651367748 0 0.2903236403942442 0.6702533133009735 0 0.3139230764421379 0.678105302623464 0 0.3375365177540691 0.6859505507077662 0 0.3611532982273697 0.6937965450078256 0 0.403379358463573 0.6851146518338349 0 0.4267869831508935 0.6930374461099073 0 0.4688143396955933 0.6844621815032595 0 0.7345649576182973 0.4770313415666876 0 0.7159113631643576 0.4936440427604747 0 0.7532121197726622 0.46039501801338 0 0.7718438659993933 0.4438247237676586 0 0.79047236340405 0.4272681592415933 0 0.8091054078727462 0.4107042650424868 0 0.8277394582998032 0.3941301941229965 0 0.6973216158050232 0.5101406464899626 0 0.6786861028248772 0.5267336425334909 0 0.6600664178193998 0.543280069233639 0 0.6414579396636297 0.5598002138807122 0 0.6228064378840583 0.5763694828514955 0 0.6041409676130409 0.5930143836231357 0 0.5855204742501847 0.6096386095846746 0 0.5669079556954897 0.6261935447267862 0 0.5483026600396838 0.6427212711355328 0 0.529678094494008 0.6592536044912388 0 0.5110614216166366 0.6757887280968721 0 0.8700545744909214 0.3854010695818608 0 0.975912478169895 0.3608569076348973 0 0.9521705116113102 0.3714799610003908 0 0.9326759828093817 0.3807850394967313 0 1 0.3499999999991206 0 0.0207532266628156 0.5921571194557268 0 0.3847730366817772 0.7016477223950749 0 0.45020853001839 0.700983405714606 0 0.4924417506160758 0.6923227999441702 0 0.8514155483916577 0.4019802005756853 0 0.8937386312213285 0.3932537459362417 0 0.9205253414412237 0.4004712167907283 0 0.08316705357768407 0.6239649230426689 0 0.06038843476581399 0.6159643402722481 0 0.03988365791433614 0.6055145682382154 0 0 0.6029629629638107 0 0.1067245716982463 0.631811896927909 0 0.1302861626698192 0.6396565226938077 0 0.1538560799082589 0.6475000906549067 0 0.1774298033445551 0.6553446647659449 0 0.2010041757619189 0.6631885324831563 0 0.2245677744947462 0.6710469287776446 0 0.2481291041026534 0.6789077388374102 0 0.2717083176864658 0.6867663104198078 0 0.295316651357724 0.6946232392804955 0 0.3189273278663864 0.7024714852150546 0 0.3425418151527773 0.7103217571485834 0 0.3661632671059536 0.7181777851683637 0 0.4083741369870222 0.7095025923467683 0 0.4317928328849593 0.717431509176742 0 0.4738192410967836 0.7088551908629187 0 0.7582329149133497 0.4848457527696908 0 0.7395977487590599 0.5014290582494972 0 0.7209687844308552 0.5179901733645526 0 0.7768680722457363 0.4682572252634346 0 0.7955036770360007 0.4516974437532915 0 0.8141385725025759 0.4351276641439655 0 0.8327767604847429 0.4185595384854756 0 0.7023420749081952 0.5345451230715416 0 0.6837181060933275 0.551098016733264 0 0.6650954261220422 0.5676496129384747 0 0.6464756229201802 0.584189286002208 0 0.6278437905084591 0.6007553090302902 0 0.6091968819144433 0.6173828205900052 0 0.590536140289862 0.6340417618669703 0 0.5719244862929541 0.6505749868607668 0 0.5533107356835792 0.6671092012687176 0 0.5346929400802517 0.6836440951618366 0 0.5160726800592106 0.7001824456696432 0 0.8750980141011385 0.4098353719750643 0 1 0.3749999999990478 0 0.97532645269331 0.3858473132718643 0 0.9482719737254296 0.3959317882500935 0 0.02043278372079486 0.6169019114384884 0 0.3897881576909517 0.726033836676935 0 0.4552264081358256 0.7253703513534061 0 0.4974493922559446 0.7167186024381621 0 0.8564543811189806 0.4264138926531594 0 0.8985890911033572 0.41798911757161 0 0.9374829460330878 0.4154585787787171 0 0.0879869305569855 0.6482029125865802 0 0.06472843155263588 0.640417210033107 0 0.0419407119631958 0.629619835412315 0 0 0.6277777777786986 0 0.1117082054870657 0.6561448476351436 0 0.1352772696872631 0.6639911897015601 0 0.1588494412704852 0.6718370785013603 0 0.1824246206188084 0.6796871404428191 0 0.2059893220198847 0.6875358339615089 0 0.2295494575028608 0.6954132759019771 0 0.2531118814957625 0.7032837992087929 0 0.2767075885785432 0.711142494480523 0 0.300318490820531 0.7189921806549262 0 0.3239217094746785 0.7268428569810954 0 0.3475443955583877 0.7347018222516765 0 0.371172131184538 0.7425684700769914 0 0.4133750154260039 0.7338794850808861 0 0.4367859235916212 0.7418157744548785 0 0.4788276551307605 0.7332520901565126 0 0.7632519455272585 0.5092908977893991 0 0.7818916095821323 0.4927127362930834 0 0.7446199854398039 0.5258478994191089 0 0.7259893539123929 0.54240021284597 0 0.8005288092582279 0.4761416799342024 0 0.8191703788060207 0.4595652101688948 0 0.8378125251269166 0.4429933580947293 0 0.707363426704201 0.5589540464589504 0 0.6887315237270181 0.5755230955112036 0 0.6701082738977082 0.5920676642788405 0 0.6514871861970258 0.608597526255187 0 0.6328412579125545 0.6252085009618804 0 0.6141836362728109 0.6418551812241242 0 0.5955529027120111 0.658431060567028 0 0.576936897482799 0.6749619895449902 0 0.5583215901028831 0.6915002605991004 0 0.5397078453887817 0.7080421403621171 0 0.5210804196583336 0.7245844938515604 0 0.8801389300975632 0.4342712321935154 0 1 0.3999999999989749 0 0.9756037526532253 0.4118152227477818 0 0.9213103396951695 0.4273419196373914 0 0.954893215825775 0.4205568437945951 0 0.01992242293179295 0.6404324285076106 0 0.3947719414417693 0.7503947984531409 0 0.4602296618681622 0.7497682927731848 0 0.5024473739750946 0.741126353759452 0 0.861491453002873 0.4508500196699469 0 0.9038321410739458 0.442128379357508 0 0.944099459185308 0.4375111603566549 0 0.06845433955732599 0.6642452437186225 0 0.09291860414737053 0.6725280948787482 0 0.04453978180175028 0.6544745428892004 0 0 0.6525925925936003 0 0.1166986267651879 0.6804814578858385 0 0.1402684416660818 0.6883266958890248 0 0.1638159760878218 0.6961666426694768 0 0.1873699831320982 0.7040338177618661 0 0.2109353118699736 0.7119170212549324 0 0.2345043390261596 0.7197926524322799 0 0.2580966426425831 0.7276655325348809 0 0.2817107238198528 0.7355175210303871 0 0.3052826078803217 0.7433540757571901 0 0.3289156195696673 0.7512158208591418 0 0.3525284888538021 0.7591013441058904 0 0.376180819973471 0.7669671269889415 0 0.4182320585294196 0.7583209355040401 0 0.441606757239287 0.7662785430806898 0 0.4837938534527524 0.7576737497519525 0 0.7869161514994587 0.5171523207264128 0 0.7682792241124586 0.5337144185559159 0 0.8055599728934277 0.5005804605909058 0 0.7496433710414931 0.5502765145623234 0 0.7310104437079079 0.5668089733866573 0 0.8242034525648001 0.4840049923222758 0 0.8428475675447279 0.4674283565452695 0 0.7123736745962509 0.5834003810706497 0 0.6937218748715848 0.6000043330775011 0 0.6750900571165191 0.6165768555530667 0 0.6564536625667952 0.6331457146916296 0 0.637826725253989 0.6497001677957585 0 0.6191902190465857 0.6662819881775419 0 0.6005696847579037 0.6828148294140886 0 0.5819615507881932 0.6993513698194793 0 0.5633539621419374 0.7158977489651736 0 0.5447245278503997 0.7324470084656598 0 0.5260894349681721 0.7489948521045041 0 0.8851786504168292 0.4587131670414244 0 1 0.4249999999989021 0 0.9721633022312598 0.4381861633990853 0 0.9271590142568098 0.4511089855043813 0 0.02244024297541841 0.6654433106669332 0 0.3997265931003915 0.774802437490723 0 0.4651437450658903 0.7742284139993332 0 0.5074490618606399 0.7655436525242044 0 0.8665279864203848 0.4752870703892063 0 0.9088681797029518 0.4665741416133666 0 0.9524085324950305 0.457343038710266 0 0.04561500423203514 0.6805406386061202 0 0.07455133297017917 0.689122049990453 0 0.09811218954747893 0.6969720574558516 0 0 0.6774074074084013 0 0.1216762775226566 0.7048080632968691 0 0.1451988306237398 0.7126692141001609 0 0.1687467165596971 0.720556330706162 0 0.1923083255417651 0.7284210671337203 0 0.2158904439970731 0.7363054803382423 0 0.2394737539265025 0.7441820301922364 0 0.2630566931936396 0.7519940352089014 0 0.2865177321955522 0.7598723949524919 0 0.3101677547334344 0.7677594600094837 0 0.3338621832898216 0.7756089142762967 0 0.3574806569041374 0.7835754204122075 0 0.3811272793572201 0.7913948670463611 0 0.4231440460899289 0.7827702295511338 0 0.446496158298585 0.7907782837904356 0 0.488803082457408 0.7820951077102581 0 0.8105903098612665 0.5250136577475472 0 0.7919471164826494 0.5415861891476389 0 0.7733031098915536 0.5581532026021419 0 0.8292360251359028 0.5084394077173153 0 0.7546581091848424 0.5747343805641472 0 0.7360083295387583 0.5913167217112139 0 0.8478806698775847 0.4918638187461582 0 0.7173775267238472 0.607866558195997 0 0.6987358151163786 0.6244462520938459 0 0.6800972842677196 0.641020840732326 0 0.6614619653177412 0.6575891316867569 0 0.6428329522382431 0.6741390916814602 0 0.6242063079247772 0.6906767063117893 0 0.6056020971383475 0.7072031767035676 0 0.5869934171121712 0.7237479104277599 0 0.5683704554888648 0.7403067140248543 0 0.5497423326201095 0.7568597420194433 0 0.5311042163890261 0.7734121165699963 0 0.8902115685858232 0.4831489113624124 0 1 0.4499999999988292 0 0.9324695775011571 0.4742446666747282 0 0.9769746177693128 0.4644829462989998 0 0.01920752479417051 0.6870985649337773 0 0.4047482662464391 0.7992619088922692 0 0.470155676252775 0.7986491679186329 0 0.5124561953200759 0.7899581500420252 0 0.8715669057478205 0.4997267902294428 0 0.9132246291826989 0.4911070957795024 0 0.9575096759650641 0.479360736799831 0 0.0560043951297582 0.7054972211523106 0 0.07952918663254217 0.71346362423906 0 0.1030902758993143 0.7212975498573282 0 0.03424303741284597 0.700266998812485 0 0 0.7022222222231429 0 0.1266137128524203 0.7291784913563515 0 0.1501358401043873 0.7370644787623738 0 0.1736513438683709 0.7449827638093739 0 0.1972289208224938 0.7528590340320119 0 0.2208571900377289 0.7607099998734677 0 0.2444633977442268 0.7685412864797242 0 0.2678110478992749 0.7762711723723785 0 0.2909796951262075 0.7844945896164985 0 0.3146118715267375 0.792385052681517 0 0.3382973206133321 0.8002490927188076 0 0.3618507668950555 0.80815114554653 0 0.3855735787157556 0.815996761782525 0 0.4281576952293605 0.8072694418509804 0 0.4515566133652019 0.8151919123907081 0 0.4938112534552203 0.8065125246181337 0 0.8342685565148311 0.5328770022703406 0 0.8156205248315259 0.5494513648156563 0 0.7969737944879782 0.5660264612527263 0 0.778327846265596 0.582599978780415 0 0.8529169721850828 0.5163021415301481 0 0.7596814273406012 0.5991723224975141 0 0.7410359199186193 0.6157423145910956 0 0.7223957630724958 0.632304202894173 0 0.7037528084718319 0.648861982561649 0 0.6851141027347445 0.6654480257240076 0 0.6664774111579878 0.682007754787612 0 0.6478471062190357 0.6985494919820174 0 0.6292496820900264 0.7150654038802406 0 0.6106556356591861 0.7315964000477299 0 0.5920447109041108 0.748159521002798 0 0.5734027054843994 0.7647223725802377 0 0.5547619683896691 0.7812798746558537 0 0.536097664664359 0.7978257982503864 0 0.8951345925527248 0.5076178808056709 0 1 0.4749999999987564 0 0.9344644825328254 0.4994541645876123 0 0.9786587875259283 0.4880466552337779 0 0.01824729961814747 0.7130198012397942 0 0.4093588875337516 0.8238327497371732 0 0.4751498670348792 0.8230531698187513 0 0.5174246461818923 0.8143545225283267 0 0.8766092130184298 0.5241687347679722 0 0.9181993742207111 0.5156028096332241 0 0.9584941364832372 0.50346416994387 0 0.06120311471347666 0.7300545946570471 0 0.03875993630237977 0.7226541127331845 0 0.08451646274952331 0.7377999303353171 0 0.1080367636456444 0.7456703326895529 0 0 0.7270370370379062 0 0.1315442893187798 0.7535613094318241 0 0.155037228344599 0.7615347716805394 0 0.1786296656357226 0.7693882904383487 0 0.2022409764123169 0.7772325954163414 0 0.2258231276026104 0.7850408332948762 0 0.2491641231689085 0.7930524106188344 0 0.272496363989421 0.8009699366616154 0 0.2958799728109294 0.8089653281493856 0 0.3195319207260956 0.8168377857818012 0 0.3432162183672175 0.8247018948802411 0 0.3668636628428142 0.8325768786879981 0 0.3905374463274006 0.8404333611782935 0 0.4329186132312131 0.8317316340011425 0 0.4565070260543719 0.8396077996648958 0 0.4987181643451599 0.8309170916254109 0 0.8393002811484253 0.5573161561499428 0 0.8579525158727791 0.5407400881579341 0 0.8206499262716744 0.5738906153708209 0 0.8020018884890001 0.5904640482835788 0 0.7833527330034109 0.6070343279275487 0 0.76470562613238 0.6236062114106646 0 0.7460598568898589 0.6401738308055878 0 0.7274167070078938 0.6567387052256826 0 0.70877432676313 0.6733064841614906 0 0.6901301983251378 0.6898717543847304 0 0.671498377578869 0.706413164379766 0 0.6528842826407876 0.7229380124267593 0 0.6342996548526731 0.7394685092379863 0 0.6156867288231287 0.7560088965305002 0 0.597063289480451 0.7725776872251813 0 0.5784130569009274 0.7891345073264603 0 0.5597598116778546 0.8057104590720048 0 0.54106329954768 0.8222484638373373 0 0.9003357758593779 0.5320548118124253 0 1 0.4999999999986943 0 0.9414622937374929 0.525690772935795 0 0.9793957259734243 0.5125897029772474 0 0.02029393074179729 0.7378077053233995 0 0.414217725452341 0.8483033907178293 0 0.4800588806167177 0.8474528052846741 0 0.5223159902971344 0.838858104013089 0 0.8816431454799381 0.5486040543817037 0 0.9225799749301715 0.540224795227261 0 0.963399515994112 0.5250178219923967 0 0.06610757636210501 0.7544983380562378 0 0.04265447262438749 0.7463623280179165 0 0.08947675625579393 0.7621529960029236 0 0.1129826352289547 0.7700428983957295 0 0 0.7518518518526134 0 0.1364804826530622 0.777987288657307 0 0.1600215019159812 0.7859072220459495 0 0.1836247469347048 0.7937601549562939 0 0.2071979187151423 0.8015580913797087 0 0.2304967436593406 0.8095092405854826 0 0.2538762321814921 0.8175542563787357 0 0.2772804569612931 0.8255679894991799 0 0.3008858772367721 0.8333842211339771 0 0.3245440390403299 0.8412602420259851 0 0.3482096000856783 0.8491362245203243 0 0.3718768601292856 0.8570088430682103 0 0.395544122463785 0.8648892755698481 0 0.4378797835271047 0.856189270664626 0 0.4614529047242886 0.8640556176933099 0 0.5035167285887554 0.855502167274214 0 0.8443283558480826 0.5817492196580138 0 0.8629848927457069 0.5651851272608561 0 0.8256769760209904 0.5983244505994412 0 0.8070289631567459 0.6149013777825461 0 0.7883733270347736 0.6314647203724463 0 0.769729409616177 0.6480382672948997 0 0.7510827431369504 0.6646049036347494 0 0.7324391445694258 0.6811733832470923 0 0.7137921115032724 0.6977388356023784 0 0.6951424081811628 0.7143005552030097 0 0.6765058508437514 0.730851290922873 0 0.6578978048075261 0.7473759103858444 0 0.6392687951113151 0.7639215323688374 0 0.6206529963453193 0.7804240694357405 0 0.6020157041226066 0.7969951635556223 0 0.5834030811865708 0.8135701803336045 0 0.5646986481010636 0.8301761899607343 0 0.5459599123183737 0.8467606740005014 0 0.9055301699914652 0.5566836017411674 0 1 0.5249999999987492 0 0.9400572834987744 0.5496719522196234 0 0.9795180805437578 0.5375133733631878 0 0.9596026851516696 0.5458749112788488 0 0.02221978535166277 0.7623746137305273 0 0.4192221616445165 0.8727592505160062 0 0.4849723353862154 0.8720428715936878 0 0.5272131908009455 0.8633657048127434 0 0.8868388327287671 0.5732390060727679 0 0.9283628038074594 0.5655574414253958 0 0.07091407352867135 0.7786560941370184 0 0.04734249227490348 0.7707846036071033 0 0.09446689135667424 0.7865006414462656 0 0.1179496127396476 0.7944597721052102 0 0 0.7766666666673896 0 0.1414377216832481 0.8024059942471864 0 0.1650122762116262 0.8102963409401818 0 0.1886138733607201 0.8181237027463123 0 0.2119167330462243 0.8259054708723271 0 0.2351887975147407 0.8341006697809163 0 0.2586309077952492 0.8421252911263866 0 0.2822364376868832 0.8499256851797445 0 0.3058904460364114 0.8578139056214279 0 0.3295549586290292 0.865692086186504 0 0.3532214787574808 0.8735683324579627 0 0.3768932545614623 0.881439639867212 0 0.4005611535665711 0.8893313962064142 0 0.44281099499686 0.8806792491882121 0 0.4663518110898649 0.8886412674858473 0 0.5084868954603224 0.879997863105044 0 0.8493752657451178 0.6061599122303861 0 0.8680410149538313 0.5896389721926487 0 0.8307093562608239 0.622717274531145 0 0.8120528158532958 0.6392986499891086 0 0.7934018709564656 0.655875526872803 0 0.7747473201383935 0.6724617571716209 0 0.7561091838173526 0.6890342785652648 0 0.737464414151273 0.7056032872923197 0 0.7188106747023 0.7221718217193971 0 0.7001537422192166 0.7387367648201518 0 0.681520243872369 0.7552993372376001 0 0.6628776156842262 0.7718532384925771 0 0.6441793787924621 0.78844642347837 0 0.6255937518544659 0.8049318513625564 0 0.606974713706163 0.8214927375247165 0 0.5883914843814165 0.838054436311463 0 0.5695760711041975 0.8547059114160456 0 0.550836136673637 0.8713141493559005 0 0.9102562875050957 0.5814862555483349 0 1 0.5499999999988151 0 0.9537171211796475 0.5715497880056861 0 0.9783491899070615 0.5624967757087396 0 0.02223927512402496 0.7894683281093189 0 0.4242411473823571 0.897208379413259 0 0.4898457555776494 0.8965456696886968 0 0.5321515865497387 0.8878954370638176 0 0.8918635378642861 0.5977937202223197 0 0.9338331342763043 0.589657183153611 0 0.07571908385350629 0.8031484651213515 0 0.0512314615980345 0.7955465057895227 0 0.09943387232950139 0.8108903724224938 0 0.1228960731864451 0.8189314374622795 0 0 0.8014814814820662 0 0.1464012203385432 0.8268327195633068 0 0.1699668950653873 0.8346232232017843 0 0.1932724058745579 0.8426661455126438 0 0.2165955102092499 0.8505605624777646 0 0.2399059307779282 0.8586062571685478 0 0.2635674892502444 0.8664868653507958 0 0.2872336490329104 0.8743672071655986 0 0.3108995669642636 0.8822490424251748 0 0.3345708877377516 0.8901275427187061 0 0.3582368399174974 0.8979978433002973 0 0.3819212655113532 0.9058432698431871 0 0.4056828121919807 0.9134674252257163 0 0.4476774223693776 0.9054117583239948 0 0.4708996786698247 0.913633947143672 0 0.5134245705589467 0.9044137094147465 0 0.8544234128164481 0.6305252915608368 0 0.873101712448271 0.6140641449963573 0 0.8357569257695958 0.6471138808805638 0 0.8170911678329521 0.6637157556850348 0 0.7984405092487057 0.6803042672706388 0 0.7797862026956973 0.6968915777793727 0 0.7611429383309583 0.7134641039733972 0 0.7424893362535305 0.7300379596997184 0 0.7238335835213539 0.7466083791793581 0 0.7051770863909808 0.7631774450001865 0 0.6865181826802713 0.7797494137516268 0 0.6678589912547794 0.7963210383934876 0 0.6491967595627168 0.8128932509676103 0 0.6305355730680636 0.829461264764749 0 0.6119919165840637 0.8460152153685798 0 0.5932608390052647 0.8625928361744131 0 0.5745237613731126 0.8791956813831188 0 0.5558414498614074 0.8957762757379047 0 0.9149294035335191 0.6057434780341093 0 1 0.574999999998881 0 0.9567530219614166 0.5997636235265713 0 0.9779770871758517 0.5869246431307578 0 0.03453677873593997 0.8142782483861707 0 0.01444291403783705 0.8138888888894578 0 0.4292653241475131 0.9211623317842245 0 0.4947709213645929 0.9209622113264407 0 0.5368535930509326 0.9119985546856207 0 0.8966496858010352 0.6221692495401567 0 0.9379484251596391 0.6153801054156038 0 0.05781575898654446 0.8195138932614042 0 0.08072759985215563 0.827528200747123 0 0.1042281191000225 0.8354561758552652 0 0.1277931650240388 0.8433479157997521 0 0 0.8262962962968513 0 0.1513390790882494 0.8511441445928334 0 0.1745903302285364 0.8591074458510986 0 0.1979636625270045 0.8671892472402754 0 0.2213737965260951 0.8752077854291125 0 0.2449070073305828 0.8830388470995694 0 0.2685725614652835 0.8909232706921122 0 0.2922408057806695 0.8988073809818469 0 0.3159141023378613 0.9066908614255609 0 0.3396005727975766 0.9145682117593854 0 0.3621924985660486 0.9218671453624615 0 0.3857970190909464 0.9332910616487242 0 0.413165532233879 0.9371121600393091 0 0.4519250213931402 0.9319023912771639 0 0.4748271402243237 0.9383403847598887 0 0.518119203116395 0.9285094834403861 0 0.8594774966171587 0.6549552251135986 0 0.8781325451393449 0.6383939863460806 0 0.840812472597684 0.671543630759814 0 0.82213931393026 0.6881404403977575 0 0.8034771799384652 0.7047405457172441 0 0.7848247810546968 0.7213230051244595 0 0.7661694938104759 0.737904654565753 0 0.7475131055045866 0.7544782968170135 0 0.728857266449918 0.7710498634639174 0 0.7101995963395784 0.7876221136366512 0 0.69154073487845 0.8041954134874858 0 0.6728798765211068 0.820769666214477 0 0.6542123676697466 0.8373450127219 0 0.6355667210164716 0.8539185029356087 0 0.6169004978281958 0.8704969407239753 0 0.5982067713945226 0.8870809044497074 0 0.57953064540326 0.9036580357377688 0 0.5608631244099471 0.9202368199814355 0 0.9198497274508971 0.6305276821573385 0 1 0.5999999999989468 0 0.9784557823631685 0.6124992939670016 0 0.9594109584700307 0.6251240553194752 0 0.02181265510500267 0.8378756231713193 0 0.04384351285108134 0.8349390219755538 0 0.4345791820456505 0.9400937638581169 0 0.4997608834190947 0.9454096159710608 0 0.5424231033824537 0.9359521525811059 0 0.9018413455411203 0.6462493828440965 0 0.9425566432439851 0.6402696075180441 0 0.0624824620509345 0.8438214249673315 0 0.08563495426702097 0.851975425294601 0 0.1091548178085735 0.8598817827109447 0 0.1327208301057704 0.8676732528963988 0 0 0.8511111111115715 0 0.1560150998324563 0.8757968784060657 0 0.1793103561464381 0.8838205794370697 0 0.2026395761771499 0.8917729647339636 0 0.2262436613244304 0.8995916131682532 0 0.2499117805100057 0.9074790303243861 0 0.273580960410745 0.9153629157037387 0 0.2974706959017178 0.9225925868923048 0 0.3209676028773955 0.9310309865792379 0 0.3440905558895248 0.9379920904975784 0 0.363508738189393 0.9415103951255969 0 0.39947839748411 0.9568717541490975 0 0.4241904584430736 0.9577866235699766 0 0.4511897328231916 0.9559718867128966 0 0.4801575592943832 0.9619372430675446 0 0.5242545733695954 0.9562820574104217 0 0.864509711812433 0.6794144134521598 0 0.8831784135184899 0.6628252905974504 0 0.8458420761646341 0.6960064009085458 0 0.8271767170213448 0.712595667750621 0 0.8085137414706085 0.7291882129764368 0 0.7898520901557156 0.7457735000423362 0 0.77119430059017 0.7623504110118221 0 0.752536566181661 0.7789226132278473 0 0.7338780981415631 0.7954942957465607 0 0.7152208512468929 0.8120681241843084 0 0.6965665550098681 0.8286451546695028 0 0.6779022470008235 0.8452229797962034 0 0.65923505926287 0.8618007602780051 0 0.6405703391942119 0.8783805487105526 0 0.6219014715142934 0.8949619265352271 0 0.603227054120535 0.9115448113332413 0 0.5850837544365211 0.9278457600864441 0 0.5675850982979272 0.942971691326884 0 0.925334921062209 0.6547657541139006 0 1 0.6249999999990126 0 0.9791624950347799 0.6369927481957234 0 0.961254552127965 0.6458555409153441 0 0.04256990937698509 0.8592059200915432 0 0.01963700143056791 0.8646402808260137 0 0.3748873527843649 0.958203767376447 0 0.5027808158078839 0.9709878500244704 0 0.5507472810645831 0.9576505966007576 0 0.9068777488216413 0.6706923418096659 0 0.9492670038284078 0.6619779312999536 0 0.06692423264255798 0.8685844704727997 0 0.09054087702670045 0.8764288296193756 0 0.1141581956181583 0.8842755942035693 0 0.1374866424149427 0.8922163649444259 0 0 0.8759259259263067 0 0.1607478272674286 0.9002724519903251 0 0.1839848821459451 0.9083443650207406 0 0.2075761341866544 0.9161467584908281 0 0.2312467798443942 0.9240369818626739 0 0.2571609728158187 0.9352949370198201 0 0.2811050320991315 0.9349644365076393 0 0.2998803480695492 0.9445451268007643 0 0.3236114093795991 0.9568552917230968 0 0.3500032715461944 0.9603064656157591 0 0.387496423359403 0.9783511625950532 0 0.4124060183924215 0.9783774111509527 0 0.4373436754833699 0.9785340529908007 0 0.4625000000019244 0.9783493649053084 0 0.4840876750216453 0.9822548915994647 0 0.5191218073013026 0.9821724671323182 0 0.5382556730394353 0.9779206683461599 0 0.8882115913920219 0.6872887432689789 0 0.8695410507511017 0.7038771987024881 0 0.8508731908749817 0.7204670543884355 0 0.8322079224094654 0.7370553254396865 0 0.8135437582439629 0.7536412337842738 0 0.7948797379891946 0.7702241807135084 0 0.7762152082973186 0.7868036649031503 0 0.7575585731410007 0.8033765025300381 0 0.7388977635789535 0.8199492723699466 0 0.7202461892855307 0.8365202795431178 0 0.7015937985717031 0.853100231840578 0 0.6829172568852722 0.8696715821392436 0 0.6642578482225396 0.8862564922687696 0 0.6455962163597189 0.9027973878774939 0 0.6269254442745065 0.9194273030213032 0 0.6082488003646309 0.9360151305494228 0 0.5898183772612799 0.9515220972551015 0 0.5723240506519374 0.9618223826239243 0 0.934737104484154 0.6808016589801902 0 1 0.6499999999990784 0 0.9754473838228733 0.6627066425473708 0 0.03354440105454251 0.875441488112837 0 0.04924277196120344 0.8849435585446362 0 0.0198950430468772 0.8882816165425059 0 0.3625307347035507 0.9790578192483366 0 0.5000000000020587 1 0 0.5626423181488592 0.9791804535826764 0 0.9122714217069425 0.6955943195252896 0 0.9594290170779416 0.6797290205629724 0 0.07192628482908829 0.8929635237874354 0 0.09554863702873825 0.9008236890336034 0 0.1190274715255493 0.908711910362221 0 0.1423686510308691 0.9166998529474928 0 0 0.900740740741054 0 0.1655237438408531 0.9248133694185442 0 0.188921710857486 0.9327165290989021 0 0.2129816603145376 0.9397370674081862 0 0.2362495506313347 0.9484885495401605 0 0.2774321832978268 0.9570266161215677 0 0.3000872698039961 0.9648181346174545 0 0.3376847128895313 0.9789813219938274 0 0.3750000000015603 1 0 0.4000000000016644 1 0 0.4250000000017684 1 0 0.4500000000018723 1 0 0.4750000000019764 1 0 0.5250000000019071 1 0 0.5500000000017335 1 0 0.8932406709472689 0.7117279148403927 0 0.8745694406072639 0.7283380902324914 0 0.8559025396519229 0.7449269894472679 0 0.837235348314804 0.7615118766610842 0 0.8185714391990557 0.7780967280124951 0 0.7999049109771239 0.7946792791683643 0 0.7812345206137096 0.8112613823940366 0 0.7625707610710051 0.8278343259961393 0 0.7439137921363927 0.8444079944861416 0 0.7252655030627194 0.8609837249434402 0 0.706594488310059 0.8775549054037276 0 0.6879136268544929 0.8941394164262114 0 0.6692620620454082 0.9106863572398886 0 0.6506773244290273 0.9270817877030002 0 0.6323996959861182 0.9425581346183185 0 0.6154416680630288 0.9613802606283416 0 0.5882266297807763 0.9775910734962303 0 0.9323631008275636 0.7052440085287345 0 0.9556622308188826 0.7024818394621202 0 1 0.6749999999991443 0 0.9788044805711458 0.6882878970113018 0 0.03616082106312413 0.899160648506335 0 0.05535260426139955 0.9091817809746422 0 0.02048860481955851 0.9130243964976866 0 0.2542360000606489 0.9591454860375533 0 0.3126563798767479 0.9796327498855458 0 0.3500000000014564 1 0 0.5750000000015603 1 0 0.9168947122759913 0.7197372546779693 0 0.07693002842642384 0.9173595258439039 0 0.1005687386392858 0.9252283173153782 0 0.1242363762282345 0.9330843419612446 0 0.1469305956698835 0.9401602037103058 0 0 0.9255555555557314 0 0.1701760425627207 0.9473224902455526 0 0.1944669342036606 0.9575483269920861 0 0.2188233490931826 0.9597407040454564 0 0.236954073546028 0.9750043147723965 0 0.2632059999326513 0.9787595090613925 0 0.2876432289751554 0.9800998404127302 0 0.3250000000013522 1 0 0.8982868144832454 0.7362927081142046 0 0.8796045827087077 0.7527848205034331 0 0.860931228990733 0.7693769141696842 0 0.8422681643821882 0.7859645592246585 0 0.8236003284177702 0.8025543695908661 0 0.8049301797686055 0.8191381335784083 0 0.7862515569452764 0.835725350144819 0 0.7675738733119485 0.8523091266658938 0 0.7489383597485059 0.8688851538140726 0 0.7302624243045247 0.8854625528333694 0 0.7115802215234235 0.9020429637643509 0 0.6928870756619284 0.9186342859550658 0 0.6739181690774918 0.9343119035934653 0 0.6558464245866676 0.9496938747930053 0 0.6396385028359762 0.9606977949823823 0 0.6125011624164099 0.9837659019639612 0 0.6000000000013869 1 0 0.9422500348518479 0.7276049699981031 0 0.9792287127636821 0.7126313223765952 0 1 0.69999999999921 0 0.03844150123516354 0.9240910503657025 0 0.05904548223234629 0.9336156757830217 0 0.01980868686819173 0.9378827813639272 0 0.3000000000012483 1 0 0.6338375142356439 0.979858175695234 0 0.9220723260656662 0.7444493038458219 0 0.9637160826647106 0.7254588490098434 0 0.08231180193789436 0.940637042676179 0 0.1063478899524125 0.9490329276239677 0 0.1295789816352167 0.9572013610994904 0 0.1526392646682486 0.9617809366001006 0 0 0.9503703703705487 0 0.1751676162955255 0.9660941309669951 0 0.2105581120318895 0.9791514003032031 0 0.2500000000010403 1 0 0.2750000000011442 1 0 0.9033391542945752 0.7607188645851193 0 0.8846485810464095 0.7772462152011036 0 0.8659768496226472 0.7938192232982606 0 0.8473014206242375 0.8104276816442655 0 0.8286302923670088 0.8270156526983863 0 0.8099554019392905 0.8436033849322692 0 0.7912783901761429 0.8601912371355455 0 0.7726082678563736 0.8767781441390849 0 0.7539413172360896 0.8933585971369442 0 0.735254655946351 0.9099499719376816 0 0.7165598701263948 0.9265518468466898 0 0.6971582987290832 0.942014848942291 0 0.6780589084576136 0.9575839248166667 0 0.6604280840451401 0.9752242958410899 0 0.6250000000012135 1 0 0.9605575770858702 0.7414900853829955 0 0.9460736412686895 0.7543866079083467 0 1 0.724999999999276 0 0.9783493649053321 0.7374999999993094 0 0.03977368991005383 0.9501009268338904 0 0.06391854309478812 0.9590290071274832 0 0.01938134303210091 0.9621452986073813 0 0.1869379492751729 0.9802561058451071 0 0.2250000000009362 1 0 0.6500000000010401 1 0 0.9270939104672534 0.7685397490232783 0 0.08921000616851897 0.95937652304515 0 0.1101981146393351 0.9749888975668922 0 0.1378394971796619 0.9790826025454195 0 0.1625601080808684 0.9804655500166233 0 0 0.9751851851852422 0 0.2000000000008322 1 0 0.908367206300181 0.7850937273814451 0 0.8896724643616133 0.8016837412686796 0 0.8710095688206395 0.8182918049394904 0 0.8523346373190599 0.8348908428960005 0 0.833659474116653 0.8514815193596421 0 0.8149841850920198 0.8680699418025566 0 0.7963067584478539 0.8846602522761958 0 0.7776287284519191 0.9012506570356166 0 0.7589526775259645 0.9178416417639959 0 0.7402709404913043 0.934435650482048 0 0.7221320089777292 0.9545919696673466 0 0.6999998737602781 0.9629026132972568 0 0.6874998526486905 0.9783494499793081 0 0.6750000000008667 1 0 0.9723987617387713 0.7624999999993753 0 0.9511512253670986 0.7767767886168389 0 1 0.7499999999993417 0 0.03865046829144554 0.9773366052353082 0 0.08374992471768906 0.9795104246909141 0 0.01805521312291435 0.9819959226553717 0 0.1750000000007281 1 0 0.9319664786549031 0.7928416310834391 0 0.1250000000005201 1 0 0.1500000000006241 1 0 0.06226378722088857 0.983175207410741 0 0 1 0 0.9133158576105505 0.8094761078602812 0 0.8947214722250941 0.8261708052038573 0 0.8760431834715183 0.8427669110103704 0 0.8573655960289002 0.8593607298018158 0 0.8386885928254116 0.8759484859831972 0 0.8200156942657686 0.8925285908329816 0 0.8013621073538839 0.9090453521394641 0 0.7829865157888238 0.9240238958915669 0 0.765567288845252 0.9397820229680002 0 0.7509350797360043 0.9572692101405528 0 0.7125000000006065 0.9783493649055393 0 0.7000000000006934 1 0 0.9776291595009881 0.7875380515276744 0 1 0.7749999999994076 0 0.9561619377115562 0.8016247214406151 0 0.100000000000416 1 0 0.05000000000020799 1 0 0.02500000000010405 1 0 0.07500000000031215 1 0 0.7373728002825997 0.9797457966742749 0 0.936501768568726 0.8167601470307382 0 0.9179198229085417 0.8334700925866981 0 0.8997545628036985 0.850646150514148 0 0.8810748357760605 0.8672409377778465 0 0.8623949756234002 0.8838346161837048 0 0.8437145735550088 0.9004276213555383 0 0.8250690499201967 0.9169161840051478 0 0.8066312769403667 0.9360687629678172 0 0.787877567405636 0.9431430579458403 0 0.7763840592035564 0.9592015607820014 0 0.7623386951329825 0.979113923742874 0 0.7250000000005199 1 0 0.9785045479397869 0.813272731266268 0 1 0.7999999999994734 0 0.9578471192075504 0.8261727904711519 0 0.7500000000003466 1 0 0.9391128527136925 0.8403434994693112 0 0.9220365280160845 0.8571983502841284 0 0.9045500207971512 0.8749002582797889 0 0.886106788782708 0.8917166463959966 0 0.8674239965032453 0.9083123153430144 0 0.8487409039285756 0.9249085076766184 0 0.8300502952676565 0.941506388529801 0 0.7988740897752287 0.9585094594659177 0 0.7879965183082089 0.9787583886857587 0 0.7750000000001732 1 0 1 0.8249999999995392 0 0.9788637986048095 0.8379581758187318 0 0.9583083698274745 0.8505032137891103 0 0.8201993130711416 0.9593370027969825 0 0.9420106583123118 0.861984592576875 0 0.932272895769898 0.8823819684245984 0 0.9098224078672256 0.8995969187648785 0 0.8911388419334254 0.9161948069347212 0 0.8724544057399206 0.9327926566294283 0 0.8545858659566004 0.9502129051909997 0 0.837499999999744 0.9700914849871917 0 0.8122917238383637 0.9781055606954954 0 0.7999999999999998 1 0 1 0.8499999999996051 0 0.9785227546540464 0.8628003193867176 0 0.9566987308811586 0.8749999999996693 0 0.933540990258774 0.9074780711296373 0 0.9148558428993067 0.9240777970427465 0 0.8959904604396117 0.9397747407701227 0 0.8784853701953227 0.9569978691521464 0 0.8632446788495237 0.9766771819578198 0 0.8249999999998263 1 0 0.9559309085209713 0.898711103850057 0 1 0.8749999999996708 0 0.9781530512229279 0.8880930545417838 0 0.8499999999996529 1 0 0.9382926456802405 0.9328115065652158 0 0.9544298726402942 0.9196756121555638 0 0.9196554759548007 0.9469137389282831 0 0.903397003740543 0.9616579055256818 0 0.8880972945692732 0.9794009325041808 0 0.8749999999995011 1 0 0.9766321162560174 0.9157580083356738 0 1 0.8999999999997368 0 0.9438287412875872 0.9571755573468378 0 0.9622966325533394 0.9398438882569635 0 0.9250191183149887 0.965686669358203 0 0.9125008924568139 0.9810589679817073 0 0.8999999999995836 1 0 1 0.9249999999998024 0 0.9835192958639845 0.938104386090405 0 0.9615520967513286 0.958473317182881 0 0.936713981574347 0.9800001555686662 0 0.9786677305105651 0.9599200338597169 0 0.9249999999996876 1 0 1 0.9499999999998684 0 0.9614152826538228 0.9769537892680058 0 0.9499999999997918 1 0 1 0.9749999999999343 0 0.9818260183860712 0.981826018386081 0 0.9749999999998958 1 0 1 1 0 </DataArray>
      </Points>
      <Cells>
        <DataArray type="Int32" Name="connectivity" format="ascii">0 1 2 1 3 2 4 0 2 3 5 2 6 0 4 5 4 2 3 7 5 6 4 8 9 4 5 7 10 5 7 11 10 12 6 8 8 4 13 4 9 13 10 9 5 10 11 14 11 15 14 16 12 8 17 8 13 9 18 13 10 19 9 10 14 19 15 20 14 21 12 16 17 16 8 18 17 13 19 18 9 19 14 22 15 23 20 14 20 22 21 16 24 16 17 25 18 26 17 27 18 19 28 19 22 20 23 29 20 30 22 31 21 24 24 16 25 17 32 25 27 26 18 17 26 32 28 27 19 30 28 22 23 33 29 20 29 30 31 24 34 35 24 25 32 35 25 27 36 26 32 26 37 38 27 28 39 28 30 29 33 40 29 41 30 33 42 40 43 31 34 24 44 34 35 44 24 45 35 32 38 36 27 26 36 37 45 32 37 38 28 39 41 39 30 46 29 40 46 41 29 42 47 40 48 43 34 34 44 49 35 50 44 45 50 35 38 51 36 37 36 52 45 37 53 54 38 39 41 55 39 47 46 40 56 41 46 42 57 47 58 43 48 48 34 49 44 59 49 44 50 59 60 50 45 54 51 38 36 51 52 53 37 52 60 45 53 55 54 39 56 55 41 46 47 61 56 46 61 47 57 62 57 63 62 58 48 64 65 48 49 59 65 49 50 66 59 60 66 50 67 51 54 51 68 52 69 53 52 70 60 53 71 54 55 72 55 56 47 73 61 74 56 61 73 47 62 63 75 62 76 58 64 64 48 65 59 77 65 66 77 59 60 78 66 67 68 51 67 54 71 68 69 52 70 53 69 70 78 60 71 55 72 72 56 74 73 74 61 73 62 79 63 80 75 62 75 79 81 76 64 64 65 82 77 83 65 77 66 84 66 78 84 85 68 67 67 71 86 68 87 69 88 70 69 70 89 78 71 72 90 91 72 74 73 92 74 93 73 79 75 80 94 75 95 79 80 96 94 97 76 81 81 64 82 65 83 82 98 83 77 98 77 84 84 78 99 85 87 68 85 67 86 71 90 86 87 88 69 88 89 70 78 89 99 90 72 91 92 91 74 93 92 73 95 93 79 75 94 95 96 100 94 96 101 100 97 81 102 103 81 82 83 103 82 98 104 83 98 84 105 84 99 105 106 87 85 107 85 86 86 90 108 87 109 88 88 110 89 89 111 99 90 91 112 92 113 91 114 92 93 115 93 95 94 116 95 100 116 94 100 101 117 118 97 102 81 119 102 119 81 103 83 104 103 120 104 98 120 98 105 99 121 105 106 109 87 106 85 107 107 86 108 108 90 112 88 109 110 89 110 111 111 121 99 91 113 112 114 113 92 114 93 115 116 115 95 116 100 122 101 123 117 100 117 122 124 118 102 119 125 102 119 103 126 103 104 126 120 127 104 128 120 105 121 128 105 106 129 109 130 106 107 131 107 108 132 108 112 110 109 133 111 110 134 111 135 121 113 136 112 114 137 113 138 114 115 116 139 115 140 116 122 123 141 117 117 142 122 143 118 124 125 124 102 144 125 119 144 119 126 104 127 126 145 127 120 145 120 128 128 121 146 130 129 106 109 129 133 131 130 107 132 131 108 136 132 112 134 110 133 111 134 135 121 135 146 113 137 136 138 137 114 139 138 115 140 139 116 142 140 122 123 147 141 141 142 117 143 124 148 149 124 125 150 125 144 151 144 126 127 151 126 152 127 145 145 128 153 153 128 146 130 154 129 133 129 155 156 130 131 157 131 132 158 132 136 159 134 133 135 134 160 135 161 146 136 137 162 138 163 137 164 138 139 165 139 140 166 140 142 141 147 167 141 168 142 169 143 148 148 124 149 149 125 150 150 144 170 170 144 151 152 151 127 152 145 171 145 153 171 153 146 172 156 154 130 129 154 155 159 133 155 156 131 157 157 132 158 158 136 162 160 134 159 161 135 160 146 161 172 137 163 162 164 163 138 164 139 165 165 140 166 168 166 142 147 173 167 141 167 174 168 141 174 175 169 148 148 149 176 149 150 177 150 170 178 170 151 179 179 151 152 180 152 171 171 153 181 181 153 172 182 154 156 154 183 155 184 159 155 156 157 185 157 158 186 158 162 187 188 160 159 189 161 160 161 190 172 163 191 162 192 163 164 164 165 193 165 166 194 168 195 166 167 173 196 167 197 174 198 168 174 173 199 196 199 200 201 202 169 175 175 148 176 149 177 176 177 150 178 170 203 178 170 179 203 179 152 180 204 180 171 204 171 181 205 181 172 182 183 154 182 156 185 183 184 155 184 188 159 185 157 186 186 158 187 162 191 187 188 189 160 189 190 161 190 205 172 192 191 163 192 164 193 165 194 193 166 195 194 198 195 168 197 167 196 197 198 174 199 201 196 201 200 206 200 207 206 202 175 208 175 176 209 176 177 210 177 178 211 203 212 178 179 213 203 179 180 213 214 180 204 215 204 181 205 215 181 182 216 183 217 182 185 183 218 184 184 219 188 220 185 186 221 186 187 191 222 187 188 223 189 189 224 190 190 225 205 192 226 191 227 192 193 194 228 193 194 195 229 198 230 195 231 197 196 232 198 197 201 231 196 201 206 233 207 234 206 207 235 234 236 237 238 239 236 238 240 236 239 235 240 241 242 202 208 208 175 209 176 210 209 210 177 211 178 212 211 243 212 203 213 243 203 213 180 214 214 204 244 244 204 215 205 245 215 217 216 182 183 216 218 220 217 185 184 218 219 188 219 223 221 220 186 222 221 187 191 226 222 189 223 224 190 224 225 205 225 245 227 226 192 228 227 193 228 194 229 195 230 229 232 230 198 232 197 231 231 201 233 206 246 233 206 234 246 234 235 241 238 237 247 239 238 248 240 239 241 237 249 247 249 250 251 252 242 208 253 208 209 210 254 209 255 210 211 212 256 211 257 212 243 243 213 258 213 214 258 214 244 259 260 244 215 245 260 215 217 261 216 218 216 262 263 217 220 219 218 264 223 219 265 221 266 220 267 221 222 226 268 222 224 223 269 225 224 270 245 225 271 272 226 227 273 227 228 274 228 229 230 275 229 276 230 232 232 231 277 278 231 233 246 278 233 234 279 246 279 234 241 280 238 247 241 239 248 238 281 248 249 251 247 251 250 282 250 283 282 283 284 285 286 242 252 252 208 287 208 253 287 254 253 209 254 210 255 256 255 211 257 256 212 288 257 243 288 243 258 214 259 258 259 244 289 289 244 260 260 245 290 263 261 217 216 261 262 218 262 264 266 263 220 265 219 264 223 265 269 267 266 221 268 267 222 272 268 226 224 269 270 271 225 270 245 271 290 272 227 273 273 228 274 275 274 229 276 275 230 276 232 277 231 278 277 291 278 246 279 291 246 292 279 241 280 281 238 251 280 247 292 241 248 281 293 248 294 251 282 283 285 282 285 284 295 284 296 295 286 252 297 298 252 287 253 299 287 254 300 253 301 254 255 256 302 255 303 256 257 304 257 288 288 258 305 258 259 305 259 289 306 289 260 307 307 260 290 263 308 261 261 309 262 262 310 264 311 263 266 312 265 264 265 313 269 314 266 267 315 267 268 316 268 272 269 317 270 318 271 270 271 319 290 272 273 320 273 274 321 322 274 275 323 275 276 324 276 277 278 325 277 291 325 278 326 291 279 326 279 292 281 280 327 251 328 280 293 292 248 329 293 281 328 251 294 285 294 282 330 285 295 296 331 295 332 286 297 297 252 298 299 298 287 253 300 299 301 300 254 302 301 255 303 302 256 303 257 304 304 288 333 333 288 305 305 259 306 289 334 306 289 307 334 335 307 290 311 308 263 261 308 309 309 310 262 310 312 264 311 266 314 265 312 313 313 317 269 314 267 315 315 268 316 316 272 320 317 318 270 318 319 271 319 335 290 273 321 320 321 274 322 322 275 323 323 276 324 325 324 277 336 325 291 336 291 326 337 326 292 280 328 327 329 281 327 293 337 292 329 338 293 339 328 294 285 340 294 340 285 330 331 330 295 341 332 297 342 297 298 299 343 298 300 344 299 301 345 300 302 346 301 347 302 303 303 304 348 349 304 333 350 333 305 350 305 306 334 351 306 334 307 352 352 307 335 353 308 311 308 354 309 310 309 355 356 312 310 311 314 357 312 358 313 317 313 359 314 315 360 315 316 361 362 316 320 363 318 317 364 319 318 365 335 319 320 321 366 321 322 367 322 323 368 323 324 369 370 324 325 370 325 336 336 326 371 326 337 371 328 372 327 329 327 373 338 337 293 374 338 329 339 372 328 340 339 294 375 340 330 331 376 330 377 332 341 342 341 297 343 342 298 344 343 299 300 345 344 301 346 345 347 346 302 347 303 348 304 349 348 378 349 333 350 378 333 351 350 306 351 334 379 334 352 379 352 335 380 353 354 308 353 311 357 309 354 355 356 310 355 356 358 312 314 360 357 313 358 359 363 317 359 315 361 360 361 316 362 362 320 366 364 318 363 365 319 364 380 335 365 321 367 366 367 322 368 323 369 368 369 324 370 370 336 381 336 371 381 337 382 371 327 372 373 374 329 373 338 382 337 374 383 338 339 384 372 340 385 339 375 385 340 376 375 330 386 377 341 342 387 341 343 388 342 344 389 343 344 345 390 345 346 391 347 392 346 393 347 348 349 394 348 378 395 349 396 378 350 396 350 351 397 351 379 352 398 379 352 380 398 399 354 353 400 353 357 354 401 355 402 356 355 356 403 358 357 360 404 358 405 359 406 363 359 361 407 360 361 362 408 409 362 366 364 363 410 365 364 411 380 365 412 366 367 413 367 368 414 369 415 368 369 370 416 416 370 381 381 371 417 371 382 417 372 418 373 418 374 373 338 383 382 419 383 374 339 385 384 372 384 420 375 421 385 376 422 375 423 377 386 386 341 424 342 388 387 341 387 424 343 389 388 344 390 389 390 345 391 346 392 391 393 392 347 394 393 348 395 394 349 425 395 378 425 378 396 397 396 351 426 397 379 398 426 379 398 380 427 399 401 354 399 353 400 400 357 404 401 402 355 402 403 356 358 403 405 360 407 404 405 406 359 410 363 406 361 408 407 408 362 409 409 366 413 364 410 411 412 365 411 427 380 412 413 367 414 368 415 414 369 416 415 428 416 381 428 381 417 382 429 417 418 372 420 419 374 418 382 383 429 419 430 383 384 385 431 384 432 420 375 422 421 385 421 431 423 386 433 434 386 424 387 388 435 387 436 424 388 389 437 389 390 438 439 390 391 391 392 440 393 441 392 442 393 394 395 443 394 444 395 425 425 396 445 445 396 397 446 397 426 398 447 426 398 427 447 399 448 401 449 399 400 450 400 404 401 451 402 402 452 403 403 453 405 404 407 454 455 406 405 410 406 456 407 408 457 408 409 458 459 409 413 411 410 460 461 412 411 462 427 412 463 413 414 414 415 464 415 416 465 465 416 428 466 428 417 429 466 417 467 418 420 419 418 467 383 430 429 468 430 419 432 384 431 432 469 420 422 470 421 421 471 431 472 423 433 433 386 434 436 434 424 435 388 437 387 435 436 389 438 437 438 390 439 439 391 440 392 441 440 442 441 393 443 442 394 444 443 395 444 425 473 425 445 473 445 397 446 474 446 426 447 474 426 447 427 475 449 448 399 401 448 451 450 449 400 450 404 454 402 451 452 403 452 453 453 455 405 407 457 454 456 406 455 410 456 460 457 408 458 409 459 458 463 459 413 461 411 460 461 462 412 475 427 462 463 414 464 415 465 464 465 428 476 428 466 476 477 466 429 469 467 420 468 419 467 430 477 429 478 430 468 432 431 479 480 469 432 470 471 421 431 471 479 481 472 433 482 433 434 434 436 483 484 435 437 436 435 485 438 486 437 438 439 487 439 440 488 441 489 440 490 441 442 491 442 443 492 443 444 493 444 473 473 445 494 445 446 494 446 474 495 447 496 474 447 475 496 449 497 448 451 448 498 499 449 450 500 450 454 452 451 501 453 452 502 453 503 455 457 504 454 456 455 505 456 506 460 507 457 458 459 508 458 463 509 459 510 461 460 511 462 461 475 462 512 513 463 464 465 514 464 514 465 476 466 515 476 477 515 466 469 516 467 516 468 467 478 477 430 478 468 517 480 432 479 480 518 469 470 519 471 471 520 479 521 472 481 481 433 482 482 434 483 483 436 522 435 484 485 486 484 437 522 436 485 486 438 487 487 439 488 440 489 488 490 489 441 490 442 491 491 443 492 492 444 493 523 493 473 523 473 494 446 495 494 495 474 524 474 496 524 496 475 525 499 497 449 448 497 498 451 498 501 499 450 500 504 500 454 502 452 501 453 502 503 455 503 505 457 507 504 506 456 505 506 510 460 508 507 458 459 509 508 513 509 463 510 511 461 462 511 512 525 475 512 514 513 464 526 514 476 515 526 476 527 515 477 469 518 516 468 516 517 527 477 478 528 478 517 520 480 479 529 518 480 471 519 520 521 481 530 481 482 531 482 483 532 533 483 522 484 534 485 486 535 484 534 522 485 536 486 487 537 487 488 489 538 488 539 489 490 490 491 540 491 492 541 492 493 542 543 493 523 523 494 544 494 495 544 495 524 545 496 546 524 496 525 546 499 547 497 497 548 498 501 498 549 550 499 500 551 500 504 552 502 501 503 502 553 503 554 505 507 555 504 556 506 505 557 510 506 558 507 508 509 559 508 513 560 509 510 561 511 511 562 512 563 525 512 564 513 514 526 564 514 565 526 515 565 515 527 518 566 516 516 566 517 527 478 528 567 528 517 529 480 520 568 518 529 519 569 520 570 521 530 481 571 530 571 481 531 482 532 531 483 533 532 533 522 572 535 534 484 536 535 486 522 534 572 537 536 487 538 537 488 539 538 489 539 490 540 491 541 540 492 542 541 542 493 543 543 523 573 573 523 544 544 495 545 524 574 545 524 546 574 546 525 575 550 547 499 497 547 548 498 548 549 552 501 549 551 550 500 555 551 504 553 502 552 503 553 554 554 556 505 558 555 507 556 557 506 557 561 510 559 558 508 560 559 509 564 560 513 561 562 511 562 563 512 575 525 563 576 564 526 576 526 565 565 527 577 568 566 518 566 567 517 527 528 577 528 567 578 529 520 579 568 529 580 520 569 579 581 570 530 571 581 530 582 571 531 532 582 531 532 533 583 584 533 572 535 585 534 536 586 535 534 587 572 537 588 536 538 589 537 590 538 539 591 539 540 540 541 592 542 593 541 542 543 594 595 543 573 596 573 544 596 544 545 574 597 545 546 598 574 546 575 598 599 547 550 547 600 548 548 601 549 602 552 549 603 550 551 604 551 555 553 552 605 554 553 606 554 607 556 608 555 558 556 609 557 557 610 561 611 558 559 612 559 560 613 560 564 561 614 562 562 615 563 616 575 563 613 564 576 576 565 617 617 565 577 568 618 566 566 618 567 577 528 578 567 619 578 620 529 579 621 568 580 529 620 580 569 622 579 623 581 571 582 623 571 582 532 583 533 624 583 584 624 533 587 584 572 535 586 585 534 585 587 536 588 586 537 589 588 590 589 538 590 539 591 591 540 592 541 593 592 542 594 593 594 543 595 625 595 573 596 625 573 597 596 545 626 597 574 598 626 574 598 575 627 599 600 547 599 550 603 600 601 548 601 602 549 552 602 605 603 551 604 604 555 608 606 553 605 554 606 607 556 607 609 608 558 611 557 609 610 561 610 614 611 559 612 612 560 613 614 615 562 615 616 563 627 575 616 613 576 628 628 576 617 629 617 577 621 618 568 618 619 567 629 577 578 619 630 578 622 620 579 621 580 631 580 620 631 632 623 582 633 582 583 624 633 583 584 634 624 635 584 587 585 586 636 585 637 587 586 588 638 588 589 639 590 640 589 641 590 591 642 591 592 592 593 643 593 594 644 594 595 645 646 595 625 647 625 596 647 596 597 626 648 597 598 649 626 598 627 649 650 600 599 599 603 651 600 652 601 601 653 602 605 602 654 603 604 655 604 608 656 657 606 605 607 606 658 609 607 659 608 611 660 610 609 661 614 610 662 611 612 663 612 613 664 615 614 665 666 616 615 627 616 667 613 628 664 668 628 617 629 668 617 669 618 621 669 619 618 630 629 578 619 670 630 622 671 620 672 621 631 620 673 631 632 582 633 624 674 633 635 634 584 634 674 624 637 635 587 636 586 638 585 636 637 588 639 638 589 640 639 641 640 590 642 641 591 642 592 643 593 644 643 594 645 644 645 595 646 646 625 675 625 647 675 648 647 597 626 676 648 626 649 676 649 627 677 650 652 600 650 599 651 603 655 651 652 653 601 602 653 654 657 605 654 655 604 656 608 660 656 658 606 657 607 658 659 661 609 659 660 611 663 610 661 662 665 614 662 663 612 664 666 615 665 667 616 666 627 667 677 664 628 678 628 668 678 679 668 629 669 621 672 669 670 619 679 629 630 670 680 630 620 671 673 673 672 631 681 632 633 674 681 633 635 682 634 674 634 683 637 684 635 685 636 638 637 636 686 638 639 687 640 688 639 641 689 640 690 641 642 691 642 643 643 644 692 645 693 644 645 646 694 646 675 695 647 696 675 648 696 647 648 676 697 676 649 698 698 649 677 699 652 650 700 650 651 651 655 701 652 702 653 653 703 654 704 657 654 705 655 656 656 660 706 707 658 657 658 708 659 709 661 659 710 660 663 661 711 662 665 662 712 713 663 664 714 666 665 667 666 715 667 716 677 713 664 678 668 717 678 679 717 668 718 669 672 718 670 669 680 679 630 719 680 670 671 720 673 673 721 672 722 681 674 635 684 682 634 682 683 674 683 723 637 686 684 686 636 685 685 638 687 639 688 687 640 689 688 690 689 641 691 690 642 691 643 692 644 693 692 645 694 693 694 646 695 675 724 695 696 724 675 648 697 696 697 676 725 676 698 725 698 677 726 699 702 652 699 650 700 700 651 701 655 705 701 653 702 703 703 704 654 704 707 657 705 656 706 660 710 706 708 658 707 708 709 659 711 661 709 713 710 663 662 711 712 714 665 712 715 666 714 667 715 716 677 716 726 727 713 678 717 727 678 679 728 717 729 718 672 719 670 718 680 728 679 730 680 719 720 721 673 721 729 672 722 674 723 682 684 731 683 682 732 683 733 723 684 686 734 686 685 735 736 685 687 688 737 687 689 738 688 690 739 689 740 690 691 741 691 692 693 742 692 693 694 743 744 694 695 724 745 695 696 746 724 696 697 746 697 725 747 698 748 725 748 698 726 749 702 699 699 700 750 751 700 701 705 752 701 702 753 703 754 704 703 704 755 707 756 705 706 710 757 706 758 708 707 708 759 709 760 711 709 713 761 710 711 762 712 763 714 712 715 714 764 716 715 765 716 766 726 727 761 713 727 717 767 717 728 767 768 718 729 719 718 768 730 728 680 730 719 769 720 770 721 729 721 771 772 722 723 684 734 731 732 682 731 683 732 733 733 772 723 734 686 735 685 736 735 737 736 687 738 737 688 689 739 738 740 739 690 740 691 741 742 741 692 742 693 743 694 744 743 745 744 695 724 773 745 724 746 773 746 697 747 725 774 747 748 774 725 775 748 726 749 753 702 749 699 750 700 751 750 752 751 701 756 752 705 753 754 703 754 755 704 755 758 707 757 756 706 761 757 710 758 759 708 759 760 709 760 762 711 762 763 712 764 714 763 715 764 765 766 716 765 766 775 726 776 761 727 776 727 767 728 777 767 768 729 778 719 768 769 730 777 728 779 730 769 721 770 771 729 771 778 734 780 731 732 731 781 732 782 733 783 772 733 784 734 735 736 785 735 786 736 737 737 738 787 738 739 788 740 789 739 790 740 741 791 741 742 792 742 743 744 793 743 745 794 744 745 773 795 773 746 796 796 746 747 747 774 797 798 774 748 775 798 748 799 753 749 800 749 750 751 801 750 752 802 751 756 803 752 804 754 753 805 755 754 806 758 755 757 807 756 761 808 757 809 759 758 810 760 759 811 762 760 812 763 762 764 763 813 764 814 765 815 766 765 816 775 766 776 808 761 817 776 767 777 817 767 818 768 778 769 768 818 779 777 730 819 779 769 770 820 771 771 821 778 734 784 780 731 780 781 782 732 781 782 783 733 785 784 735 786 785 736 786 737 787 787 738 788 739 789 788 790 789 740 791 790 741 792 791 742 793 792 743 744 794 793 745 795 794 795 773 822 773 796 822 796 747 797 774 823 797 798 823 774 824 798 775 804 753 799 799 749 800 801 800 750 751 802 801 752 803 802 756 807 803 805 754 804 806 755 805 809 758 806 757 808 807 810 759 809 811 760 810 812 762 811 813 763 812 764 813 814 814 815 765 815 816 766 824 775 816 776 825 808 817 825 776 826 817 777 818 778 827 819 769 818 826 777 779 828 779 819 820 821 771 778 821 827 784 829 780 780 830 781 831 782 781 832 783 782 785 833 784 834 785 786 786 787 835 787 788 836 788 789 837 790 838 789 839 790 791 792 840 791 841 792 793 794 842 793 794 795 843 844 795 822 822 796 845 845 796 797 797 823 846 798 847 823 824 847 798 804 799 848 799 800 849 850 800 801 801 802 851 803 852 802 803 807 853 805 804 854 806 805 855 809 806 856 807 808 857 810 809 858 811 810 859 812 811 860 813 812 861 814 813 862 814 863 815 816 815 864 865 824 816 808 825 857 866 825 817 866 817 826 867 818 827 867 819 818 826 779 828 828 819 868 820 869 821 821 870 827 784 833 829 780 829 830 830 831 781 832 782 831 834 833 785 834 786 835 835 787 836 788 837 836 789 838 837 839 838 790 840 839 791 841 840 792 842 841 793 794 843 842 843 795 844 871 844 822 871 822 845 845 797 846 823 872 846 847 872 823 873 847 824 804 848 854 848 799 849 800 850 849 850 801 851 802 852 851 852 803 853 853 807 857 855 805 854 856 806 855 809 856 858 859 810 858 860 811 859 812 860 861 862 813 861 814 862 863 815 863 864 865 816 864 873 824 865 825 874 857 866 874 825 866 826 875 867 827 876 868 819 867 826 828 875 828 868 877 821 869 870 827 870 876 829 833 878 830 829 879 830 880 831 881 832 831 834 882 833 883 834 835 884 835 836 837 885 836 838 886 837 839 887 838 840 888 839 841 889 840 842 890 841 842 843 891 892 843 844 871 893 844 894 871 845 894 845 846 846 872 895 847 896 872 873 896 847 854 848 897 898 848 849 850 899 849 900 850 851 852 901 851 902 852 853 903 853 857 904 855 854 905 856 855 858 856 906 907 859 858 908 860 859 861 860 909 910 862 861 863 862 911 863 912 864 913 865 864 873 865 914 874 903 857 915 874 866 915 866 875 916 867 876 868 867 916 875 828 877 877 868 917 869 918 870 870 919 876 833 882 878 879 829 878 880 830 879 880 881 831 883 882 834 884 883 835 885 884 836 886 885 837 838 887 886 839 888 887 840 889 888 841 890 889 842 891 890 891 843 892 893 892 844 871 920 893 894 920 871 894 846 895 872 921 895 872 896 921 922 896 873 848 898 897 904 854 897 899 898 849 900 899 850 901 900 851 902 901 852 902 853 903 904 905 855 856 905 906 907 858 906 907 908 859 860 908 909 910 861 909 911 862 910 863 911 912 912 913 864 914 865 913 922 873 914 874 923 903 915 923 874 924 915 875 919 916 876 868 916 917 924 875 877 925 877 917 918 919 870 882 926 878 927 879 878 880 879 928 929 881 880 883 930 882 884 931 883 932 884 885 886 933 885 886 887 934 887 888 935 888 889 936 889 890 937 890 891 938 891 892 939 940 892 893 920 941 893 942 920 894 942 894 895 895 921 943 896 944 921 922 944 896 898 945 897 946 904 897 899 947 898 900 948 899 901 949 900 902 950 901 951 902 903 952 905 904 905 953 906 954 907 906 907 955 908 908 956 909 957 910 909 911 910 958 912 911 959 912 960 913 961 914 913 962 922 914 923 951 903 963 923 915 963 915 924 916 919 964 916 965 917 925 924 877 925 917 966 918 967 919 882 930 926 926 927 878 879 927 928 968 880 928 929 880 968 883 931 930 932 931 884 933 932 885 886 934 933 934 887 935 888 936 935 936 889 937 890 938 937 891 939 938 939 892 940 941 940 893 969 941 920 969 920 942 942 895 943 921 970 943 944 970 921 922 971 944 947 945 898 945 946 897 952 904 946 899 948 947 900 949 948 901 950 949 951 950 902 952 953 905 953 954 906 954 955 907 955 956 908 956 957 909 910 957 958 959 911 958 912 959 960 960 961 913 961 962 914 962 971 922 972 951 923 972 923 963 963 924 973 919 967 964 916 964 965 917 965 966 973 924 925 974 925 966 926 930 975 926 976 927 927 977 928 977 968 928 978 929 968 930 931 979 932 980 931 933 981 932 933 934 982 983 934 935 935 936 984 985 936 937 938 986 937 939 987 938 939 940 988 989 940 941 990 941 969 969 942 991 991 942 943 943 970 992 944 993 970 944 971 993 994 945 947 945 995 946 996 952 946 947 948 997 948 949 998 949 950 999 951 1000 950 952 1001 953 1002 954 953 954 1003 955 955 1004 956 956 1005 957 957 1006 958 1007 959 958 960 959 1008 960 1009 961 961 1010 962 962 1011 971 972 1000 951 972 963 1012 963 973 1012 967 1013 964 965 964 1014 965 1015 966 973 925 974 1015 974 966 975 930 979 926 975 976 927 976 977 1016 968 977 1016 978 968 931 980 979 932 981 980 933 982 981 982 934 983 983 935 984 936 985 984 986 985 937 987 986 938 939 988 987 988 940 989 989 941 990 990 969 1017 1017 969 991 991 943 992 970 1018 992 970 993 1018 993 971 1019 994 995 945 994 947 997 995 996 946 996 1001 952 997 948 998 949 999 998 950 1000 999 1001 1002 953 1002 1003 954 955 1003 1004 956 1004 1005 1005 1006 957 1006 1007 958 1008 959 1007 960 1008 1009 961 1009 1010 962 1010 1011 971 1011 1019 1020 1000 972 1020 972 1012 1012 973 1021 964 1013 1014 965 1014 1015 1021 973 974 974 1015 1022 975 979 1023 976 975 1024 976 1025 977 1025 1016 977 1026 978 1016 980 1027 979 980 981 1028 981 982 1029 982 983 1030 1031 983 984 984 985 1032 986 1033 985 987 1034 986 987 988 1035 988 989 1036 989 990 1037 990 1017 1038 1039 1017 991 1039 991 992 992 1018 1040 1018 993 1041 993 1019 1041 994 1042 995 1043 994 997 995 1044 996 996 1045 1001 1046 997 998 999 1047 998 1000 1048 999 1001 1049 1002 1002 1050 1003 1004 1003 1051 1005 1004 1052 1006 1005 1053 1054 1007 1006 1008 1007 1055 1009 1008 1056 1010 1009 1057 1011 1010 1058 1011 1059 1019 1020 1048 1000 1060 1020 1012 1060 1012 1021 1013 1061 1014 1014 1062 1015 1063 1021 974 1015 1064 1022 1063 974 1022 1024 975 1023 979 1027 1023 976 1024 1025 1016 1025 1065 1026 1016 1065 980 1028 1027 1028 981 1029 982 1030 1029 1030 983 1031 1031 984 1032 985 1033 1032 986 1034 1033 987 1035 1034 1035 988 1036 989 1037 1036 990 1038 1037 1038 1017 1066 1066 1017 1039 1039 992 1040 1018 1067 1040 1067 1018 1041 1019 1068 1041 1043 1042 994 995 1042 1044 1043 997 1046 996 1044 1045 1001 1045 1049 1047 1046 998 1048 1047 999 1002 1049 1050 1003 1050 1051 1052 1004 1051 1005 1052 1053 1054 1006 1053 1055 1007 1054 1008 1055 1056 1009 1056 1057 1058 1010 1057 1011 1058 1059 1059 1068 1019 1069 1048 1020 1069 1020 1060 1070 1060 1021 1061 1062 1014 1015 1062 1064 1063 1070 1021 1022 1064 1071 1063 1022 1071 1072 1024 1023 1023 1027 1073 1025 1024 1074 1025 1074 1065 1075 1026 1065 1027 1028 1076 1077 1028 1029 1029 1030 1078 1030 1031 1079 1031 1032 1080 1033 1081 1032 1034 1082 1033 1034 1035 1083 1084 1035 1036 1037 1085 1036 1038 1086 1037 1038 1066 1087 1066 1039 1088 1039 1040 1088 1067 1089 1040 1090 1067 1041 1068 1090 1041 1043 1091 1042 1044 1042 1092 1093 1043 1046 1045 1044 1094 1049 1045 1095 1047 1096 1046 1097 1047 1048 1050 1049 1098 1050 1099 1051 1052 1051 1100 1052 1101 1053 1102 1054 1053 1055 1054 1103 1055 1104 1056 1057 1056 1105 1106 1058 1057 1059 1058 1107 1059 1108 1068 1097 1048 1069 1069 1060 1109 1109 1060 1070 1061 1110 1062 1064 1062 1111 1112 1070 1063 1064 1111 1071 1112 1063 1071 1074 1024 1072 1072 1023 1073 1027 1076 1073 1074 1113 1065 1113 1075 1065 1076 1028 1077 1077 1029 1078 1030 1079 1078 1079 1031 1080 1032 1081 1080 1082 1081 1033 1034 1083 1082 1083 1035 1084 1085 1084 1036 1086 1085 1037 1038 1087 1086 1087 1066 1114 1114 1066 1088 1040 1089 1088 1115 1089 1067 1090 1115 1067 1116 1090 1068 1093 1091 1043 1042 1091 1092 1044 1092 1094 1096 1093 1046 1095 1045 1094 1049 1095 1098 1097 1096 1047 1099 1050 1098 1051 1099 1100 1101 1052 1100 1101 1102 1053 1103 1054 1102 1055 1103 1104 1056 1104 1105 1106 1057 1105 1107 1058 1106 1059 1107 1108 1108 1116 1068 1097 1069 1117 1069 1109 1117 1109 1070 1118 1062 1110 1111 1118 1070 1112 1111 1119 1071 1119 1112 1071 1120 1074 1072 1121 1072 1073 1076 1122 1073 1120 1113 1074 1123 1075 1113 1076 1077 1124 1125 1077 1078 1078 1079 1126 1127 1079 1080 1081 1128 1080 1082 1129 1081 1082 1083 1130 1131 1083 1084 1084 1085 1132 1086 1133 1085 1086 1087 1134 1087 1114 1135 1114 1088 1136 1088 1089 1136 1115 1137 1089 1090 1138 1115 1116 1138 1090 1093 1139 1091 1091 1140 1092 1092 1141 1094 1142 1093 1096 1143 1095 1094 1095 1144 1098 1145 1096 1097 1146 1099 1098 1099 1147 1100 1148 1101 1100 1149 1102 1101 1103 1102 1150 1104 1103 1151 1105 1104 1152 1153 1106 1105 1107 1106 1154 1108 1107 1155 1108 1156 1116 1145 1097 1117 1109 1157 1117 1109 1118 1157 1110 1158 1111 1118 1112 1159 1119 1111 1160 1159 1112 1119 1121 1120 1072 1122 1121 1073 1076 1124 1122 1113 1120 1161 1123 1113 1161 1124 1077 1125 1125 1078 1126 1079 1127 1126 1128 1127 1080 1081 1129 1128 1082 1130 1129 1130 1083 1131 1131 1084 1132 1085 1133 1132 1086 1134 1133 1087 1135 1134 1135 1114 1162 1162 1114 1136 1089 1137 1136 1163 1137 1115 1138 1163 1115 1116 1164 1138 1142 1139 1093 1091 1139 1140 1140 1141 1092 1141 1143 1094 1142 1096 1145 1144 1095 1143 1144 1146 1098 1146 1147 1099 1147 1148 1100 1149 1101 1148 1150 1102 1149 1103 1150 1151 1104 1151 1152 1153 1105 1152 1106 1153 1154 1155 1107 1154 1108 1155 1156 1116 1156 1164 1145 1117 1165 1117 1157 1165 1157 1118 1166 1111 1158 1160 1118 1159 1166 1119 1160 1167 1159 1119 1167 1121 1168 1120 1122 1169 1121 1122 1124 1170 1120 1171 1161 1172 1123 1161 1124 1125 1173 1174 1125 1126 1127 1175 1126 1176 1127 1128 1129 1177 1128 1129 1130 1178 1130 1131 1179 1180 1131 1132 1133 1181 1132 1133 1134 1182 1135 1183 1134 1184 1135 1162 1185 1162 1136 1137 1185 1136 1163 1186 1137 1138 1187 1163 1138 1164 1187 1188 1139 1142 1139 1189 1140 1190 1141 1140 1141 1191 1143 1142 1145 1192 1193 1144 1143 1144 1194 1146 1146 1195 1147 1147 1196 1148 1197 1149 1148 1150 1149 1198 1150 1199 1151 1152 1151 1200 1201 1153 1152 1153 1202 1154 1203 1155 1154 1156 1155 1204 1164 1156 1205 1192 1145 1165 1165 1157 1206 1206 1157 1166 1158 1207 1160 1166 1159 1208 1160 1209 1167 1208 1159 1167 1121 1169 1168 1120 1168 1171 1122 1170 1169 1170 1124 1173 1171 1210 1161 1210 1172 1161 1125 1174 1173 1175 1174 1126 1176 1175 1127 1177 1176 1128 1129 1178 1177 1178 1130 1179 1131 1180 1179 1181 1180 1132 1181 1133 1182 1134 1183 1182 1184 1183 1135 1184 1162 1211 1211 1162 1185 1137 1186 1185 1163 1212 1186 1163 1187 1212 1187 1164 1213 1188 1189 1139 1188 1142 1192 1189 1190 1140 1190 1191 1141 1191 1193 1143 1193 1194 1144 1146 1194 1195 1147 1195 1196 1196 1197 1148 1198 1149 1197 1150 1198 1199 1151 1199 1200 1201 1152 1200 1201 1202 1153 1202 1203 1154 1204 1155 1203 1156 1204 1205 1164 1205 1213 1214 1192 1165 1214 1165 1206 1215 1206 1166 1207 1209 1160 1215 1166 1208 1209 1216 1167 1216 1208 1167 1168 1169 1217 1171 1168 1218 1169 1170 1219 1220 1170 1173 1171 1218 1210 1221 1172 1210 1174 1222 1173 1175 1223 1174 1224 1175 1176 1177 1225 1176 1177 1178 1226 1178 1179 1227 1180 1228 1179 1181 1229 1180 1230 1181 1182 1182 1183 1231 1184 1232 1183 1233 1184 1211 1234 1211 1185 1186 1234 1185 1186 1212 1235 1212 1187 1236 1236 1187 1213 1237 1189 1188 1238 1188 1192 1239 1190 1189 1240 1191 1190 1191 1241 1193 1242 1194 1193 1194 1243 1195 1195 1244 1196 1245 1197 1196 1198 1197 1246 1199 1198 1247 1200 1199 1248 1249 1201 1200 1250 1202 1201 1251 1203 1202 1204 1203 1252 1204 1253 1205 1205 1254 1213 1214 1238 1192 1255 1214 1206 1215 1255 1206 1207 1256 1209 1257 1215 1208 1209 1258 1216 1216 1257 1208 1169 1219 1217 1168 1217 1218 1219 1170 1220 1222 1220 1173 1218 1259 1210 1259 1221 1210 1174 1223 1222 1224 1223 1175 1225 1224 1176 1177 1226 1225 1226 1178 1227 1179 1228 1227 1229 1228 1180 1230 1229 1181 1230 1182 1231 1183 1232 1231 1233 1232 1184 1260 1233 1211 1234 1260 1211 1186 1235 1234 1235 1212 1261 1212 1236 1261 1236 1213 1262 1239 1189 1237 1237 1188 1238 1240 1190 1239 1240 1241 1191 1241 1242 1193 1242 1243 1194 1243 1244 1195 1244 1245 1196 1246 1197 1245 1198 1246 1247 1199 1247 1248 1249 1200 1248 1250 1201 1249 1251 1202 1250 1252 1203 1251 1204 1252 1253 1253 1254 1205 1213 1254 1262 1263 1238 1214 1255 1263 1214 1264 1255 1215 1209 1256 1258 1264 1215 1257 1216 1258 1265 1257 1216 1265 1219 1266 1217 1218 1217 1267 1219 1220 1268 1220 1222 1269 1259 1218 1267 1270 1221 1259 1223 1271 1222 1224 1272 1223 1225 1273 1224 1225 1226 1274 1275 1226 1227 1227 1228 1276 1229 1277 1228 1230 1278 1229 1279 1230 1231 1232 1280 1231 1233 1281 1232 1260 1282 1233 1234 1283 1260 1234 1235 1283 1284 1235 1261 1236 1285 1261 1285 1236 1262 1239 1237 1286 1237 1238 1287 1240 1239 1288 1289 1241 1240 1290 1242 1241 1291 1243 1242 1292 1244 1243 1293 1245 1244 1246 1245 1294 1246 1295 1247 1247 1296 1248 1297 1249 1248 1250 1249 1298 1251 1250 1299 1252 1251 1300 1253 1252 1301 1253 1302 1254 1254 1303 1262 1287 1238 1263 1304 1263 1255 1304 1255 1264 1256 1305 1258 1264 1257 1306 1258 1307 1265 1308 1257 1265 1219 1268 1266 1217 1266 1267 1268 1220 1269 1222 1271 1269 1309 1259 1267 1270 1259 1309 1223 1272 1271 1224 1273 1272 1225 1274 1273 1274 1226 1275 1275 1227 1276 1228 1277 1276 1229 1278 1277 1279 1278 1230 1280 1279 1231 1232 1281 1280 1233 1282 1281 1260 1310 1282 1260 1283 1310 1283 1235 1284 1284 1261 1311 1261 1285 1311 1312 1285 1262 1288 1239 1286 1237 1287 1286 1289 1240 1288 1290 1241 1289 1291 1242 1290 1292 1243 1291 1293 1244 1292 1294 1245 1293 1246 1294 1295 1295 1296 1247 1296 1297 1248 1249 1297 1298 1250 1298 1299 1251 1299 1300 1301 1252 1300 1253 1301 1302 1302 1303 1254 1303 1312 1262 1287 1263 1313 1313 1263 1304 1304 1264 1314 1258 1305 1307 1314 1264 1306 1257 1308 1306 1307 1308 1265 1266 1268 1315 1266 1316 1267 1317 1268 1269 1269 1271 1318 1316 1309 1267 1319 1270 1309 1272 1320 1271 1273 1321 1272 1273 1274 1322 1274 1275 1323 1324 1275 1276 1277 1325 1276 1277 1278 1326 1279 1327 1278 1280 1328 1279 1280 1281 1329 1281 1282 1330 1282 1310 1331 1310 1283 1332 1283 1284 1332 1284 1311 1333 1285 1334 1311 1312 1334 1285 1288 1286 1335 1287 1336 1286 1289 1288 1337 1290 1289 1338 1291 1290 1339 1292 1291 1340 1293 1292 1341 1294 1293 1342 1294 1343 1295 1344 1296 1295 1296 1345 1297 1297 1346 1298 1298 1347 1299 1299 1348 1300 1301 1300 1349 1302 1301 1350 1351 1303 1302 1303 1352 1312 1287 1313 1336 1313 1304 1353 1304 1314 1353 1305 1354 1307 1355 1314 1306 1308 1355 1306 1307 1356 1308 1315 1268 1317 1266 1315 1316 1317 1269 1318 1271 1320 1318 1316 1357 1309 1357 1319 1309 1321 1320 1272 1273 1322 1321 1322 1274 1323 1275 1324 1323 1325 1324 1276 1325 1277 1326 1278 1327 1326 1279 1328 1327 1280 1329 1328 1329 1281 1330 1282 1331 1330 1331 1310 1358 1358 1310 1332 1332 1284 1333 1311 1359 1333 1334 1359 1311 1360 1334 1312 1337 1288 1335 1286 1336 1335 1338 1289 1337 1339 1290 1338 1291 1339 1340 1341 1292 1340 1342 1293 1341 1294 1342 1343 1343 1344 1295 1344 1345 1296 1345 1346 1297 1346 1347 1298 1347 1348 1299 1300 1348 1349 1350 1301 1349 1351 1302 1350 1351 1352 1303 1352 1360 1312 1336 1313 1361 1361 1313 1353 1314 1362 1353 1354 1356 1307 1314 1355 1362 1308 1356 1355 1315 1317 1363 1316 1315 1364 1365 1317 1318 1320 1366 1318 1357 1316 1364 1367 1319 1357 1321 1368 1320 1321 1322 1369 1322 1323 1370 1324 1371 1323 1325 1372 1324 1373 1325 1326 1327 1374 1326 1327 1328 1375 1328 1329 1376 1329 1330 1377 1331 1378 1330 1331 1358 1379 1380 1358 1332 1380 1332 1333 1333 1359 1381 1334 1382 1359 1360 1382 1334 1383 1337 1335 1335 1336 1384 1385 1338 1337 1386 1339 1338 1340 1339 1387 1388 1341 1340 1389 1342 1341 1343 1342 1390 1343 1391 1344 1392 1345 1344 1393 1346 1345 1346 1394 1347 1347 1395 1348 1348 1396 1349 1397 1350 1349 1398 1351 1350 1351 1399 1352 1352 1400 1360 1336 1361 1384 1361 1353 1401 1353 1362 1401 1354 1402 1356 1362 1355 1403 1355 1356 1404 1315 1363 1364 1363 1317 1365 1366 1365 1318 1320 1368 1366 1357 1364 1405 1367 1357 1406 1321 1369 1368 1369 1322 1370 1323 1371 1370 1324 1372 1371 1373 1372 1325 1374 1373 1326 1327 1375 1374 1375 1328 1376 1376 1329 1377 1330 1378 1377 1331 1379 1378 1379 1358 1407 1407 1358 1380 1380 1333 1381 1359 1408 1381 1382 1408 1359 1360 1409 1382 1383 1385 1337 1383 1335 1384 1385 1386 1338 1339 1386 1387 1388 1340 1387 1388 1389 1341 1390 1342 1389 1343 1390 1391 1391 1392 1344 1392 1393 1345 1393 1394 1346 1347 1394 1395 1395 1396 1348 1396 1397 1349 1398 1350 1397 1398 1399 1351 1352 1399 1400 1360 1400 1409 1384 1361 1410 1410 1361 1401 1401 1362 1411 1356 1402 1404 1355 1404 1403 1362 1403 1411 1363 1412 1364 1363 1365 1413 1414 1365 1366 1368 1415 1366 1357 1405 1406 1364 1412 1405 1416 1367 1406 1368 1369 1417 1418 1369 1370 1370 1371 1419 1371 1372 1420 1373 1421 1372 1374 1422 1373 1374 1375 1423 1424 1375 1376 1425 1376 1377 1377 1378 1426 1378 1379 1427 1379 1407 1428 1407 1380 1429 1429 1380 1381 1408 1430 1381 1382 1431 1408 1382 1409 1431 1432 1385 1383 1433 1383 1384 1385 1434 1386 1386 1435 1387 1436 1388 1387 1388 1437 1389 1438 1390 1389 1391 1390 1439 1391 1440 1392 1392 1441 1393 1393 1442 1394 1394 1443 1395 1444 1396 1395 1396 1445 1397 1446 1398 1397 1398 1447 1399 1400 1399 1448 1409 1400 1449 1433 1384 1410 1450 1410 1401 1450 1401 1411 1402 1451 1404 1404 1452 1403 1403 1453 1411 1363 1413 1412 1365 1414 1413 1415 1414 1366 1368 1417 1415 1405 1454 1406 1405 1412 1455 1454 1416 1406 1417 1369 1418 1418 1370 1419 1371 1420 1419 1372 1421 1420 1373 1422 1421 1374 1423 1422 1423 1375 1424 1425 1424 1376 1425 1377 1426 1378 1427 1426 1427 1379 1428 1428 1407 1456 1407 1429 1456 1430 1429 1381 1408 1457 1430 1408 1431 1457 1431 1409 1458 1432 1434 1385 1432 1383 1433 1434 1435 1386 1435 1436 1387 1436 1437 1388 1437 1438 1389 1439 1390 1438 1391 1439 1440 1392 1440 1441 1393 1441 1442 1394 1442 1443 1443 1444 1395 1444 1445 1396 1445 1446 1397 1446 1447 1398 1399 1447 1448 1449 1400 1448 1409 1449 1458 1459 1433 1410 1450 1459 1410 1450 1411 1460 1451 1452 1404 1452 1453 1403 1411 1453 1460 1413 1461 1412 1414 1462 1413 1415 1463 1414 1415 1417 1464 1454 1405 1455 1412 1461 1455 1465 1416 1454 1417 1418 1466 1467 1418 1419 1420 1468 1419 1421 1469 1420 1421 1422 1470 1422 1423 1471 1423 1424 1472 1473 1424 1425 1474 1425 1426 1426 1427 1475 1476 1427 1428 1477 1428 1456 1429 1478 1456 1430 1478 1429 1430 1457 1479 1457 1431 1480 1480 1431 1458 1432 1481 1434 1482 1432 1433 1434 1483 1435 1435 1484 1436 1437 1436 1485 1486 1438 1437 1439 1438 1487 1440 1439 1488 1441 1440 1489 1442 1441 1490 1443 1442 1491 1443 1492 1444 1444 1493 1445 1445 1494 1446 1446 1495 1447 1447 1496 1448 1449 1448 1497 1458 1449 1498 1459 1482 1433 1499 1459 1450 1499 1450 1460 1451 1500 1452 1452 1501 1453 1460 1453 1502 1462 1461 1413 1414 1463 1462 1415 1464 1463 1464 1417 1466 1503 1454 1455 1461 1503 1455 1465 1454 1504 1418 1467 1466 1468 1467 1419 1469 1468 1420 1421 1470 1469 1470 1422 1471 1423 1472 1471 1472 1424 1473 1473 1425 1474 1474 1426 1475 1427 1505 1475 1505 1427 1476 1477 1476 1428 1478 1477 1456 1478 1430 1479 1457 1506 1479 1457 1480 1506 1507 1480 1458 1482 1481 1432 1434 1481 1483 1483 1484 1435 1436 1484 1485 1486 1437 1485 1487 1438 1486 1439 1487 1488 1489 1440 1488 1441 1489 1490 1491 1442 1490 1443 1491 1492 1444 1492 1493 1445 1493 1494 1446 1494 1495 1447 1495 1496 1448 1496 1497 1449 1497 1498 1507 1458 1498 1508 1482 1459 1508 1459 1499 1509 1499 1460 1452 1500 1501 1453 1501 1502 1509 1460 1502 1510 1461 1462 1463 1511 1462 1463 1464 1512 1513 1464 1466 1454 1503 1504 1510 1503 1461 1514 1465 1504 1466 1467 1515 1468 1516 1467 1469 1517 1468 1469 1470 1518 1519 1470 1471 1471 1472 1520 1472 1473 1521 1473 1474 1522 1523 1474 1475 1505 1523 1475 1524 1505 1476 1525 1476 1477 1526 1477 1478 1527 1478 1479 1479 1506 1528 1506 1480 1529 1530 1480 1507 1531 1481 1482 1481 1532 1483 1533 1484 1483 1484 1534 1485 1535 1486 1485 1487 1486 1536 1487 1537 1488 1489 1488 1538 1490 1489 1539 1540 1491 1490 1492 1491 1541 1493 1492 1542 1494 1493 1543 1495 1494 1544 1496 1495 1545 1496 1546 1497 1497 1547 1498 1507 1498 1548 1531 1482 1508 1508 1499 1549 1549 1499 1509 1500 1550 1501 1501 1551 1502 1551 1509 1502 1511 1510 1462 1463 1512 1511 1512 1464 1513 1513 1466 1515 1504 1503 1552 1510 1553 1503 1554 1514 1504 1467 1516 1515 1468 1517 1516 1469 1518 1517 1518 1470 1519 1519 1471 1520 1472 1521 1520 1521 1473 1522 1522 1474 1523 1505 1555 1523 1524 1555 1505 1524 1476 1525 1525 1477 1526 1527 1526 1478 1527 1479 1528 1506 1556 1528 1480 1530 1529 1556 1506 1529 1530 1507 1557 1531 1532 1481 1532 1533 1483 1533 1534 1484 1534 1535 1485 1536 1486 1535 1487 1536 1537 1488 1537 1538 1489 1538 1539 1540 1490 1539 1541 1491 1540 1492 1541 1542 1543 1493 1542 1494 1543 1544 1545 1495 1544 1496 1545 1546 1546 1547 1497 1498 1547 1548 1557 1507 1548 1531 1508 1558 1508 1549 1558 1549 1509 1559 1501 1550 1551 1509 1551 1559 1511 1560 1510 1511 1512 1561 1512 1513 1562 1513 1515 1563 1503 1553 1552 1554 1504 1552 1510 1560 1553 1564 1514 1554 1516 1565 1515 1516 1517 1566 1517 1518 1567 1518 1519 1568 1569 1519 1520 1521 1569 1520 1521 1522 1570 1571 1522 1523 1555 1571 1523 1524 1572 1555 1573 1524 1525 1574 1525 1526 1527 1575 1526 1576 1527 1528 1556 1576 1528 1530 1577 1529 1577 1556 1529 1578 1530 1557 1579 1532 1531 1580 1533 1532 1581 1534 1533 1582 1535 1534 1536 1535 1583 1536 1584 1537 1537 1585 1538 1538 1586 1539 1540 1539 1587 1541 1540 1588 1541 1589 1542 1543 1542 1590 1544 1543 1591 1592 1545 1544 1546 1545 1593 1546 1594 1547 1547 1595 1548 1595 1557 1548 1579 1531 1558 1558 1549 1596 1597 1549 1559 1550 1598 1551 1551 1599 1559 1511 1561 1560 1561 1512 1562 1562 1513 1563 1515 1565 1563 1553 1600 1552 1600 1554 1552 1553 1560 1601 1602 1564 1554 1516 1566 1565 1566 1517 1567 1518 1568 1567 1568 1519 1603 1519 1569 1603 1569 1521 1570 1522 1604 1570 1571 1604 1522 1605 1571 1555 1573 1572 1524 1572 1605 1555 1574 1573 1525 1575 1574 1526 1576 1575 1527 1578 1577 1530 1606 1578 1557 1580 1532 1579 1581 1533 1580 1582 1534 1581 1583 1535 1582 1536 1583 1584 1584 1585 1537 1585 1586 1538 1539 1586 1587 1588 1540 1587 1541 1588 1589 1542 1589 1590 1543 1590 1591 1592 1544 1591 1593 1545 1592 1546 1593 1594 1594 1595 1547 1595 1606 1557 1607 1579 1558 1549 1597 1596 1607 1558 1596 1599 1597 1559 1598 1599 1551 1560 1561 1608 1609 1561 1562 1610 1562 1563 1563 1565 1611 1553 1601 1600 1602 1554 1600 1560 1608 1601 1612 1564 1602 1565 1566 1613 1614 1566 1567 1567 1568 1615 1616 1568 1603 1569 1617 1603 1618 1569 1570 1604 1618 1570 1619 1604 1571 1605 1619 1571 1580 1579 1620 1581 1580 1621 1582 1581 1622 1583 1582 1623 1584 1583 1624 1584 1625 1585 1585 1626 1586 1586 1627 1587 1628 1588 1587 1589 1588 1629 1589 1630 1590 1590 1631 1591 1592 1591 1632 1593 1592 1633 1594 1593 1634 1595 1594 1635 1636 1606 1595 1579 1607 1620 1597 1637 1596 1637 1607 1596 1599 1638 1597 1598 1639 1599 1608 1561 1609 1610 1609 1562 1610 1563 1611 1565 1613 1611 1601 1640 1600 1640 1602 1600 1608 1641 1601 1612 1602 1642 1613 1566 1614 1614 1567 1615 1568 1616 1615 1617 1616 1603 1618 1617 1569 1604 1643 1618 1619 1643 1604 1621 1580 1620 1581 1621 1622 1623 1582 1622 1624 1583 1623 1584 1624 1625 1585 1625 1626 1626 1627 1586 1627 1628 1587 1588 1628 1629 1630 1589 1629 1630 1631 1590 1591 1631 1632 1633 1592 1632 1593 1633 1634 1644 1594 1634 1636 1595 1635 1594 1644 1635 1607 1645 1620 1637 1597 1646 1637 1645 1607 1599 1639 1638 1597 1638 1646 1608 1609 1647 1648 1609 1610 1649 1610 1611 1611 1613 1650 1601 1641 1640 1642 1602 1640 1608 1647 1641 1651 1612 1642 1613 1614 1652 1653 1614 1615 1616 1653 1615 1617 1654 1616 1655 1617 1618 1643 1655 1618 1656 1621 1620 1622 1621 1657 1658 1623 1622 1659 1624 1623 1625 1624 1660 1625 1661 1626 1662 1627 1626 1627 1663 1628 1628 1664 1629 1665 1630 1629 1630 1666 1631 1631 1667 1632 1633 1632 1668 1633 1669 1634 1669 1644 1634 1670 1636 1635 1644 1670 1635 1645 1656 1620 1637 1646 1671 1672 1645 1637 1639 1673 1638 1638 1674 1646 1647 1609 1648 1648 1610 1649 1649 1611 1650 1650 1613 1652 1641 1675 1640 1675 1642 1640 1641 1647 1676 1651 1642 1677 1614 1678 1652 1614 1653 1678 1679 1653 1616 1655 1654 1617 1654 1679 1616 1621 1656 1657 1658 1622 1657 1658 1659 1623 1660 1624 1659 1625 1660 1661 1661 1662 1626 1662 1663 1627 1663 1664 1628 1664 1665 1629 1665 1666 1630 1631 1666 1667 1632 1667 1668 1669 1633 1668 1669 1680 1644 1680 1670 1644 1645 1681 1656 1672 1637 1671 1646 1674 1671 1672 1681 1645 1673 1674 1638 1647 1648 1682 1648 1649 1683 1684 1649 1650 1685 1650 1652 1641 1676 1675 1642 1675 1677 1676 1647 1682 1686 1651 1677 1678 1685 1652 1653 1687 1678 1679 1687 1653 1656 1688 1657 1689 1658 1657 1658 1690 1659 1691 1660 1659 1661 1660 1692 1661 1693 1662 1662 1694 1663 1663 1695 1664 1664 1696 1665 1665 1697 1666 1667 1666 1698 1668 1667 1699 1700 1669 1668 1701 1680 1669 1681 1688 1656 1702 1672 1671 1674 1702 1671 1703 1681 1672 1673 1704 1674 1648 1683 1682 1683 1649 1684 1685 1684 1650 1676 1705 1675 1675 1705 1677 1706 1676 1682 1686 1677 1707 1708 1685 1678 1687 1708 1678 1688 1689 1657 1689 1690 1658 1690 1691 1659 1692 1660 1691 1661 1692 1693 1662 1693 1694 1663 1694 1695 1664 1695 1696 1665 1696 1697 1666 1697 1698 1667 1698 1699 1700 1668 1699 1701 1669 1700 1681 1709 1688 1703 1672 1702 1674 1704 1702 1703 1709 1681 1683 1706 1682 1710 1683 1684 1685 1711 1684 1705 1676 1712 1677 1705 1707 1676 1706 1712 1713 1686 1707 1708 1711 1685 1714 1689 1688 1689 1715 1690 1716 1691 1690 1692 1691 1717 1693 1692 1718 1694 1693 1719 1695 1694 1720 1696 1695 1721 1697 1696 1722 1697 1723 1698 1698 1724 1699 1724 1700 1699 1725 1701 1700 1709 1714 1688 1726 1703 1702 1704 1727 1702 1728 1709 1703 1729 1706 1683 1710 1729 1683 1711 1710 1684 1730 1705 1712 1705 1731 1707 1706 1732 1712 1731 1713 1707 1714 1715 1689 1715 1716 1690 1717 1691 1716 1692 1717 1718 1693 1718 1719 1720 1694 1719 1695 1720 1721 1722 1696 1721 1697 1722 1723 1698 1723 1733 1724 1698 1733 1724 1725 1700 1734 1714 1709 1726 1728 1703 1727 1726 1702 1734 1709 1728 1729 1732 1706 1730 1731 1705 1732 1730 1712 1735 1715 1714 1736 1716 1715 1717 1716 1737 1717 1738 1718 1718 1739 1719 1720 1719 1740 1721 1720 1741 1722 1721 1742 1723 1722 1743 1723 1744 1733 1745 1724 1733 1745 1725 1724 1735 1714 1734 1728 1726 1746 1727 1747 1726 1734 1728 1748 1736 1715 1735 1737 1716 1736 1717 1737 1738 1738 1739 1718 1719 1739 1740 1720 1740 1741 1721 1741 1742 1743 1722 1742 1744 1723 1743 1744 1749 1733 1749 1745 1733 1735 1734 1750 1726 1747 1746 1748 1728 1746 1734 1748 1750 1736 1735 1751 1737 1736 1752 1738 1737 1753 1738 1754 1739 1739 1755 1740 1740 1756 1741 1741 1757 1742 1757 1743 1742 1758 1744 1743 1759 1749 1744 1751 1735 1750 1747 1760 1746 1748 1746 1761 1748 1762 1750 1736 1751 1752 1753 1737 1752 1738 1753 1754 1754 1755 1739 1755 1756 1740 1741 1756 1763 1757 1741 1763 1757 1758 1743 1759 1744 1758 1751 1750 1764 1746 1760 1761 1762 1748 1761 1750 1762 1764 1752 1751 1765 1766 1753 1752 1754 1753 1767 1754 1768 1755 1755 1769 1756 1756 1770 1763 1771 1757 1763 1771 1758 1757 1772 1759 1758 1765 1751 1764 1760 1773 1761 1774 1762 1761 1762 1775 1764 1766 1752 1765 1767 1753 1766 1754 1767 1768 1755 1768 1769 1756 1769 1770 1770 1771 1763 1771 1772 1758 1775 1765 1764 1773 1774 1761 1774 1775 1762 1776 1766 1765 1767 1766 1777 1768 1767 1778 1769 1768 1779 1769 1780 1770 1781 1771 1770 1781 1772 1771 1765 1775 1782 1773 1783 1774 1774 1784 1775 1777 1766 1776 1776 1765 1782 1767 1777 1778 1779 1768 1778 1780 1769 1779 1780 1785 1770 1785 1781 1770 1775 1784 1782 1774 1783 1784 1777 1776 1786 1776 1782 1787 1777 1788 1778 1779 1778 1789 1780 1779 1790 1791 1785 1780 1784 1792 1782 1783 1793 1784 1777 1786 1788 1786 1776 1787 1782 1792 1787 1778 1788 1789 1790 1779 1789 1791 1780 1790 1793 1792 1784 1788 1786 1794 1795 1786 1787 1792 1795 1787 1789 1788 1796 1797 1790 1789 1798 1791 1790 1793 1799 1792 1794 1786 1795 1788 1794 1796 1795 1792 1800 1797 1789 1796 1797 1798 1790 1792 1799 1800 1794 1795 1801 1794 1802 1796 1803 1795 1800 1802 1797 1796 1804 1798 1797 1799 1805 1800 1806 1794 1801 1795 1803 1801 1794 1806 1802 1805 1803 1800 1804 1797 1802 1803 1806 1801 1806 1807 1802 1805 1808 1803 1807 1804 1802 1806 1803 1809 1810 1807 1806 1803 1808 1809 1810 1806 1809 1808 1811 1809 1811 1810 1809 </DataArray>
        <DataArray type="Int32" Name="offsets" format="ascii">3 6 9 12 15 18 21 24 27 30 33 36 39 42 45 48 51 54 57 60 63 66 69 72 75 78 81 84 87 90 93 96 99 102 105 108 111 114 117 120 123 126 129 132 135 138 141 144 147 150 153 156 159 162 165 168 171 174 177 180 183 186 189 192 195 198 201 204 207 210 213 216 219 222 225 228 231 234 237 240 243 246 249 252 255 258 261 264 267 270 273 276 279 282 285 288 291 294 297 300 303 306 309 312 315 318 321 324 327 330 333 336 339 342 345 348 351 354 357 360 363 366 369 372 375 378 381 384 387 390 393 396 399 402 405 408 411 414 417 420 423 426 429 432 435 438 441 444 447 450 453 456 459 462 465 468 471 474 477 480 483 486 489 492 495 498 501 504 507 510 513 516 519 522 525 528 531 534 537 540 543 546 549 552 555 558 561 564 567 570 573 576 579 582 585 588 591 594 597 600 603 606 609 612 615 618 621 624 627 630 633 636 639 642 645 648 651 654 657 660 663 666 669 672 675 678 681 684 687 690 693 696 699 702 705 708 711 714 717 720 723 726 729 732 735 738 741 744 747 750 753 756 759 762 765 768 771 774 777 780 783 786 789 792 795 798 801 804 807 810 813 816 819 822 825 828 831 834 837 840 843 846 849 852 855 858 861 864 867 870 873 876 879 882 885 888 891 894 897 900 903 906 909 912 915 918 921 924 927 930 933 936 939 942 945 948 951 954 957 960 963 966 969 972 975 978 981 984 987 990 993 996 999 1002 1005 1008 1011 1014 1017 1020 1023 1026 1029 1032 1035 1038 1041 1044 1047 1050 1053 1056 1059 1062 1065 1068 1071 1074 1077 1080 1083 1086 1089 1092 1095 1098 1101 1104 1107 1110 1113 1116 1119 1122 1125 1128 1131 1134 1137 1140 1143 1146 1149 1152 1155 1158 1161 1164 1167 1170 1173 1176 1179 1182 1185 1188 1191 1194 1197 1200 1203 1206 1209 1212 1215 1218 1221 1224 1227 1230 1233 1236 1239 1242 1245 1248 1251 1254 1257 1260 1263 1266 1269 1272 1275 1278 1281 1284 1287 1290 1293 1296 1299 1302 1305 1308 1311 1314 1317 1320 1323 1326 1329 1332 1335 1338 1341 1344 1347 1350 1353 1356 1359 1362 1365 1368 1371 1374 1377 1380 1383 1386 1389 1392 1395 1398 1401 1404 1407 1410 1413 1416 1419 1422 1425 1428 1431 1434 1437 1440 1443 1446 1449 1452 1455 1458 1461 1464 1467 1470 1473 1476 1479 1482 1485 1488 1491 1494 1497 1500 1503 1506 1509 1512 1515 1518 1521 1524 1527 1530 1533 1536 1539 1542 1545 1548 1551 1554 1557 1560 1563 1566 1569 1572 1575 1578 1581 1584 1587 1590 1593 1596 1599 1602 1605 1608 1611 1614 1617 1620 1623 1626 1629 1632 1635 1638 1641 1644 1647 1650 1653 1656 1659 1662 1665 1668 1671 1674 1677 1680 1683 1686 1689 1692 1695 1698 1701 1704 1707 1710 1713 1716 1719 1722 1725 1728 1731 1734 1737 1740 1743 1746 1749 1752 1755 1758 1761 1764 1767 1770 1773 1776 1779 1782 1785 1788 1791 1794 1797 1800 1803 1806 1809 1812 1815 1818 1821 1824 1827 1830 1833 1836 1839 1842 1845 1848 1851 1854 1857 1860 1863 1866 1869 1872 1875 1878 1881 1884 1887 1890 1893 1896 1899 1902 1905 1908 1911 1914 1917 1920 1923 1926 1929 1932 1935 1938 1941 1944 1947 1950 1953 1956 1959 1962 1965 1968 1971 1974 1977 1980 1983 1986 1989 1992 1995 1998 2001 2004 2007 2010 2013 2016 2019 2022 2025 2028 2031 2034 2037 2040 2043 2046 2049 2052 2055 2058 2061 2064 2067 2070 2073 2076 2079 2082 2085 2088 2091 2094 2097 2100 2103 2106 2109 2112 2115 2118 2121 2124 2127 2130 2133 2136 2139 2142 2145 2148 2151 2154 2157 2160 2163 2166 2169 2172 2175 2178 2181 2184 2187 2190 2193 2196 2199 2202 2205 2208 2211 2214 2217 2220 2223 2226 2229 2232 2235 2238 2241 2244 2247 2250 2253 2256 2259 2262 2265 2268 2271 2274 2277 2280 2283 2286 2289 2292 2295 2298 2301 2304 2307 2310 2313 2316 2319 2322 2325 2328 2331 2334 2337 2340 2343 2346 2349 2352 2355 2358 2361 2364 2367 2370 2373 2376 2379 2382 2385 2388 2391 2394 2397 2400 2403 2406 2409 2412 2415 2418 2421 2424 2427 2430 2433 2436 2439 2442 2445 2448 2451 2454 2457 2460 2463 2466 2469 2472 2475 2478 2481 2484 2487 2490 2493 2496 2499 2502 2505 2508 2511 2514 2517 2520 2523 2526 2529 2532 2535 2538 2541 2544 2547 2550 2553 2556 2559 2562 2565 2568 2571 2574 2577 2580 2583 2586 2589 2592 2595 2598 2601 2604 2607 2610 2613 2616 2619 2622 2625 2628 2631 2634 2637 2640 2643 2646 2649 2652 2655 2658 2661 2664 2667 2670 2673 2676 2679 2682 2685 2688 2691 2694 2697 2700 2703 2706 2709 2712 2715 2718 2721 2724 2727 2730 2733 2736 2739 2742 2745 2748 2751 2754 2757 2760 2763 2766 2769 2772 2775 2778 2781 2784 2787 2790 2793 2796 2799 2802 2805 2808 2811 2814 2817 2820 2823 2826 2829 2832 2835 2838 2841 2844 2847 2850 2853 2856 2859 2862 2865 2868 2871 2874 2877 2880 2883 2886 2889 2892 2895 2898 2901 2904 2907 2910 2913 2916 2919 2922 2925 2928 2931 2934 2937 2940 2943 2946 2949 2952 2955 2958 2961 2964 2967 2970 2973 2976 2979 2982 2985 2988 2991 2994 2997 3000 3003 3006 3009 3012 3015 3018 3021 3024 3027 3030 3033 3036 3039 3042 3045 3048 3051 3054 3057 3060 3063 3066 3069 3072 3075 3078 3081 3084 3087 3090 3093 3096 3099 3102 3105 3108 3111 3114 3117 3120 3123 3126 3129 3132 3135 3138 3141 3144 3147 3150 3153 3156 3159 3162 3165 3168 3171 3174 3177 3180 3183 3186 3189 3192 3195 3198 3201 3204 3207 3210 3213 3216 3219 3222 3225 3228 3231 3234 3237 3240 3243 3246 3249 3252 3255 3258 3261 3264 3267 3270 3273 3276 3279 3282 3285 3288 3291 3294 3297 3300 3303 3306 3309 3312 3315 3318 3321 3324 3327 3330 3333 3336 3339 3342 3345 3348 3351 3354 3357 3360 3363 3366 3369 3372 3375 3378 3381 3384 3387 3390 3393 3396 3399 3402 3405 3408 3411 3414 3417 3420 3423 3426 3429 3432 3435 3438 3441 3444 3447 3450 3453 3456 3459 3462 3465 3468 3471 3474 3477 3480 3483 3486 3489 3492 3495 3498 3501 3504 3507 3510 3513 3516 3519 3522 3525 3528 3531 3534 3537 3540 3543 3546 3549 3552 3555 3558 3561 3564 3567 3570 3573 3576 3579 3582 3585 3588 3591 3594 3597 3600 3603 3606 3609 3612 3615 3618 3621 3624 3627 3630 3633 3636 3639 3642 3645 3648 3651 3654 3657 3660 3663 3666 3669 3672 3675 3678 3681 3684 3687 3690 3693 3696 3699 3702 3705 3708 3711 3714 3717 3720 3723 3726 3729 3732 3735 3738 3741 3744 3747 3750 3753 3756 3759 3762 3765 3768 3771 3774 3777 3780 3783 3786 3789 3792 3795 3798 3801 3804 3807 3810 3813 3816 3819 3822 3825 3828 3831 3834 3837 3840 3843 3846 3849 3852 3855 3858 3861 3864 3867 3870 3873 3876 3879 3882 3885 3888 3891 3894 3897 3900 3903 3906 3909 3912 3915 3918 3921 3924 3927 3930 3933 3936 3939 3942 3945 3948 3951 3954 3957 3960 3963 3966 3969 3972 3975 3978 3981 3984 3987 3990 3993 3996 3999 4002 4005 4008 4011 4014 4017 4020 4023 4026 4029 4032 4035 4038 4041 4044 4047 4050 4053 4056 4059 4062 4065 4068 4071 4074 4077 4080 4083 4086 4089 4092 4095 4098 4101 4104 4107 4110 4113 4116 4119 4122 4125 4128 4131 4134 4137 4140 4143 4146 4149 4152 4155 4158 4161 4164 4167 4170 4173 4176 4179 4182 4185 4188 4191 4194 4197 4200 4203 4206 4209 4212 4215 4218 4221 4224 4227 4230 4233 4236 4239 4242 4245 4248 4251 4254 4257 4260 4263 4266 4269 4272 4275 4278 4281 4284 4287 4290 4293 4296 4299 4302 4305 4308 4311 4314 4317 4320 4323 4326 4329 4332 4335 4338 4341 4344 4347 4350 4353 4356 4359 4362 4365 4368 4371 4374 4377 4380 4383 4386 4389 4392 4395 4398 4401 4404 4407 4410 4413 4416 4419 4422 4425 4428 4431 4434 4437 4440 4443 4446 4449 4452 4455 4458 4461 4464 4467 4470 4473 4476 4479 4482 4485 4488 4491 4494 4497 4500 4503 4506 4509 4512 4515 4518 4521 4524 4527 4530 4533 4536 4539 4542 4545 4548 4551 4554 4557 4560 4563 4566 4569 4572 4575 4578 4581 4584 4587 4590 4593 4596 4599 4602 4605 4608 4611 4614 4617 4620 4623 4626 4629 4632 4635 4638 4641 4644 4647 4650 4653 4656 4659 4662 4665 4668 4671 4674 4677 4680 4683 4686 4689 4692 4695 4698 4701 4704 4707 4710 4713 4716 4719 4722 4725 4728 4731 4734 4737 4740 4743 4746 4749 4752 4755 4758 4761 4764 4767 4770 4773 4776 4779 4782 4785 4788 4791 4794 4797 4800 4803 4806 4809 4812 4815 4818 4821 4824 4827 4830 4833 4836 4839 4842 4845 4848 4851 4854 4857 4860 4863 4866 4869 4872 4875 4878 4881 4884 4887 4890 4893 4896 4899 4902 4905 4908 4911 4914 4917 4920 4923 4926 4929 4932 4935 4938 4941 4944 4947 4950 4953 4956 4959 4962 4965 4968 4971 4974 4977 4980 4983 4986 4989 4992 4995 4998 5001 5004 5007 5010 5013 5016 5019 5022 5025 5028 5031 5034 5037 5040 5043 5046 5049 5052 5055 5058 5061 5064 5067 5070 5073 5076 5079 5082 5085 5088 5091 5094 5097 5100 5103 5106 5109 5112 5115 5118 5121 5124 5127 5130 5133 5136 5139 5142 5145 5148 5151 5154 5157 5160 5163 5166 5169 5172 5175 5178 5181 5184 5187 5190 5193 5196 5199 5202 5205 5208 5211 5214 5217 5220 5223 5226 5229 5232 5235 5238 5241 5244 5247 5250 5253 5256 5259 5262 5265 5268 5271 5274 5277 5280 5283 5286 5289 5292 5295 5298 5301 5304 5307 5310 5313 5316 5319 5322 5325 5328 5331 5334 5337 5340 5343 5346 5349 5352 5355 5358 5361 5364 5367 5370 5373 5376 5379 5382 5385 5388 5391 5394 5397 5400 5403 5406 5409 5412 5415 5418 5421 5424 5427 5430 5433 5436 5439 5442 5445 5448 5451 5454 5457 5460 5463 5466 5469 5472 5475 5478 5481 5484 5487 5490 5493 5496 5499 5502 5505 5508 5511 5514 5517 5520 5523 5526 5529 5532 5535 5538 5541 5544 5547 5550 5553 5556 5559 5562 5565 5568 5571 5574 5577 5580 5583 5586 5589 5592 5595 5598 5601 5604 5607 5610 5613 5616 5619 5622 5625 5628 5631 5634 5637 5640 5643 5646 5649 5652 5655 5658 5661 5664 5667 5670 5673 5676 5679 5682 5685 5688 5691 5694 5697 5700 5703 5706 5709 5712 5715 5718 5721 5724 5727 5730 5733 5736 5739 5742 5745 5748 5751 5754 5757 5760 5763 5766 5769 5772 5775 5778 5781 5784 5787 5790 5793 5796 5799 5802 5805 5808 5811 5814 5817 5820 5823 5826 5829 5832 5835 5838 5841 5844 5847 5850 5853 5856 5859 5862 5865 5868 5871 5874 5877 5880 5883 5886 5889 5892 5895 5898 5901 5904 5907 5910 5913 5916 5919 5922 5925 5928 5931 5934 5937 5940 5943 5946 5949 5952 5955 5958 5961 5964 5967 5970 5973 5976 5979 5982 5985 5988 5991 5994 5997 6000 6003 6006 6009 6012 6015 6018 6021 6024 6027 6030 6033 6036 6039 6042 6045 6048 6051 6054 6057 6060 6063 6066 6069 6072 6075 6078 6081 6084 6087 6090 6093 6096 6099 6102 6105 6108 6111 6114 6117 6120 6123 6126 6129 6132 6135 6138 6141 6144 6147 6150 6153 6156 6159 6162 6165 6168 6171 6174 6177 6180 6183 6186 6189 6192 6195 6198 6201 6204 6207 6210 6213 6216 6219 6222 6225 6228 6231 6234 6237 6240 6243 6246 6249 6252 6255 6258 6261 6264 6267 6270 6273 6276 6279 6282 6285 6288 6291 6294 6297 6300 6303 6306 6309 6312 6315 6318 6321 6324 6327 6330 6333 6336 6339 6342 6345 6348 6351 6354 6357 6360 6363 6366 6369 6372 6375 6378 6381 6384 6387 6390 6393 6396 6399 6402 6405 6408 6411 6414 6417 6420 6423 6426 6429 6432 6435 6438 6441 6444 6447 6450 6453 6456 6459 6462 6465 6468 6471 6474 6477 6480 6483 6486 6489 6492 6495 6498 6501 6504 6507 6510 6513 6516 6519 6522 6525 6528 6531 6534 6537 6540 6543 6546 6549 6552 6555 6558 6561 6564 6567 6570 6573 6576 6579 6582 6585 6588 6591 6594 6597 6600 6603 6606 6609 6612 6615 6618 6621 6624 6627 6630 6633 6636 6639 6642 6645 6648 6651 6654 6657 6660 6663 6666 6669 6672 6675 6678 6681 6684 6687 6690 6693 6696 6699 6702 6705 6708 6711 6714 6717 6720 6723 6726 6729 6732 6735 6738 6741 6744 6747 6750 6753 6756 6759 6762 6765 6768 6771 6774 6777 6780 6783 6786 6789 6792 6795 6798 6801 6804 6807 6810 6813 6816 6819 6822 6825 6828 6831 6834 6837 6840 6843 6846 6849 6852 6855 6858 6861 6864 6867 6870 6873 6876 6879 6882 6885 6888 6891 6894 6897 6900 6903 6906 6909 6912 6915 6918 6921 6924 6927 6930 6933 6936 6939 6942 6945 6948 6951 6954 6957 6960 6963 6966 6969 6972 6975 6978 6981 6984 6987 6990 6993 6996 6999 7002 7005 7008 7011 7014 7017 7020 7023 7026 7029 7032 7035 7038 7041 7044 7047 7050 7053 7056 7059 7062 7065 7068 7071 7074 7077 7080 7083 7086 7089 7092 7095 7098 7101 7104 7107 7110 7113 7116 7119 7122 7125 7128 7131 7134 7137 7140 7143 7146 7149 7152 7155 7158 7161 7164 7167 7170 7173 7176 7179 7182 7185 7188 7191 7194 7197 7200 7203 7206 7209 7212 7215 7218 7221 7224 7227 7230 7233 7236 7239 7242 7245 7248 7251 7254 7257 7260 7263 7266 7269 7272 7275 7278 7281 7284 7287 7290 7293 7296 7299 7302 7305 7308 7311 7314 7317 7320 7323 7326 7329 7332 7335 7338 7341 7344 7347 7350 7353 7356 7359 7362 7365 7368 7371 7374 7377 7380 7383 7386 7389 7392 7395 7398 7401 7404 7407 7410 7413 7416 7419 7422 7425 7428 7431 7434 7437 7440 7443 7446 7449 7452 7455 7458 7461 7464 7467 7470 7473 7476 7479 7482 7485 7488 7491 7494 7497 7500 7503 7506 7509 7512 7515 7518 7521 7524 7527 7530 7533 7536 7539 7542 7545 7548 7551 7554 7557 7560 7563 7566 7569 7572 7575 7578 7581 7584 7587 7590 7593 7596 7599 7602 7605 7608 7611 7614 7617 7620 7623 7626 7629 7632 7635 7638 7641 7644 7647 7650 7653 7656 7659 7662 7665 7668 7671 7674 7677 7680 7683 7686 7689 7692 7695 7698 7701 7704 7707 7710 7713 7716 7719 7722 7725 7728 7731 7734 7737 7740 7743 7746 7749 7752 7755 7758 7761 7764 7767 7770 7773 7776 7779 7782 7785 7788 7791 7794 7797 7800 7803 7806 7809 7812 7815 7818 7821 7824 7827 7830 7833 7836 7839 7842 7845 7848 7851 7854 7857 7860 7863 7866 7869 7872 7875 7878 7881 7884 7887 7890 7893 7896 7899 7902 7905 7908 7911 7914 7917 7920 7923 7926 7929 7932 7935 7938 7941 7944 7947 7950 7953 7956 7959 7962 7965 7968 7971 7974 7977 7980 7983 7986 7989 7992 7995 7998 8001 8004 8007 8010 8013 8016 8019 8022 8025 8028 8031 8034 8037 8040 8043 8046 8049 8052 8055 8058 8061 8064 8067 8070 8073 8076 8079 8082 8085 8088 8091 8094 8097 8100 8103 8106 8109 8112 8115 8118 8121 8124 8127 8130 8133 8136 8139 8142 8145 8148 8151 8154 8157 8160 8163 8166 8169 8172 8175 8178 8181 8184 8187 8190 8193 8196 8199 8202 8205 8208 8211 8214 8217 8220 8223 8226 8229 8232 8235 8238 8241 8244 8247 8250 8253 8256 8259 8262 8265 8268 8271 8274 8277 8280 8283 8286 8289 8292 8295 8298 8301 8304 8307 8310 8313 8316 8319 8322 8325 8328 8331 8334 8337 8340 8343 8346 8349 8352 8355 8358 8361 8364 8367 8370 8373 8376 8379 8382 8385 8388 8391 8394 8397 8400 8403 8406 8409 8412 8415 8418 8421 8424 8427 8430 8433 8436 8439 8442 8445 8448 8451 8454 8457 8460 8463 8466 8469 8472 8475 8478 8481 8484 8487 8490 8493 8496 8499 8502 8505 8508 8511 8514 8517 8520 8523 8526 8529 8532 8535 8538 8541 8544 8547 8550 8553 8556 8559 8562 8565 8568 8571 8574 8577 8580 8583 8586 8589 8592 8595 8598 8601 8604 8607 8610 8613 8616 8619 8622 8625 8628 8631 8634 8637 8640 8643 8646 8649 8652 8655 8658 8661 8664 8667 8670 8673 8676 8679 8682 8685 8688 8691 8694 8697 8700 8703 8706 8709 8712 8715 8718 8721 8724 8727 8730 8733 8736 8739 8742 8745 8748 8751 8754 8757 8760 8763 8766 8769 8772 8775 8778 8781 8784 8787 8790 8793 8796 8799 8802 8805 8808 8811 8814 8817 8820 8823 8826 8829 8832 8835 8838 8841 8844 8847 8850 8853 8856 8859 8862 8865 8868 8871 8874 8877 8880 8883 8886 8889 8892 8895 8898 8901 8904 8907 8910 8913 8916 8919 8922 8925 8928 8931 8934 8937 8940 8943 8946 8949 8952 8955 8958 8961 8964 8967 8970 8973 8976 8979 8982 8985 8988 8991 8994 8997 9000 9003 9006 9009 9012 9015 9018 9021 9024 9027 9030 9033 9036 9039 9042 9045 9048 9051 9054 9057 9060 9063 9066 9069 9072 9075 9078 9081 9084 9087 9090 9093 9096 9099 9102 9105 9108 9111 9114 9117 9120 9123 9126 9129 9132 9135 9138 9141 9144 9147 9150 9153 9156 9159 9162 9165 9168 9171 9174 9177 9180 9183 9186 9189 9192 9195 9198 9201 9204 9207 9210 9213 9216 9219 9222 9225 9228 9231 9234 9237 9240 9243 9246 9249 9252 9255 9258 9261 9264 9267 9270 9273 9276 9279 9282 9285 9288 9291 9294 9297 9300 9303 9306 9309 9312 9315 9318 9321 9324 9327 9330 9333 9336 9339 9342 9345 9348 9351 9354 9357 9360 9363 9366 9369 9372 9375 9378 9381 9384 9387 9390 9393 9396 9399 9402 9405 9408 9411 9414 9417 9420 9423 9426 9429 9432 9435 9438 9441 9444 9447 9450 9453 9456 9459 9462 9465 9468 9471 9474 9477 9480 9483 9486 9489 9492 9495 9498 9501 9504 9507 9510 9513 9516 9519 9522 9525 9528 9531 9534 9537 9540 9543 9546 9549 9552 9555 9558 9561 9564 9567 9570 9573 9576 9579 9582 9585 9588 9591 9594 9597 9600 9603 9606 9609 9612 9615 9618 9621 9624 9627 9630 9633 9636 9639 9642 9645 9648 9651 9654 9657 9660 9663 9666 9669 9672 9675 9678 9681 9684 9687 9690 9693 9696 9699 9702 9705 9708 9711 9714 9717 9720 9723 9726 9729 9732 9735 9738 9741 9744 9747 9750 9753 9756 9759 9762 9765 9768 9771 9774 9777 9780 9783 9786 9789 9792 9795 9798 9801 9804 9807 9810 9813 9816 9819 9822 9825 9828 9831 9834 9837 9840 9843 9846 9849 9852 9855 9858 9861 9864 9867 9870 9873 9876 9879 9882 9885 9888 9891 9894 9897 9900 9903 9906 9909 9912 9915 9918 9921 9924 9927 9930 9933 9936 9939 9942 9945 9948 9951 9954 9957 9960 9963 9966 9969 9972 9975 9978 9981 9984 9987 9990 9993 9996 9999 10002 10005 10008 10011 10014 10017 10020 10023 10026 10029 10032 10035 10038 10041 10044 10047 10050 10053 10056 10059 10062 10065 10068 10071 10074 10077 10080 10083 10086 10089 10092 10095 10098 10101 10104 10107 10110 10113 10116 10119 10122 10125 10128 10131 10134 10137 10140 10143 10146 10149 10152 10155 10158 10161 10164 10167 10170 10173 10176 10179 10182 10185 10188 10191 10194 10197 10200 10203 10206 10209 10212 10215 10218 10221 10224 10227 10230 10233 10236 10239 10242 10245 10248 10251 10254 10257 10260 10263 10266 10269 10272 10275 10278 10281 10284 10287 10290 10293 10296 10299 10302 10305 10308 10311 10314 10317 10320 10323 10326 10329 10332 10335 10338 10341 10344 10347 10350 10353 10356 10359 10362 10365 10368 10371 10374 10377 10380 10383 10386 10389 10392 10395 10398 10401 </DataArray>
        <DataArray type="Int8" Name="types" format="ascii">69 69 69 69 69 69 69 69 69 69 69 69 69 69 69 69 69 69 69 69 69 69 69 69 69 69 69 69 69 69 69 69 69 69 69 69 69 69 69 69 69 69 69 69 69 69 69 69 69 69 69 69 69 69 69 69 69 69 69 69 69 69 69 69 69 69 69 69 69 69 69 69 69 69 69 69 69 69 69 69 69 69 69 69 69 69 69 69 69 69 69 69 69 69 69 69 69 69 69 69 69 69 69 69 69 69 69 69 69 69 69 69 69 69 69 69 69 69 69 69 69 69 69 69 69 69 69 69 69 69 69 69 69 69 69 69 69 69 69 69 69 69 69 69 69 69 69 69 69 69 69 69 69 69 69 69 69 69 69 69 69 69 69 69 69 69 69 69 69 69 69 69 69 69 69 69 69 69 69 69 69 69 69 69 69 69 69 69 69 69 69 69 69 69 69 69 69 69 69 69 69 69 69 69 69 69 69 69 69 69 69 69 69 69 69 69 69 69 69 69 69 69 69 69 69 69 69 69 69 69 69 69 69 69 69 69 69 69 69 69 69 69 69 69 69 69 69 69 69 69 69 69 69 69 69 69 69 69 69 69 69 69 69 69 69 69 69 69 69 69 69 69 69 69 69 69 69 69 69 69 69 69 69 69 69 69 69 69 69 69 69 69 69 69 69 69 69 69 69 69 69 69 69 69 69 69 69 69 69 69 69 69 69 69 69 69 69 69 69 69 69 69 69 69 69 69 69 69 69 69 69 69 69 69 69 69 69 69 69 69 69 69 69 69 69 69 69 69 69 69 69 69 69 69 69 69 69 69 69 69 69 69 69 69 69 69 69 69 69 69 69 69 69 69 69 69 69 69 69 69 69 69 69 69 69 69 69 69 69 69 69 69 69 69 69 69 69 69 69 69 69 69 69 69 69 69 69 69 69 69 69 69 69 69 69 69 69 69 69 69 69 69 69 69 69 69 69 69 69 69 69 69 69 69 69 69 69 69 69 69 69 69 69 69 69 69 69 69 69 69 69 69 69 69 69 69 69 69 69 69 69 69 69 69 69 69 69 69 69 69 69 69 69 69 69 69 69 69 69 69 69 69 69 69 69 69 69 69 69 69 69 69 69 69 69 69 69 69 69 69 69 69 69 69 69 69 69 69 69 69 69 69 69 69 69 69 69 69 69 69 69 69 69 69 69 69 69 69 69 69 69 69 69 69 69 69 69 69 69 69 69 69 69 69 69 69 69 69 69 69 69 69 69 69 69 69 69 69 69 69 69 69 69 69 69 69 69 69 69 69 69 69 69 69 69 69 69 69 69 69 69 69 69 69 69 69 69 69 69 69 69 69 69 69 69 69 69 69 69 69 69 69 69 69 69 69 69 69 69 69 69 69 69 69 69 69 69 69 69 69 69 69 69 69 69 69 69 69 69 69 69 69 69 69 69 69 69 69 69 69 69 69 69 69 69 69 69 69 69 69 69 69 69 69 69 69 69 69 69 69 69 69 69 69 69 69 69 69 69 69 69 69 69 69 69 69 69 69 69 69 69 69 69 69 69 69 69 69 69 69 69 69 69 69 69 69 69 69 69 69 69 69 69 69 69 69 69 69 69 69 69 69 69 69 69 69 69 69 69 69 69 69 69 69 69 69 69 69 69 69 69 69 69 69 69 69 69 69 69 69 69 69 69 69 69 69 69 69 69 69 69 69 69 69 69 69 69 69 69 69 69 69 69 69 69 69 69 69 69 69 69 69 69 69 69 69 69 69 69 69 69 69 69 69 69 69 69 69 69 69 69 69 69 69 69 69 69 69 69 69 69 69 69 69 69 69 69 69 69 69 69 69 69 69 69 69 69 69 69 69 69 69 69 69 69 69 69 69 69 69 69 69 69 69 69 69 69 69 69 69 69 69 69 69 69 69 69 69 69 69 69 69 69 69 69 69 69 69 69 69 69 69 69 69 69 69 69 69 69 69 69 69 69 69 69 69 69 69 69 69 69 69 69 69 69 69 69 69 69 69 69 69 69 69 69 69 69 69 69 69 69 69 69 69 69 69 69 69 69 69 69 69 69 69 69 69 69 69 69 69 69 69 69 69 69 69 69 69 69 69 69 69 69 69 69 69 69 69 69 69 69 69 69 69 69 69 69 69 69 69 69 69 69 69 69 69 69 69 69 69 69 69 69 69 69 69 69 69 69 69 69 69 69 69 69 69 69 69 69 69 69 69 69 69 69 69 69 69 69 69 69 69 69 69 69 69 69 69 69 69 69 69 69 69 69 69 69 69 69 69 69 69 69 69 69 69 69 69 69 69 69 69 69 69 69 69 69 69 69 69 69 69 69 69 69 69 69 69 69 69 69 69 69 69 69 69 69 69 69 69 69 69 69 69 69 69 69 69 69 69 69 69 69 69 69 69 69 69 69 69 69 69 69 69 69 69 69 69 69 69 69 69 69 69 69 69 69 69 69 69 69 69 69 69 69 69 69 69 69 69 69 69 69 69 69 69 69 69 69 69 69 69 69 69 69 69 69 69 69 69 69 69 69 69 69 69 69 69 69 69 69 69 69 69 69 69 69 69 69 69 69 69 69 69 69 69 69 69 69 69 69 69 69 69 69 69 69 69 69 69 69 69 69 69 69 69 69 69 69 69 69 69 69 69 69 69 69 69 69 69 69 69 69 69 69 69 69 69 69 69 69 69 69 69 69 69 69 69 69 69 69 69 69 69 69 69 69 69 69 69 69 69 69 69 69 69 69 69 69 69 69 69 69 69 69 69 69 69 69 69 69 69 69 69 69 69 69 69 69 69 69 69 69 69 69 69 69 69 69 69 69 69 69 69 69 69 69 69 69 69 69 69 69 69 69 69 69 69 69 69 69 69 69 69 69 69 69 69 69 69 69 69 69 69 69 69 69 69 69 69 69 69 69 69 69 69 69 69 69 69 69 69 69 69 69 69 69 69 69 69 69 69 69 69 69 69 69 69 69 69 69 69 69 69 69 69 69 69 69 69 69 69 69 69 69 69 69 69 69 69 69 69 69 69 69 69 69 69 69 69 69 69 69 69 69 69 69 69 69 69 69 69 69 69 69 69 69 69 69 69 69 69 69 69 69 69 69 69 69 69 69 69 69 69 69 69 69 69 69 69 69 69 69 69 69 69 69 69 69 69 69 69 69 69 69 69 69 69 69 69 69 69 69 69 69 69 69 69 69 69 69 69 69 69 69 69 69 69 69 69 69 69 69 69 69 69 69 69 69 69 69 69 69 69 69 69 69 69 69 69 69 69 69 69 69 69 69 69 69 69 69 69 69 69 69 69 69 69 69 69 69 69 69 69 69 69 69 69 69 69 69 69 69 69 69 69 69 69 69 69 69 69 69 69 69 69 69 69 69 69 69 69 69 69 69 69 69 69 69 69 69 69 69 69 69 69 69 69 69 69 69 69 69 69 69 69 69 69 69 69 69 69 69 69 69 69 69 69 69 69 69 69 69 69 69 69 69 69 69 69 69 69 69 69 69 69 69 69 69 69 69 69 69 69 69 69 69 69 69 69 69 69 69 69 69 69 69 69 69 69 69 69 69 69 69 69 69 69 69 69 69 69 69 69 69 69 69 69 69 69 69 69 69 69 69 69 69 69 69 69 69 69 69 69 69 69 69 69 69 69 69 69 69 69 69 69 69 69 69 69 69 69 69 69 69 69 69 69 69 69 69 69 69 69 69 69 69 69 69 69 69 69 69 69 69 69 69 69 69 69 69 69 69 69 69 69 69 69 69 69 69 69 69 69 69 69 69 69 69 69 69 69 69 69 69 69 69 69 69 69 69 69 69 69 69 69 69 69 69 69 69 69 69 69 69 69 69 69 69 69 69 69 69 69 69 69 69 69 69 69 69 69 69 69 69 69 69 69 69 69 69 69 69 69 69 69 69 69 69 69 69 69 69 69 69 69 69 69 69 69 69 69 69 69 69 69 69 69 69 69 69 69 69 69 69 69 69 69 69 69 69 69 69 69 69 69 69 69 69 69 69 69 69 69 69 69 69 69 69 69 69 69 69 69 69 69 69 69 69 69 69 69 69 69 69 69 69 69 69 69 69 69 69 69 69 69 69 69 69 69 69 69 69 69 69 69 69 69 69 69 69 69 69 69 69 69 69 69 69 69 69 69 69 69 69 69 69 69 69 69 69 69 69 69 69 69 69 69 69 69 69 69 69 69 69 69 69 69 69 69 69 69 69 69 69 69 69 69 69 69 69 69 69 69 69 69 69 69 69 69 69 69 69 69 69 69 69 69 69 69 69 69 69 69 69 69 69 69 69 69 69 69 69 69 69 69 69 69 69 69 69 69 69 69 69 69 69 69 69 69 69 69 69 69 69 69 69 69 69 69 69 69 69 69 69 69 69 69 69 69 69 69 69 69 69 69 69 69 69 69 69 69 69 69 69 69 69 69 69 69 69 69 69 69 69 69 69 69 69 69 69 69 69 69 69 69 69 69 69 69 69 69 69 69 69 69 69 69 69 69 69 69 69 69 69 69 69 69 69 69 69 69 69 69 69 69 69 69 69 69 69 69 69 69 69 69 69 69 69 69 69 69 69 69 69 69 69 69 69 69 69 69 69 69 69 69 69 69 69 69 69 69 69 69 69 69 69 69 69 69 69 69 69 69 69 69 69 69 69 69 69 69 69 69 69 69 69 69 69 69 69 69 69 69 69 69 69 69 69 69 69 69 69 69 69 69 69 69 69 69 69 69 69 69 69 69 69 69 69 69 69 69 69 69 69 69 69 69 69 69 69 69 69 69 69 69 69 69 69 69 69 69 69 69 69 69 69 69 69 69 69 69 69 69 69 69 69 69 69 69 69 69 69 69 69 69 69 69 69 69 69 69 69 69 69 69 69 69 69 69 69 69 69 69 69 69 69 69 69 69 69 69 69 69 69 69 69 69 69 69 69 69 69 69 69 69 69 69 69 69 69 69 69 69 69 69 69 69 69 69 69 69 69 69 69 69 69 69 69 69 69 69 69 69 69 69 69 69 69 69 69 69 69 69 69 69 69 69 69 69 69 69 69 69 69 69 69 69 69 69 69 69 69 69 69 69 69 69 69 69 69 69 69 69 69 69 69 69 69 69 69 69 69 69 69 69 69 69 69 69 69 69 69 69 69 69 69 69 69 69 69 69 69 69 69 69 69 69 69 69 69 69 69 69 69 69 69 69 69 69 69 69 69 69 69 69 69 69 69 69 69 69 69 69 69 69 69 69 69 69 69 69 69 69 69 69 69 69 69 69 69 69 69 69 69 69 69 69 69 69 69 69 69 69 69 69 69 69 69 69 69 69 69 69 69 69 69 69 69 69 69 69 69 69 69 69 69 69 69 69 69 69 69 69 69 69 69 69 69 69 69 69 69 69 69 69 69 69 69 69 69 69 69 69 69 69 69 69 69 69 69 69 69 69 69 69 69 69 69 69 69 69 69 69 69 69 69 69 69 69 69 69 69 69 69 69 69 69 69 69 69 69 69 69 69 69 69 69 69 69 69 69 69 69 69 69 69 69 69 69 69 69 69 69 69 69 69 69 69 69 69 69 69 69 69 69 69 69 69 69 69 69 69 69 69 69 69 69 69 69 69 69 69 69 69 69 69 69 69 69 69 69 69 69 69 69 69 69 69 69 69 69 69 69 69 69 69 69 69 69 69 69 69 69 69 69 69 69 69 69 69 69 69 69 69 69 69 69 69 69 69 69 69 69 69 69 69 69 69 69 69 69 69 69 69 69 69 69 69 69 69 69 69 69 69 69 69 69 69 69 69 69 69 69 69 69 69 69 69 69 69 69 69 69 69 69 69 69 69 69 69 69 69 69 69 69 69 69 69 69 69 69 69 69 69 69 69 69 69 69 69 69 69 69 69 69 69 69 69 69 69 69 69 69 69 69 69 69 69 69 69 69 69 69 69 69 69 69 69 69 69 69 69 69 69 69 69 69 69 69 69 69 69 69 69 69 69 69 69 69 69 69 69 69 69 69 69 69 69 69 69 69 69 69 69 69 69 69 69 69 69 69 69 69 69 69 69 69 69 69 69 69 69 69 69 69 69 69 69 69 69 69 69 69 69 69 69 69 69 69 69 69 69 69 69 69 69 69 69 69 69 69 69 69 69 69 69 69 69 69 69 69 69 69 69 69 69 69 69 69 69 69 69 69 69 69 69 69 69 69 69 69 69 69 69 69 69 69 69 69 69 69 69 69 69 69 69 69 69 69 69 69 69 69 69 69 69 69 69 69 69 69 69 69 69 69 69 69 69 69 69 69 69 69 69 69 69 69 69 69 69 69 69 69 69 69 69 69 69 69 69 69 69 69 69 69 69 69 69 69 69 69 69 69 69 69 69 69 69 69 69 69 69 69 69 69 69 69 69 69 69 69 69 69 69 69 69 69 69 69 69 69 69 69 69 69 69 69 69 69 69 69 69 69 69 69 69 69 69 69 69 69 69 69 69 69 69 69 69 69 69 69 69 69 69 69 69 69 69 69 69 69 69 69 69 69 69 69 69 69 69 69 69 69 69 69 69 69 69 69 69 69 69 69 69 69 69 69 69 69 69 69 69 69 69 69 69 69 69 69 69 69 69 69 69 69 69 69 69 69 69 69 69 69 69 69 69 69 69 69 69 69 69 69 69 69 69 69 69 69 69 69 69 69 69 69 69 69 69 69 69 69 69 69 69 69 69 69 69 69 69 69 69 69 69 69 69 69 69 69 69 69 69 69 69 69 69 69 69 69 69 69 69 69 69 69 69 69 69 69 69 69 69 69 69 69 69 69 69 69 69 69 69 69 69 69 69 69 69 69 69 69 69 69 69 69 69 69 69 69 69 69 69 69 69 69 69 69 69 69 69 69 69 69 69 69 69 69 69 69 69 69 69 69 69 69 69 69 69 69 69 69 69 69 69 69 69 69 69 69 69 69 69 69 69 69 69 69 69 69 69 69 69 69 69 69 69 69 69 69 69 69 69 69 69 69 69 69 69 69 69 69 69 69 69 69 69 69 69 69 69 69 69 69 69 69 69 69 69 69 69 69 69 69 69 69 69 69 69 69 69 69 69 69 69 69 69 69 69 69 69 69 69 69 69 69 69 69 69 69 69 69 69 69 69 69 69 69 69 69 69 69 69 69 69 69 69 69 69 69 69 69 69 69 69 69 69 69 69 69 69 69 69 69 69 69 69 69 69 69 69 69 69 69 69 69 69 69 69 69 69 69 69 69 69 69 69 69 69 69 69 69 69 69 69 69 69 69 69 69 69 69 69 69 69 69 69 69 69 69 69 69 69 69 69 69 69 69 69 69 69 69 69 69 69 69 69 69 69 69 69 69 69 69 69 69 69 69 69 69 69 69 69 69 69 69 69 69 69 69 69 69 69 69 69 69 69 69 69 69 69 69 69 69 69 69 69 69 69 69 69 69 69 69 69 69 69 69 69 69 69 69 69 69 69 69 69 69 69 69 69 69 69 69 69 69 69 69 69 69 69 69 69 69 69 69 69 69 69 69 69 69 69 69 69 69 69 69 69 69 69 69 69 69 69 69 69 69 69 69 69 69 69 69 69 69 69 69 69 69 69 69 69 69 69 69 69 69 69 69 69 69 69 69 69 69 69 69 69 69 69 69 69 69 69 69 69 69 69 69 69 69 69 69 69 69 69 69 69 69 69 69 69 69 69 69 69 69 69 69 69 69 69 69 69 69 69 69 69 69 69 69 69 69 69 69 69 69 69 69 69 69 69 69 69 69 69 69 69 69 69 69 69 69 69 69 69 69 69 69 69 69 69 69 69 69 69 </DataArray>
      </Cells>
      <CellData Tensors="stress">
        <DataArray type="UInt8" Name="vtkGhostType" format="ascii" RangeMin="0" RangeMax="1">0 0 0 0 0 0 0 0 0 0 0 0 0 0 0 0 0 0 0 0 0 0 0 0 0 0 0 0 0 0 0 0 0 0 0 0 0 0 0 0 0 0 0 0 0 0 0 0 0 0 0 0 0 0 0 0 0 0 0 0 0 0 0 0 0 0 0 0 0 0 0 0 0 0 0 0 0 0 0 0 0 0 0 0 0 0 0 0 0 0 0 0 0 0 0 0 0 0 0 0 0 0 0 0 0 0 0 0 0 0 0 0 0 0 0 0 0 0 0 0 0 0 0 0 0 0 0 0 0 0 0 0 0 0 0 0 0 0 0 0 0 0 0 0 0 0 0 0 0 0 0 0 0 0 0 0 0 0 0 0 0 0 0 0 0 0 0 0 0 0 0 0 0 0 0 0 0 0 0 0 0 0 0 0 0 0 0 0 0 0 0 0 0 0 0 0 0 0 0 0 0 0 0 0 0 0 0 0 0 0 0 0 0 0 0 0 0 0 0 0 0 0 0 0 0 0 0 0 0 0 0 0 0 0 0 0 0 0 0 0 0 0 0 0 0 0 0 0 0 0 0 0 0 0 0 0 0 0 0 0 0 0 0 0 0 0 0 0 0 0 0 0 0 0 0 0 0 0 0 0 0 0 0 0 0 0 0 0 0 0 0 0 0 0 0 0 0 0 0 0 0 0 0 0 0 0 0 0 0 0 0 0 0 0 0 0 0 0 0 0 0 0 0 0 0 0 0 0 0 0 0 0 0 0 0 0 0 0 0 0 0 0 0 0 0 0 0 0 0 0 0 0 0 0 0 0 0 0 0 0 0 0 0 0 0 0 0 0 0 0 0 0 0 0 0 0 0 0 0 0 0 0 0 0 0 0 0 0 0 0 0 0 0 0 0 0 0 0 0 0 0 0 0 0 0 0 0 0 0 0 0 0 0 0 0 0 0 0 0 0 0 0 0 0 0 0 0 0 0 0 0 0 0 0 0 0 0 0 0 0 0 0 0 0 0 0 0 0 0 0 0 0 0 0 0 0 0 0 0 0 0 0 0 0 0 0 0 0 0 0 0 0 0 0 0 0 0 0 0 0 0 0 0 0 0 0 0 0 0 0 0 0 0 0 0 0 0 0 0 0 0 0 0 0 0 0 0 0 0 0 0 0 0 0 0 0 0 0 0 0 0 0 0 0 0 0 0 0 0 0 0 0 0 0 0 0 0 0 0 0 0 0 0 0 0 0 0 0 0 0 0 0 0 0 0 0 0 0 0 0 0 0 0 0 0 0 0 0 0 0 0 0 0 0 0 0 0 0 0 0 0 0 0 0 0 0 0 0 0 0 0 0 0 0 0 0 0 0 0 0 0 0 0 0 0 0 0 0 0 0 0 0 0 0 0 0 0 0 0 0 0 0 0 0 0 0 0 0 0 0 0 0 0 0 0 0 0 0 0 0 0 0 0 0 0 0 0 0 0 0 0 0 0 0 0 0 0 0 0 0 0 0 0 0 0 0 0 0 0 0 0 0 0 0 0 0 0 0 0 0 0 0 0 0 0 0 0 0 0 0 0 0 0 0 0 0 0 0 0 0 0 0 0 0 0 0 0 0 0 0 0 0 0 0 0 0 0 0 0 0 0 0 0 0 0 0 0 0 0 0 0 0 0 0 0 0 0 0 0 0 0 0 0 0 0 0 0 0 0 0 0 0 0 0 0 0 0 0 0 0 0 0 0 0 0 0 0 0 0 0 0 0 0 0 0 0 0 0 0 0 0 0 0 0 0 0 0 0 0 0 0 0 0 0 0 0 0 0 0 0 0 0 0 0 0 0 0 0 0 0 0 0 0 0 0 0 0 0 0 0 0 0 0 0 0 0 0 0 0 0 0 0 0 0 0 0 0 0 0 0 0 0 0 0 0 0 0 0 0 0 0 0 0 0 0 0 0 0 0 0 0 0 0 0 0 0 0 0 0 0 0 0 0 0 0 0 0 0 0 0 0 0 0 0 0 0 0 0 0 0 0 0 0 0 0 0 0 0 0 0 0 0 0 0 0 0 0 0 0 0 0 0 0 0 0 0 0 0 0 0 0 0 0 0 0 0 0 0 0 0 0 0 0 0 0 0 0 0 0 0 0 0 0 0 0 0 0 0 0 0 0 0 0 0 0 0 0 0 0 0 0 0 0 0 0 0 0 0 0 0 0 0 0 0 0 0 0 0 0 0 0 0 0 0 0 0 0 0 0 0 0 0 0 0 0 0 0 0 0 0 0 0 0 0 0 0 0 0 0 0 0 0 0 0 0 0 0 0 0 0 0 0 0 0 0 0 0 0 0 0 0 0 0 0 0 0 0 0 0 0 0 0 0 0 0 0 0 0 0 0 0 0 0 0 0 0 0 0 0 0 0 0 0 0 0 0 0 0 0 0 0 0 0 0 0 0 0 0 0 0 0 0 0 0 0 0 0 0 0 0 0 0 0 0 0 0 0 0 0 0 0 0 0 0 0 0 0 0 0 0 0 0 0 0 0 0 0 0 0 0 0 0 0 0 0 0 0 0 0 0 0 0 0 0 0 0 0 0 0 0 0 0 0 0 0 0 0 0 0 0 0 0 0 0 0 0 0 0 0 0 0 0 0 0 0 0 0 0 0 0 0 0 0 0 0 0 0 0 0 0 0 0 0 0 0 0 0 0 0 0 0 0 0 0 0 0 0 0 0 0 0 0 0 0 0 0 0 0 0 0 0 0 0 0 0 0 0 0 0 0 0 0 0 0 0 0 0 0 0 0 0 0 0 0 0 0 0 0 0 0 0 0 0 0 0 0 0 0 0 0 0 0 0 0 0 0 0 0 0 0 0 0 0 0 0 0 0 0 0 0 0 0 0 0 0 0 0 0 0 0 0 0 0 0 0 0 0 0 0 0 0 0 0 0 0 0 0 0 0 0 0 0 0 0 0 0 0 0 0 0 0 0 0 0 0 0 0 0 0 0 0 0 0 0 0 0 0 0 0 0 0 0 0 0 0 0 0 0 0 0 0 0 0 0 0 0 0 0 0 0 0 0 0 0 0 0 0 0 0 0 0 0 0 0 0 0 0 0 0 0 0 0 0 0 0 0 0 0 0 0 0 0 0 0 0 0 0 0 0 0 0 0 0 0 0 0 0 0 0 0 0 0 0 0 0 0 0 0 0 0 0 0 0 0 0 0 0 0 0 0 0 0 0 0 0 0 0 0 0 0 0 0 0 0 0 0 0 0 0 0 0 0 0 0 0 0 0 0 0 0 0 0 0 0 0 0 0 0 0 0 0 0 0 0 0 0 0 0 0 0 0 0 0 0 0 0 0 0 0 0 0 0 0 0 0 0 0 0 0 0 0 0 0 0 0 0 0 0 0 0 0 0 0 0 0 0 0 0 0 0 0 0 0 0 0 0 0 0 0 0 0 0 0 0 0 0 0 0 0 0 0 0 0 0 0 0 0 0 0 0 0 0 0 0 0 0 0 0 0 0 0 0 0 0 0 0 0 0 0 0 0 0 0 0 0 0 0 0 0 0 0 0 0 0 0 0 0 0 0 0 0 0 0 0 0 0 0 0 0 0 0 0 0 0 0 0 0 0 0 0 0 0 0 0 0 0 0 0 0 0 0 0 0 0 0 0 0 0 0 0 0 0 0 0 0 0 0 0 0 0 0 0 0 0 0 0 0 0 0 0 0 0 0 0 0 0 0 0 0 0 0 0 0 0 0 0 0 0 0 0 0 0 0 0 0 0 0 0 0 0 0 0 0 0 0 0 0 0 0 0 0 0 0 0 0 0 0 0 0 0 0 0 0 0 0 0 0 0 0 0 0 0 0 0 0 0 0 0 0 0 0 0 0 0 0 0 0 0 0 0 0 0 0 0 0 0 0 0 0 0 0 0 0 0 0 0 0 0 0 0 0 0 0 0 0 0 0 0 0 0 0 0 0 0 0 0 0 0 0 0 0 0 0 0 0 0 0 0 0 0 0 0 0 0 0 0 0 0 0 0 0 0 0 0 0 0 0 0 0 0 0 0 0 0 0 0 0 0 0 0 0 0 0 0 0 0 0 0 0 0 0 0 0 0 0 0 0 0 0 0 0 0 0 0 0 0 0 0 0 0 0 0 0 0 0 0 0 0 0 0 0 0 0 0 0 0 0 0 0 0 0 0 0 0 0 0 0 0 0 0 0 0 0 0 0 0 0 0 0 0 0 0 0 0 0 0 0 0 0 0 0 0 0 0 0 0 0 0 0 0 0 0 0 0 0 0 0 0 0 0 0 0 0 0 0 0 0 0 0 0 0 0 0 0 0 0 0 0 0 0 0 0 0 0 0 0 0 0 0 0 0 0 0 0 0 0 0 0 0 0 0 0 0 0 0 0 0 0 0 0 0 0 0 0 0 0 0 0 0 0 0 0 0 0 0 0 0 0 0 0 0 0 0 0 0 0 0 0 0 0 0 0 0 0 0 0 0 0 0 0 0 0 0 0 0 0 0 0 0 0 0 0 0 0 0 0 0 0 0 0 0 0 0 0 0 0 0 0 0 0 0 0 0 0 0 0 0 0 0 0 0 0 0 0 0 0 0 0 0 0 0 0 0 0 0 0 0 0 0 0 0 0 0 0 0 0 0 0 0 0 0 0 0 0 0 0 0 0 0 0 0 0 0 0 0 0 0 0 0 0 0 0 0 0 0 0 0 0 0 0 0 0 0 0 0 0 0 0 0 0 0 0 0 0 0 0 0 0 0 0 0 0 0 0 0 0 0 0 0 0 0 0 0 0 0 0 0 0 0 0 0 0 0 0 0 0 0 0 0 0 0 0 0 0 0 0 0 0 0 0 0 0 0 0 0 0 0 0 0 0 0 0 0 0 0 0 0 0 0 0 0 0 0 0 0 0 0 0 0 0 0 0 0 0 0 0 0 0 0 0 0 0 0 0 0 0 0 0 0 0 0 0 0 0 0 0 0 0 0 0 0 0 0 0 0 0 0 0 0 0 0 0 0 0 0 0 0 0 0 0 0 0 0 0 0 0 0 0 0 0 0 0 0 0 0 0 0 0 0 0 0 0 0 0 0 0 0 0 0 0 0 0 0 0 0 0 0 0 0 0 0 0 0 0 0 0 0 0 0 0 0 0 0 0 0 0 0 0 0 0 0 0 0 0 0 0 0 0 0 0 0 0 0 0 0 0 0 0 0 0 0 0 0 0 0 0 0 0 0 0 0 0 0 0 0 0 0 0 0 0 0 0 0 0 0 0 0 0 0 0 0 0 0 0 0 0 0 0 0 0 0 0 0 0 0 0 0 0 0 0 0 0 0 0 0 0 0 0 0 0 0 0 0 0 0 0 0 0 0 0 0 0 0 0 0 0 0 0 0 0 0 0 0 0 0 0 0 0 0 0 0 0 0 0 0 0 0 0 0 0 0 0 0 0 0 0 0 0 0 0 0 0 0 0 0 0 0 0 0 0 0 0 0 0 0 0 0 0 0 0 0 0 0 0 0 0 0 0 0 0 0 0 0 0 0 0 0 0 0 0 0 0 0 0 0 0 0 0 0 0 0 0 0 0 0 0 0 0 0 0 0 0 0 0 0 0 0 0 0 0 0 0 0 0 0 0 0 0 0 0 0 0 0 0 0 0 0 0 0 0 0 0 0 0 0 0 0 0 0 0 0 0 0 0 0 0 0 0 0 0 0 0 0 0 0 0 0 0 0 0 0 0 0 0 0 0 0 0 0 0 0 0 0 0 0 0 0 0 0 0 0 0 0 0 0 0 0 0 0 0 0 0 0 0 0 0 0 0 0 0 0 0 0 0 0 0 0 0 0 0 0 0 0 0 0 0 0 0 0 0 0 0 0 0 0 0 0 0 0 0 0 0 0 0 0 0 0 0 0 0 0 0 0 0 0 0 0 0 0 0 0 0 0 0 0 0 0 0 0 0 0 0 0 0 0 0 0 0 0 0 0 0 0 0 0 0 0 0 0 0 0 0 0 0 0 0 0 0 0 0 0 0 0 0 0 0 0 0 0 0 0 0 0 0 0 0 0 0 0 0 0 0 0 0 0 0 0 0 0 0 0 0 0 0 0 0 0 0 0 0 0 0 0 0 0 0 0 0 0 0 0 0 0 0 0 0 0 0 0 0 0 0 0 0 0 0 0 0 0 0 0 0 0 0 0 0 0 0 0 0 0 0 0 0 0 0 0 0 0 0 0 0 0 0 0 0 0 0 0 0 0 0 0 0 0 0 0 0 0 0 0 0 0 0 0 0 0 0 0 0 0 0 0 0 0 0 0 0 0 0 0 0 0 0 0 0 0 0 0 0 0 0 0 0 0 0 0 0 0 0 0 0 0 0 0 0 0 0 0 0 0 0 0 0 0 0 0 0 0 0 0 0 0 0 0 0 0 0 0 0 0 0 0 0 0 0 0 0 0 0 0 0 0 0 0 0 0 0 0 0 0 0 0 0 0 0 0 0 0 0 0 0 0 0 0 0 0 0 0 0 0 0 0 0 0 0 0 0 0 0 0 0 0 0 0 0 0 0 0 0 0 0 0 0 0 0 0 0 0 0 0 0 0 0 0 0 0 0 0 0 0 0 0 0 0 0 0 0 0 0 0 0 0 0 0 0 0 0 0 0 0 0 0 0 0 0 0 0 0 0 0 0 0 0 0 0 0 0 0 0 0 0 0 0 0 0 0 0 0 0 0 0 0 0 0 0 0 0 0 0 0 0 0 0 0 0 0 0 0 0 0 0 0 0 0 0 0 0 0 0 0 0 0 0 0 0 0 0 0 0 0 0 0 0 0 0 0 0 0 0 0 0 0 0 0 0 0 0 0 0 0 0 0 0 0 0 0 0 0 0 0 0 0 0 0 0 0 0 0 0 0 0 0 0 0 0 0 0 0 0 0 0 0 0 0 0 0 0 0 0 0 0 0 0 0 0 0 0 0 0 0 0 0 0 0 0 0 0 0 0 0 0 0 0 0 0 0 0 0 0 0 0 0 0 0 0 0 0 0 0 0 0 0 0 0 0 0 0 0 0 0 0 0 0 0 0 0 0 0 0 0 0 0 0 0 0 0 0 0 0 0 0 0 0 0 0 0 0 0 0 0 0 0 0 0 0 0 0 0 0 0 0 0 0 0 0 0 0 0 0 0 0 0 0 0 0 0 0 0 0 0 0 0 0 0 0 0 0 0 0 0 0 0 0 0 0 0 0 0 0 0 0 0 0 0 0 0 0 0 0 0 0 0 0 0 0 0 0 0 0 0 0 0 0 0 0 0 0 0 0 0 0 0 0 0 0 0 0 0 0 0 0 0 0 0 0 0 0 0 0 0 0 0 0 0 0 0 0 0 0 0 0 0 0 0 0 0 0 0 0 0 0 0 0 0 0 0 0 0 0 0 0 0 0 0 0 0 0 0 0 0 0 0 0 0 0 0 0 0 0 0 0 0 0 0 0 0 0 0 0 0 0 0 0 0 0 0 0 0 0 0 0 0 0 0 0 0 0 0 0 0 0 0 0 0 0 0 0 0 0 0 0 0 0 0 0 0 0 0 0 0 0 0 0 0 0 0 0 0 0 0 0 0 0 0 0 0 0 0 0 0 0 0 0 0 0 0 0 0 0 0 0 0 0 0 0 0 0 0 0 0 0 0 0 0 0 0 0 0 0 0 0 0 0 0 0 0 0 0 0 0 0 0 0 0 0 0 0 0 0 0 0 0 0 0 0 0 0 0 0 0 0 0 0 0 0 0 0 0 0 0 0 0 0 0 0 0 0 0 0 0 0 0 0 0 0 0 </DataArray>
        <DataArray type="Int64" IdType="1" Name="vtkOriginalCellIds" format="ascii" RangeMin="0" RangeMax="3466">0 1 2 3 4 5 6 7 8 9 10 11 12 13 14 15 16 17 18 19 20 21 22 23 24 25 26 27 28 29 30 31 32 33 34 35 36 37 38 39 40 41 42 43 44 45 46 47 48 49 50 51 52 53 54 55 56 57 58 59 60 61 62 63 64 65 66 67 68 69 70 71 72 73 74 75 76 77 78 79 80 81 82 83 84 85 86 87 88 89 90 91 92 93 94 95 96 97 98 99 100 101 102 103 104 105 106 107 108 109 110 111 112 113 114 115 116 117 118 119 120 121 122 123 124 125 126 127 128 129 130 131 132 133 134 135 136 137 138 139 140 141 142 143 144 145 146 147 148 149 150 151 152 153 154 155 156 157 158 159 160 161 162 163 164 165 166 167 168 169 170 171 172 173 174 175 176 177 178 179 180 181 182 183 184 185 186 187 188 189 190 191 192 193 194 195 196 197 198 199 200 201 202 203 204 205 206 207 208 209 210 211 212 213 214 215 216 217 218 219 220 221 222 223 224 225 226 227 228 229 230 231 232 233 234 235 236 237 238 239 240 241 242 243 244 245 246 247 248 249 250 251 252 253 254 255 256 257 258 259 260 261 262 263 264 265 266 267 268 269 270 271 272 273 274 275 276 277 278 279 280 281 282 283 284 285 286 287 288 289 290 291 292 293 294 295 296 297 298 299 300 301 302 303 304 305 306 307 308 309 310 311 312 313 314 315 316 317 318 319 320 321 322 323 324 325 326 327 328 329 330 331 332 333 334 335 336 337 338 339 340 341 342 343 344 345 346 347 348 349 350 351 352 353 354 355 356 357 358 359 360 361 362 363 364 365 366 367 368 369 370 371 372 373 374 375 376 377 378 379 380 381 382 383 384 385 386 387 388 389 390 391 392 393 394 395 396 397 398 399 400 401 402 403 404 405 406 407 408 409 410 411 412 413 414 415 416 417 418 419 420 421 422 423 424 425 426 427 428 429 430 431 432 433 434 435 436 437 438 439 440 441 442 443 444 445 446 447 448 449 450 451 452 453 454 455 456 457 458 459 460 461 462 463 464 465 466 467 468 469 470 471 472 473 474 475 476 477 478 479 480 481 482 483 484 485 486 487 488 489 490 491 492 493 494 495 496 497 498 499 500 501 502 503 504 505 506 507 508 509 510 511 512 513 514 515 516 517 518 519 520 521 522 523 524 525 526 527 528 529 530 531 532 533 534 535 536 537 538 539 540 541 542 543 544 545 546 547 548 549 550 551 552 553 554 555 556 557 558 559 560 561 562 563 564 565 566 567 568 569 570 571 572 573 574 575 576 577 578 579 580 581 582 583 584 585 586 587 588 589 590 591 592 593 594 595 596 597 598 599 600 601 602 603 604 605 606 607 608 609 610 611 612 613 614 615 616 617 618 619 620 621 622 623 624 625 626 627 628 629 630 631 632 633 634 635 636 637 638 639 640 641 642 643 644 645 646 647 648 649 650 651 652 653 654 655 656 657 658 659 660 661 662 663 664 665 666 667 668 669 670 671 672 673 674 675 676 677 678 679 680 681 682 683 684 685 686 687 688 689 690 691 692 693 694 695 696 697 698 699 700 701 702 703 704 705 706 707 708 709 710 711 712 713 714 715 716 717 718 719 720 721 722 723 724 725 726 727 728 729 730 731 732 733 734 735 736 737 738 739 740 741 742 743 744 745 746 747 748 749 750 751 752 753 754 755 756 757 758 759 760 761 762 763 764 765 766 767 768 769 770 771 772 773 774 775 776 777 778 779 780 781 782 783 784 785 786 787 788 789 790 791 792 793 794 795 796 797 798 799 800 801 802 803 804 805 806 807 808 809 810 811 812 813 814 815 816 817 818 819 820 821 822 823 824 825 826 827 828 829 830 831 832 833 834 835 836 837 838 839 840 841 842 843 844 845 846 847 848 849 850 851 852 853 854 855 856 857 858 859 860 861 862 863 864 865 866 867 868 869 870 871 872 873 874 875 876 877 878 879 880 881 882 883 884 885 886 887 888 889 890 891 892 893 894 895 896 897 898 899 900 901 902 903 904 905 906 907 908 909 910 911 912 913 914 915 916 917 918 919 920 921 922 923 924 925 926 927 928 929 930 931 932 933 934 935 936 937 938 939 940 941 942 943 944 945 946 947 948 949 950 951 952 953 954 955 956 957 958 959 960 961 962 963 964 965 966 967 968 969 970 971 972 973 974 975 976 977 978 979 980 981 982 983 984 985 986 987 988 989 990 991 992 993 994 995 996 997 998 999 1000 1001 1002 1003 1004 1005 1006 1007 1008 1009 1010 1011 1012 1013 1014 1015 1016 1017 1018 1019 1020 1021 1022 1023 1024 1025 1026 1027 1028 1029 1030 1031 1032 1033 1034 1035 1036 1037 1038 1039 1040 1041 1042 1043 1044 1045 1046 1047 1048 1049 1050 1051 1052 1053 1054 1055 1056 1057 1058 1059 1060 1061 1062 1063 1064 1065 1066 1067 1068 1069 1070 1071 1072 1073 1074 1075 1076 1077 1078 1079 1080 1081 1082 1083 1084 1085 1086 1087 1088 1089 1090 1091 1092 1093 1094 1095 1096 1097 1098 1099 1100 1101 1102 1103 1104 1105 1106 1107 1108 1109 1110 1111 1112 1113 1114 1115 1116 1117 1118 1119 1120 1121 1122 1123 1124 1125 1126 1127 1128 1129 1130 1131 1132 1133 1134 1135 1136 1137 1138 1139 1140 1141 1142 1143 1144 1145 1146 1147 1148 1149 1150 1151 1152 1153 1154 1155 1156 1157 1158 1159 1160 1161 1162 1163 1164 1165 1166 1167 1168 1169 1170 1171 1172 1173 1174 1175 1176 1177 1178 1179 1180 1181 1182 1183 1184 1185 1186 1187 1188 1189 1190 1191 1192 1193 1194 1195 1196 1197 1198 1199 1200 1201 1202 1203 1204 1205 1206 1207 1208 1209 1210 1211 1212 1213 1214 1215 1216 1217 1218 1219 1220 1221 1222 1223 1224 1225 1226 1227 1228 1229 1230 1231 1232 1233 1234 1235 1236 1237 1238 1239 1240 1241 1242 1243 1244 1245 1246 1247 1248 1249 1250 1251 1252 1253 1254 1255 1256 1257 1258 1259 1260 1261 1262 1263 1264 1265 1266 1267 1268 1269 1270 1271 1272 1273 1274 1275 1276 1277 1278 1279 1280 1281 1282 1283 1284 1285 1286 1287 1288 1289 1290 1291 1292 1293 1294 1295 1296 1297 1298 1299 1300 1301 1302 1303 1304 1305 1306 1307 1308 1309 1310 1311 1312 1313 1314 1315 1316 1317 1318 1319 1320 1321 1322 1323 1324 1325 1326 1327 1328 1329 1330 1331 1332 1333 1334 1335 1336 1337 1338 1339 1340 1341 1342 1343 1344 1345 1346 1347 1348 1349 1350 1351 1352 1353 1354 1355 1356 1357 1358 1359 1360 1361 1362 1363 1364 1365 1366 1367 1368 1369 1370 1371 1372 1373 1374 1375 1376 1377 1378 1379 1380 1381 1382 1383 1384 1385 1386 1387 1388 1389 1390 1391 1392 1393 1394 1395 1396 1397 1398 1399 1400 1401 1402 1403 1404 1405 1406 1407 1408 1409 1410 1411 1412 1413 1414 1415 1416 1417 1418 1419 1420 1421 1422 1423 1424 1425 1426 1427 1428 1429 1430 1431 1432 1433 1434 1435 1436 1437 1438 1439 1440 1441 1442 1443 1444 1445 1446 1447 1448 1449 1450 1451 1452 1453 1454 1455 1456 1457 1458 1459 1460 1461 1462 1463 1464 1465 1466 1467 1468 1469 1470 1471 1472 1473 1474 1475 1476 1477 1478 1479 1480 1481 1482 1483 1484 1485 1486 1487 1488 1489 1490 1491 1492 1493 1494 1495 1496 1497 1498 1499 1500 1501 1502 1503 1504 1505 1506 1507 1508 1509 1510 1511 1512 1513 1514 1515 1516 1517 1518 1519 1520 1521 1522 1523 1524 1525 1526 1527 1528 1529 1530 1531 1532 1533 1534 1535 1536 1537 1538 1539 1540 1541 1542 1543 1544 1545 1546 1547 1548 1549 1550 1551 1552 1553 1554 1555 1556 1557 1558 1559 1560 1561 1562 1563 1564 1565 1566 1567 1568 1569 1570 1571 1572 1573 1574 1575 1576 1577 1578 1579 1580 1581 1582 1583 1584 1585 1586 1587 1588 1589 1590 1591 1592 1593 1594 1595 1596 1597 1598 1599 1600 1601 1602 1603 1604 1605 1606 1607 1608 1609 1610 1611 1612 1613 1614 1615 1616 1617 1618 1619 1620 1621 1622 1623 1624 1625 1626 1627 1628 1629 1630 1631 1632 1633 1634 1635 1636 1637 1638 1639 1640 1641 1642 1643 1644 1645 1646 1647 1648 1649 1650 1651 1652 1653 1654 1655 1656 1657 1658 1659 1660 1661 1662 1663 1664 1665 1666 1667 1668 1669 1670 1671 1672 1673 1674 1675 1676 1677 1678 1679 1680 1681 1682 1683 1684 1685 1686 1687 1688 1689 1690 1691 1692 1693 1694 1695 1696 1697 1698 1699 1700 1701 1702 1703 1704 1705 1706 1707 1708 1709 1710 1711 1712 1713 1714 1715 1716 1717 1718 1719 1720 1721 1722 1723 1724 1725 1726 1727 1728 1729 1730 1731 1732 1733 1734 1735 1736 1737 1738 1739 1740 1741 1742 1743 1744 1745 1746 1747 1748 1749 1750 1751 1752 1753 1754 1755 1756 1757 1758 1759 1760 1761 1762 1763 1764 1765 1766 1767 1768 1769 1770 1771 1772 1773 1774 1775 1776 1777 1778 1779 1780 1781 1782 1783 1784 1785 1786 1787 1788 1789 1790 1791 1792 1793 1794 1795 1796 1797 1798 1799 1800 1801 1802 1803 1804 1805 1806 1807 1808 1809 1810 1811 1812 1813 1814 1815 1816 1817 1818 1819 1820 1821 1822 1823 1824 1825 1826 1827 1828 1829 1830 1831 1832 1833 1834 1835 1836 1837 1838 1839 1840 1841 1842 1843 1844 1845 1846 1847 1848 1849 1850 1851 1852 1853 1854 1855 1856 1857 1858 1859 1860 1861 1862 1863 1864 1865 1866 1867 1868 1869 1870 1871 1872 1873 1874 1875 1876 1877 1878 1879 1880 1881 1882 1883 1884 1885 1886 1887 1888 1889 1890 1891 1892 1893 1894 1895 1896 1897 1898 1899 1900 1901 1902 1903 1904 1905 1906 1907 1908 1909 1910 1911 1912 1913 1914 1915 1916 1917 1918 1919 1920 1921 1922 1923 1924 1925 1926 1927 1928 1929 1930 1931 1932 1933 1934 1935 1936 1937 1938 1939 1940 1941 1942 1943 1944 1945 1946 1947 1948 1949 1950 1951 1952 1953 1954 1955 1956 1957 1958 1959 1960 1961 1962 1963 1964 1965 1966 1967 1968 1969 1970 1971 1972 1973 1974 1975 1976 1977 1978 1979 1980 1981 1982 1983 1984 1985 1986 1987 1988 1989 1990 1991 1992 1993 1994 1995 1996 1997 1998 1999 2000 2001 2002 2003 2004 2005 2006 2007 2008 2009 2010 2011 2012 2013 2014 2015 2016 2017 2018 2019 2020 2021 2022 2023 2024 2025 2026 2027 2028 2029 2030 2031 2032 2033 2034 2035 2036 2037 2038 2039 2040 2041 2042 2043 2044 2045 2046 2047 2048 2049 2050 2051 2052 2053 2054 2055 2056 2057 2058 2059 2060 2061 2062 2063 2064 2065 2066 2067 2068 2069 2070 2071 2072 2073 2074 2075 2076 2077 2078 2079 2080 2081 2082 2083 2084 2085 2086 2087 2088 2089 2090 2091 2092 2093 2094 2095 2096 2097 2098 2099 2100 2101 2102 2103 2104 2105 2106 2107 2108 2109 2110 2111 2112 2113 2114 2115 2116 2117 2118 2119 2120 2121 2122 2123 2124 2125 2126 2127 2128 2129 2130 2131 2132 2133 2134 2135 2136 2137 2138 2139 2140 2141 2142 2143 2144 2145 2146 2147 2148 2149 2150 2151 2152 2153 2154 2155 2156 2157 2158 2159 2160 2161 2162 2163 2164 2165 2166 2167 2168 2169 2170 2171 2172 2173 2174 2175 2176 2177 2178 2179 2180 2181 2182 2183 2184 2185 2186 2187 2188 2189 2190 2191 2192 2193 2194 2195 2196 2197 2198 2199 2200 2201 2202 2203 2204 2205 2206 2207 2208 2209 2210 2211 2212 2213 2214 2215 2216 2217 2218 2219 2220 2221 2222 2223 2224 2225 2226 2227 2228 2229 2230 2231 2232 2233 2234 2235 2236 2237 2238 2239 2240 2241 2242 2243 2244 2245 2246 2247 2248 2249 2250 2251 2252 2253 2254 2255 2256 2257 2258 2259 2260 2261 2262 2263 2264 2265 2266 2267 2268 2269 2270 2271 2272 2273 2274 2275 2276 2277 2278 2279 2280 2281 2282 2283 2284 2285 2286 2287 2288 2289 2290 2291 2292 2293 2294 2295 2296 2297 2298 2299 2300 2301 2302 2303 2304 2305 2306 2307 2308 2309 2310 2311 2312 2313 2314 2315 2316 2317 2318 2319 2320 2321 2322 2323 2324 2325 2326 2327 2328 2329 2330 2331 2332 2333 2334 2335 2336 2337 2338 2339 2340 2341 2342 2343 2344 2345 2346 2347 2348 2349 2350 2351 2352 2353 2354 2355 2356 2357 2358 2359 2360 2361 2362 2363 2364 2365 2366 2367 2368 2369 2370 2371 2372 2373 2374 2375 2376 2377 2378 2379 2380 2381 2382 2383 2384 2385 2386 2387 2388 2389 2390 2391 2392 2393 2394 2395 2396 2397 2398 2399 2400 2401 2402 2403 2404 2405 2406 2407 2408 2409 2410 2411 2412 2413 2414 2415 2416 2417 2418 2419 2420 2421 2422 2423 2424 2425 2426 2427 2428 2429 2430 2431 2432 2433 2434 2435 2436 2437 2438 2439 2440 2441 2442 2443 2444 2445 2446 2447 2448 2449 2450 2451 2452 2453 2454 2455 2456 2457 2458 2459 2460 2461 2462 2463 2464 2465 2466 2467 2468 2469 2470 2471 2472 2473 2474 2475 2476 2477 2478 2479 2480 2481 2482 2483 2484 2485 2486 2487 2488 2489 2490 2491 2492 2493 2494 2495 2496 2497 2498 2499 2500 2501 2502 2503 2504 2505 2506 2507 2508 2509 2510 2511 2512 2513 2514 2515 2516 2517 2518 2519 2520 2521 2522 2523 2524 2525 2526 2527 2528 2529 2530 2531 2532 2533 2534 2535 2536 2537 2538 2539 2540 2541 2542 2543 2544 2545 2546 2547 2548 2549 2550 2551 2552 2553 2554 2555 2556 2557 2558 2559 2560 2561 2562 2563 2564 2565 2566 2567 2568 2569 2570 2571 2572 2573 2574 2575 2576 2577 2578 2579 2580 2581 2582 2583 2584 2585 2586 2587 2588 2589 2590 2591 2592 2593 2594 2595 2596 2597 2598 2599 2600 2601 2602 2603 2604 2605 2606 2607 2608 2609 2610 2611 2612 2613 2614 2615 2616 2617 2618 2619 2620 2621 2622 2623 2624 2625 2626 2627 2628 2629 2630 2631 2632 2633 2634 2635 2636 2637 2638 2639 2640 2641 2642 2643 2644 2645 2646 2647 2648 2649 2650 2651 2652 2653 2654 2655 2656 2657 2658 2659 2660 2661 2662 2663 2664 2665 2666 2667 2668 2669 2670 2671 2672 2673 2674 2675 2676 2677 2678 2679 2680 2681 2682 2683 2684 2685 2686 2687 2688 2689 2690 2691 2692 2693 2694 2695 2696 2697 2698 2699 2700 2701 2702 2703 2704 2705 2706 2707 2708 2709 2710 2711 2712 2713 2714 2715 2716 2717 2718 2719 2720 2721 2722 2723 2724 2725 2726 2727 2728 2729 2730 2731 2732 2733 2734 2735 2736 2737 2738 2739 2740 2741 2742 2743 2744 2745 2746 2747 2748 2749 2750 2751 2752 2753 2754 2755 2756 2757 2758 2759 2760 2761 2762 2763 2764 2765 2766 2767 2768 2769 2770 2771 2772 2773 2774 2775 2776 2777 2778 2779 2780 2781 2782 2783 2784 2785 2786 2787 2788 2789 2790 2791 2792 2793 2794 2795 2796 2797 2798 2799 2800 2801 2802 2803 2804 2805 2806 2807 2808 2809 2810 2811 2812 2813 2814 2815 2816 2817 2818 2819 2820 2821 2822 2823 2824 2825 2826 2827 2828 2829 2830 2831 2832 2833 2834 2835 2836 2837 2838 2839 2840 2841 2842 2843 2844 2845 2846 2847 2848 2849 2850 2851 2852 2853 2854 2855 2856 2857 2858 2859 2860 2861 2862 2863 2864 2865 2866 2867 2868 2869 2870 2871 2872 2873 2874 2875 2876 2877 2878 2879 2880 2881 2882 2883 2884 2885 2886 2887 2888 2889 2890 2891 2892 2893 2894 2895 2896 2897 2898 2899 2900 2901 2902 2903 2904 2905 2906 2907 2908 2909 2910 2911 2912 2913 2914 2915 2916 2917 2918 2919 2920 2921 2922 2923 2924 2925 2926 2927 2928 2929 2930 2931 2932 2933 2934 2935 2936 2937 2938 2939 2940 2941 2942 2943 2944 2945 2946 2947 2948 2949 2950 2951 2952 2953 2954 2955 2956 2957 2958 2959 2960 2961 2962 2963 2964 2965 2966 2967 2968 2969 2970 2971 2972 2973 2974 2975 2976 2977 2978 2979 2980 2981 2982 2983 2984 2985 2986 2987 2988 2989 2990 2991 2992 2993 2994 2995 2996 2997 2998 2999 3000 3001 3002 3003 3004 3005 3006 3007 3008 3009 3010 3011 3012 3013 3014 3015 3016 3017 3018 3019 3020 3021 3022 3023 3024 3025 3026 3027 3028 3029 3030 3031 3032 3033 3034 3035 3036 3037 3038 3039 3040 3041 3042 3043 3044 3045 3046 3047 3048 3049 3050 3051 3052 3053 3054 3055 3056 3057 3058 3059 3060 3061 3062 3063 3064 3065 3066 3067 3068 3069 3070 3071 3072 3073 3074 3075 3076 3077 3078 3079 3080 3081 3082 3083 3084 3085 3086 3087 3088 3089 3090 3091 3092 3093 3094 3095 3096 3097 3098 3099 3100 3101 3102 3103 3104 3105 3106 3107 3108 3109 3110 3111 3112 3113 3114 3115 3116 3117 3118 3119 3120 3121 3122 3123 3124 3125 3126 3127 3128 3129 3130 3131 3132 3133 3134 3135 3136 3137 3138 3139 3140 3141 3142 3143 3144 3145 3146 3147 3148 3149 3150 3151 3152 3153 3154 3155 3156 3157 3158 3159 3160 3161 3162 3163 3164 3165 3166 3167 3168 3169 3170 3171 3172 3173 3174 3175 3176 3177 3178 3179 3180 3181 3182 3183 3184 3185 3186 3187 3188 3189 3190 3191 3192 3193 3194 3195 3196 3197 3198 3199 3200 3201 3202 3203 3204 3205 3206 3207 3208 3209 3210 3211 3212 3213 3214 3215 3216 3217 3218 3219 3220 3221 3222 3223 3224 3225 3226 3227 3228 3229 3230 3231 3232 3233 3234 3235 3236 3237 3238 3239 3240 3241 3242 3243 3244 3245 3246 3247 3248 3249 3250 3251 3252 3253 3254 3255 3256 3257 3258 3259 3260 3261 3262 3263 3264 3265 3266 3267 3268 3269 3270 3271 3272 3273 3274 3275 3276 3277 3278 3279 3280 3281 3282 3283 3284 3285 3286 3287 3288 3289 3290 3291 3292 3293 3294 3295 3296 3297 3298 3299 3300 3301 3302 3303 3304 3305 3306 3307 3308 3309 3310 3311 3312 3313 3314 3315 3316 3317 3318 3319 3320 3321 3322 3323 3324 3325 3326 3327 3328 3329 3330 3331 3332 3333 3334 3335 3336 3337 3338 3339 3340 3341 3342 3343 3344 3345 3346 3347 3348 3349 3350 3351 3352 3353 3354 3355 3356 3357 3358 3359 3360 3361 3362 3363 3364 3365 3366 3367 3368 3369 3370 3371 3372 3373 3374 3375 3376 3377 3378 3379 3380 3381 3382 3383 3384 3385 3386 3387 3388 3389 3390 3391 3392 3393 3394 3395 3396 3397 3398 3399 3400 3401 3402 3403 3404 3405 3406 3407 3408 3409 3410 3411 3412 3413 3414 3415 3416 3417 3418 3419 3420 3421 3422 3423 3424 3425 3426 3427 3428 3429 3430 3431 3432 3433 3434 3435 3436 3437 3438 3439 3440 3441 3442 3443 3444 3445 3446 3447 3448 3449 3450 3451 3452 3453 3454 3455 3456 3457 3458 3459 3460 3461 3462 3463 3464 3465 3466 </DataArray>
        <DataArray type="Float64" Name="stress" format="ascii" NumberOfComponents="9">-4195826.886428284 5171137.853785147 5171137.853785147 -100954928.4905691 0 0 0 0 0 -2783748.900826861 -2710352.462895676 -2710352.462895676 -74736992.33249766 0 0 0 0 0 618892.5861086318 3844700.174626863 3844700.174626863 -70001504.33496758 0 0 0 0 0 -4890953.510034659 4101833.816700584 4101833.816700584 -67969815.56812131 0 0 0 0 0 -3042917.339219254 7970658.829901111 7970658.829901111 -92186453.88669395 0 0 0 0 0 -2256413.168221882 -2556325.039913496 -2556325.039913496 -68473419.94652884 0 0 0 0 0 -2832470.793539803 -2994519.044532155 -2994519.044532155 -56213631.4527879 0 0 0 0 0 -1153195.350180063 5056232.064398638 5056232.064398638 -63333670.2463524 0 0 0 0 0 -3646007.519340578 1338776.488255905 1338776.488255905 -55867206.83430424 0 0 0 0 0 -3173890.213793643 1851444.731359316 1851444.731359316 -48118399.53875314 0 0 0 0 0 -1231750.478257281 -3460264.016486816 -3460264.016486816 -39388721.12905448 0 0 0 0 0 -4130293.901967024 10827676.75974446 10827676.75974446 -84754693.49603055 0 0 0 0 0 -1362739.071436879 1965191.659686153 1965191.659686153 -65258570.03025868 0 0 0 0 0 -591628.369343452 -4771599.25053211 -4771599.25053211 -50357968.24939375 0 0 0 0 0 -2257106.298450413 -5996065.877161715 -5996065.877161715 -45133309.4365273 0 0 0 0 0 858060.0294893355 281918.8313532069 281918.8313532069 -33203292.54353881 0 0 0 0 0 2488908.407279297 -3361025.128624485 -3361025.128624485 -27073489.03962212 0 0 0 0 0 -1124430.140622356 6898119.334521476 6898119.334521476 -53851866.74391899 0 0 0 0 0 -861377.9425573347 -1998037.219346531 -1998037.219346531 -46116302.7062443 0 0 0 0 0 -1048297.686676247 -2563785.120387614 -2563785.120387614 -44902240.29566239 0 0 0 0 0 240566.9064520992 -2515728.097592637 -2515728.097592637 -38628703.7492497 0 0 0 0 0 783465.6259912238 -7209296.708626115 -7209296.708626115 -30960711.70550621 0 0 0 0 0 5135241.812506875 -875992.1915387913 -875992.1915387913 -22809668.82254382 0 0 0 0 0 -3236491.544135526 11821030.76566803 11821030.76566803 -71265438.03402396 0 0 0 0 0 1204539.928884398 -318463.9477557625 -318463.9477557625 -57801677.65180004 0 0 0 0 0 4073369.002666397 -9124969.389356483 -9124969.389356483 -44717241.24640732 0 0 0 0 0 3069513.343228962 -9861517.992529606 -9861517.992529606 -37049083.959589 0 0 0 0 0 6361963.489901116 -4982550.934414066 -4982550.934414066 -27664823.83448954 0 0 0 0 0 7639082.691985481 -3321121.211717191 -3321121.211717191 -19002546.76499433 0 0 0 0 0 5365021.479925847 -7368256.230841451 -7368256.230841451 -22559509.75564121 0 0 0 0 0 -1484084.523667623 6666372.984733254 6666372.984733254 -43669968.45539666 0 0 0 0 0 2412640.514423279 -5150893.058774934 -5150893.058774934 -39652890.76649313 0 0 0 0 0 3659067.671652933 -7819629.889939767 -7819629.889939767 -36455580.56869657 0 0 0 0 0 2913728.166532244 -8030880.086559169 -8030880.086559169 -30429251.03417464 0 0 0 0 0 3661650.807815249 -8870125.548452424 -8870125.548452424 -23008682.66174372 0 0 0 0 0 10633596.00012095 -1255496.072905486 -1255496.072905486 -15428776.94311141 0 0 0 0 0 7943164.296687204 -5360292.391374381 -5360292.391374381 -18886069.8174644 0 0 0 0 0 -2057632.15737913 10572429.68672869 10572429.68672869 -54548138.66819917 0 0 0 0 0 5551001.804702427 -3026660.883628658 -3026660.883628658 -49888157.75487182 0 0 0 0 0 6018718.577848832 -6640199.160885065 -6640199.160885065 -41980157.53509007 0 0 0 0 0 9057305.193131249 -14970489.38852394 -14970489.38852394 -31388002.50268987 0 0 0 0 0 9576181.241417354 -14779569.48474993 -14779569.48474993 -34069630.3030713 0 0 0 0 0 9746447.261411747 -12605586.66640721 -12605586.66640721 -26798351.39516514 0 0 0 0 0 10899258.91022285 -10738550.87753573 -10738550.87753573 -20868952.59350096 0 0 0 0 0 12711198.74049977 -3103369.275157821 -3103369.275157821 -12407101.90602883 0 0 0 0 0 11226255.81634104 -7849840.404488164 -7849840.404488164 -15997934.07364501 0 0 0 0 0 598879.4337576883 2510787.557072036 2510787.557072036 -29471849.77522445 0 0 0 0 0 3992268.986693306 -4476981.821853967 -4476981.821853967 -37776658.27211514 0 0 0 0 0 11811990.2955153 -14443146.14825415 -14443146.14825415 -33192682.0733597 0 0 0 0 0 10260955.70921464 -13449703.35201252 -13449703.35201252 -26627755.13041053 0 0 0 0 0 11144859.08161647 -13517328.62713639 -13517328.62713639 -30608694.15056712 0 0 0 0 0 9069098.203620417 -12084842.68451635 -12084842.68451635 -22288662.79743289 0 0 0 0 0 10785606.75068517 -10199246.27557961 -10199246.27557961 -17333421.93321469 0 0 0 0 0 17055416.3910381 -1544392.672640117 -1544392.672640117 -9967408.102256391 0 0 0 0 0 12107147.64310131 -6739284.437890746 -6739284.437890746 -13160546.00245544 0 0 0 0 0 17876135.21676224 -2412779.884639448 -2412779.884639448 -7947386.359987376 0 0 0 0 0 914715.1716636192 7843920.497809479 7843920.497809479 -37660681.78124885 0 0 0 0 0 6098417.968939421 -1767726.610974835 -1767726.610974835 -38084595.7127379 0 0 0 0 0 12763988.49566074 -11576575.90711165 -11576575.90711165 -29693957.8798937 0 0 0 0 0 14088801.43960655 -13482910.76158575 -13482910.76158575 -31969084.29340909 0 0 0 0 0 15356905.03727021 -18149198.36653171 -18149198.36653171 -22827693.76354455 0 0 0 0 0 16343141.47722845 -19900862.11327008 -19900862.11327008 -25805017.026809 0 0 0 0 0 18158883.28915021 -20580669.72003079 -20580669.72003079 -27059053.26987004 0 0 0 0 0 15402113.37453451 -15619316.50058668 -15619316.50058668 -18716089.78102257 0 0 0 0 0 16373737.67301317 -12660985.28779901 -12660985.28779901 -14668543.29556792 0 0 0 0 0 14348034.20371196 -5063479.839460541 -5063479.839460541 -9190825.497180436 0 0 0 0 0 18971766.40208491 -8217060.441243389 -8217060.441243389 -10673788.77292867 0 0 0 0 0 19421470.62546875 -1559162.94549814 -1559162.94549814 -6369835.71736502 0 0 0 0 0 1654636.593845981 447320.7105813111 447320.7105813111 -17282602.06456904 0 0 0 0 0 14218617.34995417 -10991698.69146642 -10991698.69146642 -21288046.69062014 0 0 0 0 0 14136307.69254961 -11732660.95693207 -11732660.95693207 -31845609.14020006 0 0 0 0 0 21087507.14672512 -20323427.1284908 -20323427.1284908 -26019353.56454 0 0 0 0 0 17140658.20067427 -16944643.37679239 -16944643.37679239 -19926212.36555294 0 0 0 0 0 18887733.46875803 -18511577.37363638 -18511577.37363638 -23215204.33120155 0 0 0 0 0 21541313.79297097 -19203937.0145 -19203937.0145 -25793312.52707243 0 0 0 0 0 16360793.04308233 -14757517.48438106 -14757517.48438106 -16058298.39058891 0 0 0 0 0 16778445.92799198 -12005794.41559765 -12005794.41559765 -12336389.77532631 0 0 0 0 0 22605718.95257955 -5437686.248117873 -5437686.248117873 -6699998.052830345 0 0 0 0 0 17324537.69735771 -8821162.749693813 -8821162.749693813 -9178349.265189787 0 0 0 0 0 23059084.36176551 -2697892.862386503 -2697892.862386503 -4582122.717097177 0 0 0 0 0 6713851.616983019 -18788.65125563604 -18788.65125563604 -16504580.26542346 0 0 0 0 0 16866523.47708299 -8266479.328577811 -8266479.328577811 -24350211.67310848 0 0 0 0 0 18168241.8809025 -12904667.42316657 -12904667.42316657 -27214049.52356772 0 0 0 0 0 23802181.18083352 -20107310.60900011 -20107310.60900011 -22074514.32517204 0 0 0 0 0 24424167.92806885 -19350606.53773611 -19350606.53773611 -26533670.56346141 0 0 0 0 0 21195778.45527276 -20388295.84063448 -20388295.84063448 -16998132.27640463 0 0 0 0 0 22405038.00106573 -22853327.99237162 -22853327.99237162 -19937004.76170436 0 0 0 0 0 24603253.19371859 -24655265.32519926 -24655265.32519926 -22024219.83580808 0 0 0 0 0 27834848.40183612 -25541239.14560216 -25541239.14560216 -22286757.44619653 0 0 0 0 0 21162538.22345878 -17250771.38892692 -17250771.38892692 -13501387.51065062 0 0 0 0 0 22103340.4464997 -13697747.57628025 -13697747.57628025 -10075510.35052446 0 0 0 0 0 20237603.97884048 -6993756.662124657 -6993756.662124657 -6126821.679607823 0 0 0 0 0 24696189.33217375 -9829304.369079452 -9829304.369079452 -6775164.720312285 0 0 0 0 0 26275549.27933354 -1740269.602449696 -1740269.602449696 -3113400.23887499 0 0 0 0 0 27871735.57152347 -2359101.161726812 -2359101.161726812 -2140359.857646061 0 0 0 0 0 8332228.172915688 -7547626.889135852 -7547626.889135852 -2810024.168743055 0 0 0 0 0 16057110.52320887 -12594656.86146805 -12594656.86146805 -16558868.94207694 0 0 0 0 0 29450376.12637117 -21030108.98076802 -21030108.98076802 -15574513.13920006 0 0 0 0 0 28560085.6652101 -19719692.72483887 -19719692.72483887 -25249112.51025507 0 0 0 0 0 31527751.18843716 -26326170.22441835 -26326170.22441835 -21002673.69644424 0 0 0 0 0 23723980.7818033 -19128028.80585147 -19128028.80585147 -14990158.24565773 0 0 0 0 0 25810203.94729821 -21343197.4456947 -21343197.4456947 -18116939.58320449 0 0 0 0 0 28883383.03886812 -22970733.83802412 -22970733.83802412 -20725334.45010358 0 0 0 0 0 32688821.98627466 -23980346.48930449 -23980346.48930449 -22435911.01619067 0 0 0 0 0 22653958.19966939 -16390241.89945346 -16390241.89945346 -11765399.68256329 0 0 0 0 0 22564359.29925028 -13291908.8170135 -13291908.8170135 -8853745.82307261 0 0 0 0 0 26867154.83029302 -6574714.192523323 -6574714.192523323 -4183037.63867242 0 0 0 0 0 23565980.28167189 -10215378.52164788 -10215378.52164788 -6248703.653085024 0 0 0 0 0 25873704.82642406 -6718295.529020892 -6718295.529020892 -3431880.286306766 0 0 0 0 0 30854506.90481647 -1692387.430245535 -1692387.430245535 -1138762.47108137 0 0 0 0 0 17679182.22806878 -10385691.49909787 -10385691.49909787 1564473.425403958 0 0 0 0 0 27314310.63727038 -16153846.35388631 -16153846.35388631 -11838584.32083608 0 0 0 0 0 33163829.79615009 -20341571.91266161 -20341571.91266161 -20118322.31037851 0 0 0 0 0 36997348.20258077 -26800448.67788973 -26800448.67788973 -17008210.50478173 0 0 0 0 0 37799608.09110606 -24705464.43820664 -24705464.43820664 -22666659.19319727 0 0 0 0 0 28319143.49701497 -24450223.79310369 -24450223.79310369 -15775572.27183808 0 0 0 0 0 27012645.16465891 -21514130.88427258 -21514130.88427258 -12837504.93571714 0 0 0 0 0 30674311.46695313 -26796777.61311334 -26796777.61311334 -18181347.61916686 0 0 0 0 0 34041218.75467281 -28498837.45372487 -28498837.45372487 -19639702.4384083 0 0 0 0 0 38271381.37581798 -29702595.256135 -29702595.256135 -19881953.96674895 0 0 0 0 0 26701901.3267339 -18133799.04727654 -18133799.04727654 -9763284.294812944 0 0 0 0 0 27109980.73591926 -14611551.71973835 -14611551.71973835 -6935452.872458395 0 0 0 0 0 27061444.87671071 -11358174.48028499 -11358174.48028499 -4534866.029407062 0 0 0 0 0 31765271.50094304 -6197478.193430427 -6197478.193430427 -1697024.820121696 0 0 0 0 0 32493070.52760222 -2105737.823150425 -2105737.823150425 -534271.4363072602 0 0 0 0 0 30163445.80702214 -5917172.65309798 -5917172.65309798 -1719425.970809944 0 0 0 0 0 19258799.02167053 -17733158.02523938 -17733158.02523938 9440067.341150654 0 0 0 0 0 27560240.85843435 -21061089.43060376 -21061089.43060376 -5867390.566462094 0 0 0 0 0 42271950.2347452 -27825605.76149739 -27825605.76149739 -11166136.06157237 0 0 0 0 0 44004769.86381732 -25538519.76909123 -25538519.76909123 -20979125.23295887 0 0 0 0 0 43505482.53072393 -30495655.34435768 -30495655.34435768 -18529018.84322053 0 0 0 0 0 32083967.81126647 -22899597.9224172 -22899597.9224172 -14320298.0002575 0 0 0 0 0 29821119.38899516 -20305780.33958643 -20305780.33958643 -11510524.70360494 0 0 0 0 0 35346339.5974192 -24995530.00532936 -24995530.00532936 -16950835.37937206 0 0 0 0 0 39529174.28178441 -26566496.51104179 -26566496.51104179 -19061160.23325126 0 0 0 0 0 44811413.33736072 -27671225.40099932 -27671225.40099932 -20319031.53183961 0 0 0 0 0 28564506.92038488 -17322226.50517121 -17322226.50517121 -8835639.291743554 0 0 0 0 0 28273971.17574092 -14124252.7223627 -14124252.7223627 -6429029.992252837 0 0 0 0 0 28909077.60874355 -10805313.52420917 -10805313.52420917 -3987470.741661971 0 0 0 0 0 29376144.45453829 -8157209.942353069 -8157209.942353069 -2182438.047812531 0 0 0 0 0 34921663.24592489 -1533624.433207453 -1533624.433207453 289224.047456311 0 0 0 0 0 33209891.01686189 -5050608.945592408 -5050608.945592408 -542461.8541881568 0 0 0 0 0 36767671.90268748 -1964973.651377978 -1964973.651377978 933897.7601966567 0 0 0 0 0 29572872.45804308 -22452351.04860573 -22452351.04860573 16767669.79228276 0 0 0 0 0 42100850.70379888 -25760639.83991893 -25760639.83991893 960089.6404745737 0 0 0 0 0 42290788.72018175 -23225154.645866 -23225154.645866 -13365580.29545707 0 0 0 0 0 50940841.34287345 -26292717.16320978 -26292717.16320978 -17688583.22883859 0 0 0 0 0 50028638.37564301 -31131574.7644941 -31131574.7644941 -15406711.00923955 0 0 0 0 0 51396325.65439707 -28465391.57714388 -28465391.57714388 -20334986.27978065 0 0 0 0 0 36218953.18914158 -27737587.08045223 -27737587.08045223 -15234837.7608804 0 0 0 0 0 33867546.13025716 -25099017.75443192 -25099017.75443192 -12659702.95080007 0 0 0 0 0 32540433.62892525 -22011622.57316095 -22011622.57316095 -9874210.934407011 0 0 0 0 0 39588542.89193419 -29820943.57450684 -29820943.57450684 -17282804.43705796 0 0 0 0 0 43907136.80972755 -31357973.29229624 -31357973.29229624 -18559187.4178555 0 0 0 0 0 49172075.30841834 -32358091.17661977 -32358091.17661977 -18839571.15136755 0 0 0 0 0 32166697.22372587 -18661931.10423753 -18661931.10423753 -7169297.697450141 0 0 0 0 0 32589848.27207989 -15231896.5846823 -15231896.5846823 -4693654.124537677 0 0 0 0 0 33697597.28348272 -11475198.36234518 -11475198.36234518 -2386304.378275757 0 0 0 0 0 34795363.49294204 -8764089.603180381 -8764089.603180381 -496434.0408748377 0 0 0 0 0 35306000.7777538 -5552899.474794497 -5552899.474794497 278025.0536993787 0 0 0 0 0 39288803.11700379 -1479786.09762845 -1479786.09762845 1639742.939791383 0 0 0 0 0 40695346.89017227 -1730378.012813968 -1730378.012813968 2012394.811232185 0 0 0 0 0 35234198.43375351 -31193790.59336982 -31193790.59336982 24043030.35938684 0 0 0 0 0 42649601.3868061 -24115726.79142361 -24115726.79142361 -5080783.975545798 0 0 0 0 0 49722113.06119543 -29586722.27850537 -29586722.27850537 -2628893.360511154 0 0 0 0 0 57168734.69198507 -31686710.11662228 -31686710.11662228 -10307418.50552783 0 0 0 0 0 58586508.91613367 -29041376.59488652 -29041376.59488652 -19033898.8894145 0 0 0 0 0 55464893.16726052 -32871359.10234372 -32871359.10234372 -17760475.59276778 0 0 0 0 0 40999561.56319591 -25908831.7008252 -25908831.7008252 -14047528.11410435 0 0 0 0 0 37718397.61749899 -23584003.62854895 -23584003.62854895 -11509726.45420233 0 0 0 0 0 35420531.67172252 -20867888.77525614 -20867888.77525614 -8962199.740318773 0 0 0 0 0 45235390.30971476 -27758262.77252036 -27758262.77252036 -16342344.78311604 0 0 0 0 0 50429291.17313977 -29115435.96035555 -29115435.96035555 -18138887.37370333 0 0 0 0 0 56727727.07853378 -29997955.05730134 -29997955.05730134 -19169544.80413984 0 0 0 0 0 34096360.49967951 -17890967.47374596 -17890967.47374596 -6537536.53179698 0 0 0 0 0 33671965.96764985 -14780666.22153114 -14780666.22153114 -4238117.939372147 0 0 0 0 0 33800127.45089548 -11471284.05678988 -11471284.05678988 -2561785.457284704 0 0 0 0 0 35642172.82820769 -8588049.152317215 -8588049.152317215 -671902.2297598539 0 0 0 0 0 37700225.5909421 -5019329.013641245 -5019329.013641245 807680.8149258073 0 0 0 0 0 38947903.01964395 -5259122.61290608 -5259122.61290608 1180629.95712605 0 0 0 0 0 42865118.67041208 -1381453.978022601 -1381453.978022601 2429173.026633096 0 0 0 0 0 45525204.80250558 -35268335.61382142 -35268335.61382142 29737960.04749039 0 0 0 0 0 56090781.77525686 -30171836.58354228 -30171836.58354228 5931233.305224551 0 0 0 0 0 55385754.97792652 -32520816.40357403 -32520816.40357403 6609004.489016435 0 0 0 0 0 58935899.33516541 -28310147.75282438 -28310147.75282438 -11497037.01515717 0 0 0 0 0 66331643.69247677 -29491336.25016909 -29491336.25016909 -16374974.96945999 0 0 0 0 0 62813786.12918611 -33014963.41650723 -33014963.41650723 -15347398.31456717 0 0 0 0 0 64007360.43887929 -30497707.58144267 -30497707.58144267 -19171483.71307565 0 0 0 0 0 44535297.5554153 -30134806.45850644 -30134806.45850644 -15236705.86963113 0 0 0 0 0 41271955.651156 -27878946.26394719 -27878946.26394719 -12906269.02861257 0 0 0 0 0 38978110.69376423 -25157822.89997851 -25157822.89997851 -10325443.21146943 0 0 0 0 0 37594142.71017977 -22104682.64222661 -22104682.64222661 -7722746.119171632 0 0 0 0 0 48744257.65536579 -31855048.31568027 -31855048.31568027 -17094550.17425965 0 0 0 0 0 53872291.87448813 -33002633.34531409 -33002633.34531409 -18287058.97864575 0 0 0 0 0 59868965.35705192 -33563322.56930735 -33563322.56930735 -18608982.17544819 0 0 0 0 0 37024356.15514021 -18854804.16687376 -18854804.16687376 -5249006.434459535 0 0 0 0 0 37254588.86266889 -15437607.57591027 -15437607.57591027 -2947360.668377769 0 0 0 0 0 38162405.64939266 -12144925.92905692 -12144925.92905692 -1057022.026134009 0 0 0 0 0 39073896.80864103 -9032988.983379947 -9032988.983379947 409685.7102631324 0 0 0 0 0 42867259.36783002 -4804253.135857136 -4804253.135857136 2124951.488004358 0 0 0 0 0 44391063.01720989 -1555790.339932986 -1555790.339932986 2674131.096700085 0 0 0 0 0 42324912.33386672 -4613602.92183343 -4613602.92183343 1831779.686980627 0 0 0 0 0 49207128.37886203 -40915610.1766803 -40915610.1766803 32162014.97379712 0 0 0 0 0 63229520.97116735 -36141544.29901697 -36141544.29901697 13637705.02635409 0 0 0 0 0 67017408.28265432 -29479692.79133916 -29479692.79133916 -6360324.583839769 0 0 0 0 0 64486908.30998109 -32860380.30859047 -32860380.30859047 -5593061.41413525 0 0 0 0 0 70552101.63919564 -33086446.01570319 -33086446.01570319 -11939472.59793231 0 0 0 0 0 71896854.16109867 -30666978.97628497 -30666978.97628497 -18169070.67805096 0 0 0 0 0 66809061.52910882 -33595812.9560405 -33595812.9560405 -17896387.99878908 0 0 0 0 0 50078367.38853426 -28068554.97267494 -28068554.97267494 -14125017.94986111 0 0 0 0 0 45967205.73869412 -26094100.02284836 -26094100.02284836 -11796388.47131811 0 0 0 0 0 42777248.78560362 -23704849.5645751 -23704849.5645751 -9388838.081398068 0 0 0 0 0 40512034.22210083 -20997847.95645679 -20997847.95645679 -7039333.276099712 0 0 0 0 0 55097684.31895002 -29563309.81725491 -29563309.81725491 -16184485.20043373 0 0 0 0 0 61005348.00229868 -30536951.61202311 -30536951.61202311 -17768006.77092746 0 0 0 0 0 67852519.72219409 -31011527.50148561 -31011527.50148561 -18640308.93124253 0 0 0 0 0 39122535.91660779 -18078007.50997674 -18078007.50997674 -4834889.260064182 0 0 0 0 0 38530823.26715974 -15017649.95120827 -15017649.95120827 -2948592.416044347 0 0 0 0 0 38731915.19438914 -11993084.67664394 -11993084.67664394 -1238137.253931115 0 0 0 0 0 39602560.47881151 -8952407.384112395 -8952407.384112395 131162.9490546521 0 0 0 0 0 40738957.61732145 -6843413.181947996 -6843413.181947996 1170682.906905584 0 0 0 0 0 45794451.51518564 -1352260.004863255 -1352260.004863255 2811154.629364737 0 0 0 0 0 44078245.2227156 -4205091.720341058 -4205091.720341058 2187985.214714651 0 0 0 0 0 66430933.60765104 -47822696.88810056 -47822696.88810056 40832127.85432893 0 0 0 0 0 74604919.59529647 -38723752.00715313 -38723752.00715313 17998137.29947606 0 0 0 0 0 81769825.39138952 -34188637.84575336 -34188637.84575336 2516272.691065555 0 0 0 0 0 73134971.56860325 -34276199.18916263 -34276199.18916263 331532.6209239028 0 0 0 0 0 75695643.60405648 -30762474.80897631 -30762474.80897631 -12004063.97456974 0 0 0 0 0 80491300.35508534 -30678977.12835222 -30678977.12835222 -16062963.77363071 0 0 0 0 0 74518674.94216894 -33239930.74533035 -33239930.74533035 -16232921.97617034 0 0 0 0 0 75432560.59453833 -31036218.48577179 -31036218.48577179 -18693978.01052521 0 0 0 0 0 48953324.64407726 -29812288.61815247 -29812288.61815247 -13473171.74414944 0 0 0 0 0 52952013.17300449 -31614068.04917077 -31614068.04917077 -15631898.62429791 0 0 0 0 0 45850046.4905035 -27520980.161135 -27520980.161135 -11051151.67818873 0 0 0 0 0 43631698.95007271 -24842079.26262916 -24842079.26262916 -8546054.785326015 0 0 0 0 0 42256476.06176016 -21885807.25074774 -21885807.25074774 -6102569.494573068 0 0 0 0 0 57815159.76831528 -32856970.47328612 -32856970.47328612 -17344574.84605158 0 0 0 0 0 63509709.35537424 -33494355.24444338 -33494355.24444338 -18475122.45961181 0 0 0 0 0 70015887.18177822 -33537233.37588384 -33537233.37588384 -18837415.82782279 0 0 0 0 0 41678567.09532787 -18738917.00147929 -18738917.00147929 -3810691.325405855 0 0 0 0 0 41803964.9458442 -15562392.11424478 -15562392.11424478 -1799324.198637374 0 0 0 0 0 42682617.63129194 -12349962.63143985 -12349962.63143985 -8348.703494219604 0 0 0 0 0 44101866.07323977 -9112153.789658992 -9112153.789658992 1472998.539828232 0 0 0 0 0 45649947.22596918 -6876274.801849877 -6876274.801849877 2639872.485370535 0 0 0 0 0 47684526.82902433 -1557125.852333803 -1557125.852333803 3160665.493136924 0 0 0 0 0 47005999.24384542 -4431548.61054524 -4431548.61054524 2998155.828071388 0 0 0 0 0 68393387.04300702 -51396177.52286955 -51396177.52286955 37632330.15215497 0 0 0 0 0 77196102.65862001 -41535345.67482828 -41535345.67482828 19056301.45485481 0 0 0 0 0 84155255.25539812 -36163549.49285073 -36163549.49285073 5427658.929188716 0 0 0 0 0 86888157.09146182 -31785507.75403859 -31785507.75403859 -7531287.173415806 0 0 0 0 0 78984867.330375 -33540496.26280981 -33540496.26280981 -8666938.454931377 0 0 0 0 0 82665768.93385528 -32630535.72607379 -32630535.72607379 -13863582.6689508 0 0 0 0 0 83541962.06632723 -30672010.68994026 -30672010.68994026 -17951083.63686687 0 0 0 0 0 77237578.18640633 -33023413.93399235 -33023413.93399235 -18353570.35040218 0 0 0 0 0 54256677.9654035 -27813743.85198604 -27813743.85198604 -12304255.12483831 0 0 0 0 0 58999605.57325345 -29367171.65377032 -29367171.65377032 -14461136.8107736 0 0 0 0 0 50352677.89986371 -25816186.41005023 -25816186.41005023 -10020500.20356012 0 0 0 0 0 47310138.66132744 -23457741.50929151 -23457741.50929151 -7741519.000671373 0 0 0 0 0 45113778.35895161 -20829971.98227843 -20829971.98227843 -5566997.784904545 0 0 0 0 0 64534107.56566324 -30417749.58700068 -30417749.58700068 -16330677.319253 0 0 0 0 0 70899642.21800593 -30934786.7575611 -30934786.7575611 -17737140.76196518 0 0 0 0 0 77973061.93798639 -30927188.19963418 -30927188.19963418 -18519662.41507661 0 0 0 0 0 43722792.61448878 -18021237.84878715 -18021237.84878715 -3596286.817942427 0 0 0 0 0 43077653.15588211 -15150166.5152821 -15150166.5152821 -1833330.103213025 0 0 0 0 0 43122287.45281111 -12284391.79911864 -12284391.79911864 -382556.2427878414 0 0 0 0 0 43609137.60896197 -9435564.443311859 -9435564.443311859 666929.8024047062 0 0 0 0 0 45344291.17993274 -7127486.946906439 -7127486.946906439 1824040.595890924 0 0 0 0 0 49947010.1190633 -1353247.396138002 -1353247.396138002 3514605.567133646 0 0 0 0 0 46754263.19145612 -4636533.61356682 -4636533.61356682 2444497.114139495 0 0 0 0 0 91352232.60313524 -59752923.33607778 -59752923.33607778 47756045.06546956 0 0 0 0 0 93938515.26756646 -45803981.67933247 -45803981.67933247 25674592.12559959 0 0 0 0 0 96644678.9013721 -37596505.39931337 -37596505.39931337 9463104.313369526 0 0 0 0 0 98682899.59768121 -32868345.16948815 -32868345.16948815 -1915026.213660271 0 0 0 0 0 88780227.53552814 -33196397.1260133 -33196397.1260133 -4331637.752844388 0 0 0 0 0 90183958.81013982 -30728670.00097508 -30728670.00097508 -12923773.80146345 0 0 0 0 0 92183237.65982567 -29994758.78604585 -29994758.78604585 -16296985.61504552 0 0 0 0 0 84947518.89936273 -32054775.75726506 -32054775.75726506 -17083126.50822122 0 0 0 0 0 85529714.52451718 -30425077.34470671 -30425077.34470671 -18618779.30597087 0 0 0 0 0 52901854.93772257 -29100378.2115842 -29100378.2115842 -11959471.30827459 0 0 0 0 0 56641771.50168195 -30912517.39294973 -30912517.39294973 -14236883.65108149 0 0 0 0 0 61187947.19522826 -32204534.2255097 -32204534.2255097 -16237820.36399461 0 0 0 0 0 49980187.59426494 -26853822.85053078 -26853822.85053078 -9553963.638057774 0 0 0 0 0 47862508.02041697 -24271028.26017411 -24271028.26017411 -7154793.029969439 0 0 0 0 0 46512003.8803755 -21447906.33080047 -21447906.33080047 -4867138.184823236 0 0 0 0 0 66493314.24224915 -32924061.1038156 -32924061.1038156 -17822266.59878291 0 0 0 0 0 72504588.50770108 -33028680.39980595 -33028680.39980595 -18845831.43599959 0 0 0 0 0 79173239.78385481 -32514771.29090275 -32514771.29090275 -19165534.12370129 0 0 0 0 0 45867835.20613956 -18493659.9007451 -18493659.9007451 -2780751.267592348 0 0 0 0 0 45868749.54993869 -15482457.82777415 -15482457.82777415 -924823.1126605551 0 0 0 0 0 46373739.3143064 -12548211.67025348 -12548211.67025348 608798.1014444565 0 0 0 0 0 47597530.01401464 -9730532.0656709 -9730532.0656709 1884974.782388808 0 0 0 0 0 49149654.13108251 -7162547.732645364 -7162547.732645364 2896258.9505669 0 0 0 0 0 50781358.73800433 -1352772.563566804 -1352772.563566804 3341974.024947149 0 0 0 0 0 48945179.75749043 -3867477.531960955 -3867477.531960955 3052857.635679667 0 0 0 0 0 50846063.90060709 -4710323.740406943 -4710323.740406943 3656188.95520193 0 0 0 0 0 89758720.46920127 -59800486.18572372 -59800486.18572372 39333009.11324136 0 0 0 0 0 93199256.42932869 -45705504.62455786 -45705504.62455786 22497445.969605 0 0 0 0 0 96543421.9292675 -37486773.7762491 -37486773.7762491 9409331.504448282 0 0 0 0 0 99092420.2253706 -32974809.44785373 -32974809.44785373 -310392.1573398992 0 0 0 0 0 100377372.755522 -30374372.88003616 -30374372.88003616 -9289895.767479932 0 0 0 0 0 91399914.21387321 -31660882.54716499 -31660882.54716499 -10976399.65168498 0 0 0 0 0 92914851.88561079 -30564878.31907726 -30564878.31907726 -15152471.49506951 0 0 0 0 0 93363950.71686909 -29430852.03580562 -29430852.03580562 -18002669.97318089 0 0 0 0 0 86327648.17128566 -31415776.46122094 -31415776.46122094 -18782299.05263862 0 0 0 0 0 57895375.53276534 -27204754.97302389 -27204754.97302389 -10793605.19530158 0 0 0 0 0 62317436.577489 -28764867.6784582 -28764867.6784582 -12951797.59009404 0 0 0 0 0 67471625.18678761 -29854035.71978229 -29854035.71978229 -14947096.51835008 0 0 0 0 0 54241625.24396709 -25243769.71924679 -25243769.71924679 -8593363.683541633 0 0 0 0 0 51372650.50945738 -22964086.71949234 -22964086.71949234 -6452925.561637626 0 0 0 0 0 49273093.40770961 -20450675.83075825 -20450675.83075825 -4455095.494371009 0 0 0 0 0 73308519.74942884 -30426597.58804728 -30426597.58804728 -16645911.46720809 0 0 0 0 0 79779979.3978698 -30453803.50170373 -30453803.50170373 -17899798.1681073 0 0 0 0 0 86698512.23256856 -29934678.1240572 -29934678.1240572 -18601042.18460277 0 0 0 0 0 47901180.36440755 -17796013.45773126 -17796013.45773126 -2649871.975314717 0 0 0 0 0 47206767.80212305 -15078094.12272686 -15078094.12272686 -1097925.147622738 0 0 0 0 0 47123604.07287799 -12388493.01973939 -12388493.01973939 196583.1070407655 0 0 0 0 0 47589524.19318175 -9838477.114292635 -9838477.114292635 1349163.640354191 0 0 0 0 0 48681733.30150325 -7469518.236354245 -7469518.236354245 2149513.367486175 0 0 0 0 0 53002681.63407606 -1028444.331457702 -1028444.331457702 3841574.061736295 0 0 0 0 0 52032389.25756518 -3528631.026242213 -3528631.026242213 3848975.191865894 0 0 0 0 0 49763723.19757871 -5336004.272686831 -5336004.272686831 2718478.701850948 0 0 0 0 0 53692138.54314555 -1101031.511851544 -1101031.511851544 3834410.317805067 0 0 0 0 0 56300055.0929756 -1129809.730084561 -1129809.730084561 4077155.720951469 0 0 0 0 0 120535199.8709737 -68979013.47817141 -68979013.47817141 51217709.12663052 0 0 0 0 0 114967532.6462306 -51580220.68717474 -51580220.68717474 31358482.5493572 0 0 0 0 0 112934647.9793809 -40483234.84805235 -40483234.84805235 15327883.35721805 0 0 0 0 0 111703857.6439514 -33885352.49692068 -33885352.49692068 3472025.282917472 0 0 0 0 0 110992931.661729 -29822072.47649512 -29822072.47649512 -5058781.370579283 0 0 0 0 0 100608216.4869938 -30260768.44681721 -30260768.44681721 -7573522.984292086 0 0 0 0 0 101244698.8889718 -28977592.45953003 -28977592.45953003 -13838580.4590877 0 0 0 0 0 101507452.9527466 -28063632.29146403 -28063632.29146403 -16597160.79597884 0 0 0 0 0 93722242.93371496 -29769290.12479063 -29769290.12479063 -17684467.38549146 0 0 0 0 0 93923606.13794327 -28906970.01633798 -28906970.01633798 -18681460.78760239 0 0 0 0 0 59910058.77799541 -29932857.79437236 -29932857.79437236 -12946827.99247488 0 0 0 0 0 56435449.03002182 -28156778.87681221 -28156778.87681221 -10657958.93478369 0 0 0 0 0 64117198.17133517 -31239629.03187648 -31239629.03187648 -15072463.84252025 0 0 0 0 0 69015629.48511153 -32009048.03112533 -32009048.03112533 -16908127.60556614 0 0 0 0 0 53705478.33877663 -25994907.19110631 -25994907.19110631 -8325661.702334491 0 0 0 0 0 51701535.477432 -23537916.08217872 -23537916.08217872 -6055142.663290279 0 0 0 0 0 50389818.58110386 -20880297.75188974 -20880297.75188974 -3930882.171262596 0 0 0 0 0 74546041.18682864 -32189690.02222928 -32189690.02222928 -18315824.05462627 0 0 0 0 0 80630457.49957193 -31753471.60548355 -31753471.60548355 -19170320.6240849 0 0 0 0 0 87181439.99200945 -30713861.46345558 -30713861.46345558 -19402713.88341063 0 0 0 0 0 49721380.28683392 -18106052.42803589 -18106052.42803589 -2006858.927019107 0 0 0 0 0 49625796.09886062 -15313287.34911756 -15313287.34911756 -339301.227186205 0 0 0 0 0 50012760.50317626 -12583602.93372596 -12583602.93372596 1055938.21475103 0 0 0 0 0 50827449.46710302 -9926119.522630593 -9926119.522630593 2242324.596616001 0 0 0 0 0 51770934.95013458 -7603589.81102555 -7603589.81102555 3014722.309731456 0 0 0 0 0 52263372.26915466 -3368478.916234494 -3368478.916234494 3509730.601680452 0 0 0 0 0 52514779.34786508 -5653444.12140696 -5653444.12140696 3476305.21695294 0 0 0 0 0 54780330.73155802 -967906.6475418429 -967906.6475418429 3863403.531133007 0 0 0 0 0 57867186.40409855 -1053751.948524684 -1053751.948524684 4145970.653550242 0 0 0 0 0 58811200.08908339 -1018778.618052285 -1018778.618052285 4003553.735026619 0 0 0 0 0 113546250.7207726 -64396176.87082812 -64396176.87082812 37694544.79979087 0 0 0 0 0 110618787.7184852 -48377940.47941962 -48377940.47941962 23540283.17678467 0 0 0 0 0 110182705.4823501 -37992085.61211837 -37992085.61211837 12252116.03761494 0 0 0 0 0 110109476.0426924 -31980307.1860502 -31980307.1860502 3111803.723453987 0 0 0 0 0 109976601.5205313 -28544276.22389924 -28544276.22389924 -4091640.289089674 0 0 0 0 0 110483541.7968729 -27590992.62809296 -27590992.62809296 -10764385.93417521 0 0 0 0 0 101245198.7268908 -28705105.6256225 -28705105.6256225 -12613926.04236176 0 0 0 0 0 101304058.6195527 -27680890.72142026 -27680890.72142026 -15919224.27042902 0 0 0 0 0 101356909.525285 -27406109.31519314 -27406109.31519314 -18060257.80007377 0 0 0 0 0 94013816.26160054 -29096138.14328508 -29096138.14328508 -19005888.66799532 0 0 0 0 0 65191203.63576099 -27910369.75506401 -27910369.75506401 -11632399.98448998 0 0 0 0 0 61098756.61893781 -26378609.87304435 -26378609.87304435 -9527129.299325166 0 0 0 0 0 69947555.76990102 -29012068.86971913 -29012068.86971913 -13655536.34495274 0 0 0 0 0 75314390.28213382 -29624533.29937211 -29624533.29937211 -15483081.93115779 0 0 0 0 0 57704553.19897194 -24486115.92085462 -24486115.92085462 -7435715.687722492 0 0 0 0 0 55021255.53100784 -22312289.93983469 -22312289.93983469 -5438515.202146132 0 0 0 0 0 53030137.67852799 -19938652.32215806 -19938652.32215806 -3596256.769971511 0 0 0 0 0 81203327.39940886 -29715786.19168171 -29715786.19168171 -17002338.90532227 0 0 0 0 0 87506621.10274141 -29258224.50272883 -29258224.50272883 -18084057.5134116 0 0 0 0 0 94095405.56823307 -28277262.57026814 -28277262.57026814 -18665039.41119582 0 0 0 0 0 51697890.52874521 -17444043.90407725 -17444043.90407725 -1957747.21589845 0 0 0 0 0 50975783.65444683 -14911084.36592969 -14911084.36592969 -543453.7726882451 0 0 0 0 0 50805950.24260194 -12401738.70150673 -12401738.70150673 659869.5271011767 0 0 0 0 0 51140922.55971336 -9959722.35891157 -9959722.35891157 1593191.764481809 0 0 0 0 0 51912815.7678773 -7688456.625010083 -7688456.625010083 2299821.15000884 0 0 0 0 0 54545116.06223072 -3307005.643227606 -3307005.643227606 3831071.685302457 0 0 0 0 0 53215623.74395142 -5630828.728333342 -5630828.728333342 3125020.897575082 0 0 0 0 0 55715575.72183973 -3309542.504051419 -3309542.504051419 3672902.66484333 0 0 0 0 0 57474483.62633452 -3049652.782221074 -3049652.782221074 3689353.512859574 0 0 0 0 0 59990863.22987416 -912064.6226854917 -912064.6226854917 4095395.912124854 0 0 0 0 0 61089065.41809995 -985832.5293902063 -985832.5293902063 4177759.305964103 0 0 0 0 0 66857704.16580804 -824458.0071810264 -824458.0071810264 4108621.754764053 0 0 0 0 0 65709421.56843839 -713196.461818377 -713196.461818377 3975093.483439296 0 0 0 0 0 65002418.77038331 -777998.4195162032 -777998.4195162032 4026414.080543504 0 0 0 0 0 63190166.76392438 -1008579.180792365 -1008579.180792365 4099799.220631704 0 0 0 0 0 148112952.8557656 -74582766.99645548 -74582766.99645548 49400005.73137353 0 0 0 0 0 138573573.7960865 -55786564.57986775 -55786564.57986775 35016515.5445811 0 0 0 0 0 130450871.4949033 -42187388.00538377 -42187388.00538377 19890201.24678229 0 0 0 0 0 125397709.0791491 -33897340.2177671 -33897340.2177671 8142420.858851003 0 0 0 0 0 122012687.3393514 -28986715.58681009 -28986715.58681009 -667159.7348807164 0 0 0 0 0 119769302.1378589 -25882964.44277336 -25882964.44277336 -7184928.629842735 0 0 0 0 0 109632561.5587852 -26408709.68150936 -26408709.68150936 -9612047.493566873 0 0 0 0 0 109668747.0449916 -26260004.74515558 -26260004.74515558 -14498181.66912128 0 0 0 0 0 108715477.1378782 -25421125.77446501 -25421125.77446501 -16758719.76898793 0 0 0 0 0 100993795.1472926 -26949138.31882199 -26949138.31882199 -17927030.01358433 0 0 0 0 0 100896275.9935836 -26798109.10901783 -26798109.10901783 -18639931.62611165 0 0 0 0 0 62814845.71219373 -28795945.35078071 -28795945.35078071 -11772066.80862947 0 0 0 0 0 66688848.30305631 -30088404.3636202 -30088404.3636202 -13922971.4078111 0 0 0 0 0 59605531.05271702 -27081604.87961978 -27081604.87961978 -9534202.212001354 0 0 0 0 0 71194165.75588658 -30888838.8395607 -30888838.8395607 -15873944.26580674 0 0 0 0 0 76276991.19348495 -31140992.20977761 -31140992.20977761 -17516469.88934013 0 0 0 0 0 57066297.95044492 -25025279.910493 -25025279.910493 -7308849.349776435 0 0 0 0 0 55183289.11039571 -22712168.96682643 -22712168.96682643 -5178659.691061028 0 0 0 0 0 53923494.99764159 -20225051.12175404 -20225051.12175404 -3207798.655183579 0 0 0 0 0 81847546.01436895 -30810467.22420178 -30810467.22420178 -18721180.36055539 0 0 0 0 0 87802234.67364205 -29893839.9258722 -29893839.9258722 -19397108.94063 0 0 0 0 0 94037383.74281234 -28409169.52132199 -28409169.52132199 -19506354.30809009 0 0 0 0 0 53240007.0512189 -17647632.91234366 -17647632.91234366 -1444984.990714074 0 0 0 0 0 53057755.05616087 -15058760.79780215 -15058760.79780215 79737.61913260732 0 0 0 0 0 53343081.09309072 -12498705.76345575 -12498705.76345575 1373705.661393811 0 0 0 0 0 53972932.12786043 -10057306.18726127 -10057306.18726127 2381733.839072318 0 0 0 0 0 54814720.88381723 -7853189.463076683 -7853189.463076683 3122782.324342848 0 0 0 0 0 55503209.02687177 -5823653.282137098 -5823653.282137098 3585992.703776461 0 0 0 0 0 58046563.95802832 -3324688.433096382 -3324688.433096382 4156067.128718772 0 0 0 0 0 58749462.30808716 -2747258.234675598 -2747258.234675598 3929425.279503052 0 0 0 0 0 60258392.26037257 -2827894.960638253 -2827894.960638253 4166236.887573498 0 0 0 0 0 62098405.6310498 -991814.6772767694 -991814.6772767694 4130398.706001639 0 0 0 0 0 68314141.35151586 -728849.3669833213 -728849.3669833213 4293645.828749053 0 0 0 0 0 66667920.15214284 -2100066.477556639 -2100066.477556639 4496346.967460468 0 0 0 0 0 65025054.34620733 -955538.794237713 -955538.794237713 4440174.871388947 0 0 0 0 0 68542775.72017211 -638057.7342288521 -638057.7342288521 3990027.748399888 0 0 0 0 0 70099038.67553437 -664532.2836218127 -664532.2836218127 3972737.62884871 0 0 0 0 0 143447026.9395501 -71378827.58250758 -71378827.58250758 37427096.47401093 0 0 0 0 0 130104828.1555669 -46857400.07624631 -46857400.07624631 23861181.68447794 0 0 0 0 0 124774834.2479858 -36615120.57001968 -36615120.57001968 14867752.56607363 0 0 0 0 0 121788565.7964822 -30061682.04251842 -30061682.04251842 6477092.688853132 0 0 0 0 0 119542740.8680545 -26080287.4059127 -26080287.4059127 -579140.7361354226 0 0 0 0 0 117886550.6552127 -23648825.11625307 -23648825.11625307 -6238755.475482828 0 0 0 0 0 117739076.5019808 -24121474.99616502 -24121474.99616502 -11780320.80824161 0 0 0 0 0 108880538.5987944 -25141863.50506608 -25141863.50506608 -13524806.87722342 0 0 0 0 0 107910011.5790287 -24360582.50142177 -24360582.50142177 -16177581.14470986 0 0 0 0 0 107649886.5144391 -24811456.55428198 -24811456.55428198 -17969640.11756319 0 0 0 0 0 100447921.7466947 -26351955.21013902 -26351955.21013902 -18991042.13469115 0 0 0 0 0 67702454.87796319 -26908061.63606582 -26908061.63606582 -10477726.32576451 0 0 0 0 0 72073508.85411647 -28001322.36205725 -28001322.36205725 -12468905.47212048 0 0 0 0 0 63934485.0317261 -25424592.97516964 -25424592.97516964 -8457829.192706116 0 0 0 0 0 76992467.30589923 -28647347.70098128 -28647347.70098128 -14339891.10529634 0 0 0 0 0 82394339.66729677 -28796261.29878245 -28796261.29878245 -15985526.63218608 0 0 0 0 0 60799020.41130122 -23619680.64974108 -23619680.64974108 -6487237.482672968 0 0 0 0 0 58300557.4048996 -21567320.56576154 -21567320.56576154 -4630393.120432599 0 0 0 0 0 56425985.41119053 -19342016.45638145 -19342016.45638145 -2935905.86114079 0 0 0 0 0 88147976.30017646 -28429540.25624343 -28429540.25624343 -17307080.07841891 0 0 0 0 0 94143423.17598824 -27546538.8760616 -27546538.8760616 -18205346.60547081 0 0 0 0 0 100303980.6909114 -26161753.25886796 -26161753.25886796 -18609304.53604671 0 0 0 0 0 55142577.32207109 -17017671.27758055 -17017671.27758055 -1435101.59700185 0 0 0 0 0 54411299.44628515 -14658108.94891704 -14658108.94891704 -136018.7848600257 0 0 0 0 0 54175767.05437677 -12315523.74926534 -12315523.74926534 934217.2876173692 0 0 0 0 0 54389557.36605717 -10045811.7642207 -10045811.7642207 1795626.119518038 0 0 0 0 0 54986271.76399055 -7921170.686396114 -7921170.686396114 2536406.161796309 0 0 0 0 0 55853540.40333799 -5869480.070618303 -5869480.070618303 3088767.886391785 0 0 0 0 0 56754556.56977884 -4277902.652517182 -4277902.652517182 3407252.254813306 0 0 0 0 0 59680657.57274713 -4424824.058771915 -4424824.058771915 4197582.59604164 0 0 0 0 0 60896950.5465062 -2828414.189689578 -2828414.189689578 3827772.407022227 0 0 0 0 0 62827522.71283179 -2915123.417616764 -2915123.417616764 4229785.749858484 0 0 0 0 0 67477531.70891893 -1704761.695091794 -1704761.695091794 3624120.586044195 0 0 0 0 0 63688490.40788468 -2112597.673114848 -2112597.673114848 3628575.183129751 0 0 0 0 0 66121659.03124738 -2449398.83956121 -2449398.83956121 3625399.414861192 0 0 0 0 0 69119847.52010538 -596762.6896183814 -596762.6896183814 3883770.672415973 0 0 0 0 0 71188907.93736972 -582953.6959631451 -582953.6959631451 4092254.484459945 0 0 0 0 0 71508018.80455588 -539243.9929184979 -539243.9929184979 3925248.524357326 0 0 0 0 0 72825751.67916022 -586665.6395206818 -586665.6395206818 3892660.928458916 0 0 0 0 0 181660343.4235563 -79148529.15982229 -79148529.15982229 46281698.44638093 0 0 0 0 0 160320696.3483999 -54829227.01566433 -54829227.01566433 30972686.42034985 0 0 0 0 0 152110186.0654135 -52259874.83721948 -52259874.83721948 32955437.91782203 0 0 0 0 0 146037469.8965723 -41897746.83883412 -41897746.83883412 23495831.02253459 0 0 0 0 0 137791130.5018615 -32640256.85126695 -32640256.85126695 12035088.16521304 0 0 0 0 0 132399512.8547247 -27232361.23185681 -27232361.23185681 3411726.333640396 0 0 0 0 0 128511433.1709551 -23735916.9741816 -23735916.9741816 -3361108.292727933 0 0 0 0 0 125367789.0963873 -21629587.69032211 -21629587.69032211 -8540242.979612581 0 0 0 0 0 116286167.1155982 -22191023.22252625 -22191023.22252625 -10597000.68641242 0 0 0 0 0 115874796.7582124 -23067586.39676627 -23067586.39676627 -14814132.16960248 0 0 0 0 0 114158408.0408825 -22417334.40021327 -22417334.40021327 -16657882.94084697 0 0 0 0 0 106831777.5340775 -23835662.05310021 -23835662.05310021 -17817703.43332452 0 0 0 0 0 106496432.3936017 -24292501.89531507 -24292501.89531507 -18445014.71551436 0 0 0 0 0 65414008.11477997 -27579051.75223271 -27579051.75223271 -10710948.22730445 0 0 0 0 0 68967713.29185136 -28840015.7366728 -28840015.7366728 -12825035.66049107 0 0 0 0 0 73095000.66209333 -29656389.77715501 -29656389.77715501 -14811428.17190363 0 0 0 0 0 62458838.36354647 -25941329.14851265 -25941329.14851265 -8561829.56684966 0 0 0 0 0 77748415.74267578 -29973479.98223042 -29973479.98223042 -16561468.50573787 0 0 0 0 0 82853099.36708589 -29746281.02296103 -29746281.02296103 -17989746.34258004 0 0 0 0 0 60107132.59682293 -24001758.75450716 -24001758.75450716 -6459774.670981134 0 0 0 0 0 58345015.84282872 -21837921.85985409 -21837921.85985409 -4471613.197948625 0 0 0 0 0 57142899.5212753 -19525836.43123131 -19525836.43123131 -2649159.246817768 0 0 0 0 0 88315350.73301516 -28965086.29275677 -28965086.29275677 -18967113.8668953 0 0 0 0 0 93987457.25514998 -27642976.56866286 -27642976.56866286 -19455511.59411275 0 0 0 0 0 99816195.50168796 -25781321.55300395 -25781321.55300395 -19382382.00272183 0 0 0 0 0 56450111.89685218 -17139773.72489126 -17139773.72489126 -1027752.252707229 0 0 0 0 0 56224644.54144526 -14734636.69760358 -14734636.69760358 378602.3122600428 0 0 0 0 0 56404364.48671131 -12378881.19229855 -12378881.19229855 1549340.009953644 0 0 0 0 0 56934821.87346967 -10114570.12132361 -10114570.12132361 2496855.395400224 0 0 0 0 0 57759904.11345559 -7953452.335198303 -7953452.335198303 3277215.880755298 0 0 0 0 0 58748386.73001109 -5905412.414447943 -5905412.414447943 3842225.154239987 0 0 0 0 0 59789527.34280392 -4546146.873125093 -4546146.873125093 3563875.124725859 0 0 0 0 0 61826768.50033477 -4596786.415972958 -4596786.415972958 4020349.573939741 0 0 0 0 0 62724344.72363047 -3112243.855687955 -3112243.855687955 3636269.28190849 0 0 0 0 0 68646630.11978558 -2468326.001632433 -2468326.001632433 4372532.297096292 0 0 0 0 0 69936178.00935656 -1688539.192963993 -1688539.192963993 4351210.897933162 0 0 0 0 0 65413780.26095749 -3158860.953458681 -3158860.953458681 4378228.301646202 0 0 0 0 0 67172253.38278688 -3695719.940702892 -3695719.940702892 4191081.387854911 0 0 0 0 0 70415343.87397109 -1591626.712621323 -1591626.712621323 3543597.810136446 0 0 0 0 0 71826813.94259721 -555210.1727398511 -555210.1727398511 3744956.171539968 0 0 0 0 0 73547396.39221144 -568954.6712803497 -568954.6712803497 3822628.074009244 0 0 0 0 0 74124901.59146841 -481266.9300110099 -481266.9300110099 3834646.991176952 0 0 0 0 0 165252805.5831753 -69426990.0739336 -69426990.0739336 29986352.18611775 0 0 0 0 0 156566858.837835 -52739572.2128036 -52739572.2128036 27932986.31761101 0 0 0 0 0 146527850.0619267 -41040423.85597235 -41040423.85597235 22405115.7198125 0 0 0 0 0 137522485.482243 -34314850.26536064 -34314850.26536064 15532136.5812796 0 0 0 0 0 132577964.0903444 -27454795.21399949 -27454795.21399949 9398858.779582016 0 0 0 0 0 128820224.0597883 -23073442.80572831 -23073442.80572831 2988228.279342876 0 0 0 0 0 125715019.0168239 -20482002.98552932 -20482002.98552932 -2663282.931851699 0 0 0 0 0 123249569.3672157 -18921250.19035303 -18921250.19035303 -7248755.922773178 0 0 0 0 0 122624644.2221117 -20405086.60961099 -20405086.60961099 -12270484.62345897 0 0 0 0 0 114610959.9175691 -21397848.2393627 -21397848.2393627 -13808479.7437407 0 0 0 0 0 112984016.2778515 -20959751.74572146 -20959751.74572146 -16006803.60828531 0 0 0 0 0 112490488.5784208 -21973299.68328879 -21973299.68328879 -17681160.85500204 0 0 0 0 0 105700620.090041 -23412968.53991656 -23412968.53991656 -18690520.25143595 0 0 0 0 0 69920760.33206128 -25827282.55561139 -25827282.55561139 -9466462.788344113 0 0 0 0 0 73923625.40679803 -26898934.4345191 -26898934.4345191 -11390009.38033806 0 0 0 0 0 78429953.3239615 -27562578.75636259 -27562578.75636259 -13244110.42569272 0 0 0 0 0 66462219.01714791 -24405383.17796185 -24405383.17796185 -7549651.296988878 0 0 0 0 0 83360665.5683984 -27774099.00018055 -27774099.00018055 -14945556.39661098 0 0 0 0 0 88678547.80826838 -27491622.33841074 -27491622.33841074 -16387183.19214314 0 0 0 0 0 63572471.67293911 -22698134.06484251 -22698134.06484251 -5704428.757004627 0 0 0 0 0 61255467.97475051 -20773628.70146894 -20773628.70146894 -3981938.382452732 0 0 0 0 0 59499048.91955566 -18699503.85055026 -18699503.85055026 -2419326.970665918 0 0 0 0 0 94198530.67937614 -26699895.06089007 -26699895.06089007 -17490453.63944494 0 0 0 0 0 99822784.75051382 -25437162.11189677 -25437162.11189677 -18173162.39915069 0 0 0 0 0 105438596.0513594 -23731971.91985875 -23731971.91985875 -18381078.80826187 0 0 0 0 0 58274845.71559126 -16539334.71555123 -16539334.71555123 -1035657.850672062 0 0 0 0 0 57542551.21012213 -14347997.03256946 -14347997.03256946 152035.2147908863 0 0 0 0 0 57258638.76217045 -12181898.65805673 -12181898.65805673 1150032.672048405 0 0 0 0 0 57365722.89888778 -10081584.49344254 -10081584.49344254 1983082.764184506 0 0 0 0 0 57814762.76060236 -8072792.596884054 -8072792.596884054 2637848.727006123 0 0 0 0 0 58467471.96887259 -6147905.320004907 -6147905.320004907 3017384.904917284 0 0 0 0 0 61120781.97669627 -6236879.430508044 -6236879.430508044 3755729.195364879 0 0 0 0 0 61962061.43622358 -4716296.737009582 -4716296.737009582 3469369.916623807 0 0 0 0 0 64312554.24211787 -4735172.462743611 -4735172.462743611 4053594.722242363 0 0 0 0 0 67757799.79965155 -3095890.028388812 -3095890.028388812 3414762.008034383 0 0 0 0 0 69127455.37005696 -2190601.081798952 -2190601.081798952 3564031.59878838 0 0 0 0 0 64685047.17562933 -3593950.347655334 -3593950.347655334 3507477.544553334 0 0 0 0 0 66839093.96813094 -3951223.298226479 -3951223.298226479 3391341.554269449 0 0 0 0 0 71512401.86645053 -2198502.502777441 -2198502.502777441 4279396.859021805 0 0 0 0 0 72624436.25218128 -1531995.484525111 -1531995.484525111 4208861.295121836 0 0 0 0 0 72974048.45375764 -1465894.534580833 -1465894.534580833 3497095.079446456 0 0 0 0 0 73952393.07721953 -627692.3690712755 -627692.3690712755 3464306.811782935 0 0 0 0 0 211882850.6139703 -75709182.42649347 -75709182.42649347 42210496.99647791 0 0 0 0 0 185817563.88416 -56961341.14858617 -56961341.14858617 35017822.64863238 0 0 0 0 0 170197412.6878691 -45621056.38178156 -45621056.38178156 29825786.92036491 0 0 0 0 0 157563415.6987442 -37744941.76310602 -37744941.76310602 22619308.35738573 0 0 0 0 0 148888000.8578556 -30545188.12095269 -30545188.12095269 15332240.03574827 0 0 0 0 0 141704704.3115354 -24786896.02954336 -24786896.02954336 7279389.382092943 0 0 0 0 0 136345664.5651201 -21109328.36780433 -21109328.36780433 468437.2092271178 0 0 0 0 0 132232398.5178832 -18813981.05874855 -18813981.05874855 -4959516.600998015 0 0 0 0 0 128757474.6548432 -17467193.3936803 -17467193.3936803 -9181178.741148161 0 0 0 0 0 120912886.209475 -18123003.21985909 -18123003.21985909 -10884473.72966451 0 0 0 0 0 120254078.5780434 -19707845.35978563 -19707845.35978563 -14731124.41314927 0 0 0 0 0 118075228.5317187 -19318321.98576772 -19318321.98576772 -16322718.01204865 0 0 0 0 0 111407751.0198546 -20657425.21337082 -20657425.21337082 -17362521.83135642 0 0 0 0 0 110907842.6894826 -21609637.26777039 -21609637.26777039 -18069507.56953238 0 0 0 0 0 67750076.77100049 -26334437.23254205 -26334437.23254205 -9757759.693917785 0 0 0 0 0 71003609.26114853 -27552412.74883259 -27552412.74883259 -11797867.56504495 0 0 0 0 0 74776352.12380147 -28371470.13537364 -28371470.13537364 -13760769.95216716 0 0 0 0 0 79029032.63731436 -28736132.5338 -28736132.5338 -15559636.44480222 0 0 0 0 0 65036133.96552251 -24781525.8582263 -24781525.8582263 -7717625.025115173 0 0 0 0 0 83696620.85354143 -28607366.86625301 -28607366.86625301 -17098269.40869636 0 0 0 0 0 88715405.73310861 -27943993.43199442 -27943993.43199442 -18295212.10177768 0 0 0 0 0 62863421.29883517 -22962873.85190496 -22962873.85190496 -5745881.949962414 0 0 0 0 0 61216822.49762783 -20948733.27843864 -20948733.27843864 -3897076.453190067 0 0 0 0 0 60067555.46962824 -18807346.4352809 -18807346.4352809 -2212505.896732328 0 0 0 0 0 93986142.07293908 -26773922.35359966 -26773922.35359966 -19052871.78587539 0 0 0 0 0 99318595.3695921 -25128056.24552999 -25128056.24552999 -19315777.03326993 0 0 0 0 0 104623940.8129302 -23009013.4392863 -23009013.4392863 -19015139.05452659 0 0 0 0 0 59379518.63335551 -16598038.87705572 -16598038.87705572 -715651.1101746066 0 0 0 0 0 59106755.07007129 -14379480.66872447 -14379480.66872447 577188.0569480545 0 0 0 0 0 59192124.4932221 -12199362.74716956 -12199362.74716956 1663874.787914457 0 0 0 0 0 59591434.22299177 -10081813.59100747 -10081813.59100747 2563664.595737043 0 0 0 0 0 60217149.59122128 -8070738.633920823 -8070738.633920823 3258943.520861381 0 0 0 0 0 61051832.59740254 -6391250.958771274 -6391250.958771274 3088946.861203555 0 0 0 0 0 63433342.9922671 -6394679.211758607 -6394679.211758607 3716660.683088088 0 0 0 0 0 64074406.60859662 -4963702.519453477 -4963702.519453477 3413925.320367777 0 0 0 0 0 70714330.68636867 -3142236.291172566 -3142236.291172566 4265999.381588534 0 0 0 0 0 69237290.48043032 -3979116.006619313 -3979116.006619313 4055795.894064587 0 0 0 0 0 66175051.69139029 -4985809.235452487 -4985809.235452487 3934298.150185709 0 0 0 0 0 68240916.62430504 -5220898.311599567 -5220898.311599567 3827460.986850622 0 0 0 0 0 70529836.20207338 -2815699.662971448 -2815699.662971448 3341966.80560479 0 0 0 0 0 71863748.32928705 -1993525.204396545 -1993525.204396545 3463800.861773621 0 0 0 0 0 73910403.25603153 -1918674.314331435 -1918674.314331435 4077714.507787623 0 0 0 0 0 74818359.01215798 -1380553.286354227 -1380553.286354227 4053554.171286538 0 0 0 0 0 188268526.7800811 -62992899.83183058 -62992899.83183058 24355489.79308047 0 0 0 0 0 170616347.9455065 -47781789.95610152 -47781789.95610152 23872041.90530545 0 0 0 0 0 160852550.9448722 -36700630.65191476 -36700630.65191476 22241023.07639684 0 0 0 0 0 149522814.4573805 -29425079.16634879 -29425079.16634879 17627056.92147962 0 0 0 0 0 142203895.5497103 -23960378.49088844 -23960378.49088844 11769881.36338945 0 0 0 0 0 136999464.666162 -19702833.26395408 -19702833.26395408 6375557.225404258 0 0 0 0 0 132857829.3313732 -17006261.2383783 -17006261.2383783 1055027.635155271 0 0 0 0 0 129496338.5173623 -15447825.18308867 -15447825.18308867 -3641681.016377889 0 0 0 0 0 126604396.2689763 -14649542.46323643 -14649542.46323643 -7528917.717718262 0 0 0 0 0 125806185.3119895 -16735592.59757649 -16735592.59757649 -12209280.88213738 0 0 0 0 0 118743367.5185054 -17775223.90419474 -17775223.90419474 -13599705.65188461 0 0 0 0 0 116741003.3188164 -17612766.34323745 -17612766.34323745 -15441219.90463348 0 0 0 0 0 116064709.142005 -19087433.31878422 -19087433.31878422 -17196270.54992423 0 0 0 0 0 109846368.7000048 -20434413.98004828 -20434413.98004828 -18114246.95993256 0 0 0 0 0 71896834.33610161 -24715460.78416534 -24715460.78416534 -8578266.616693417 0 0 0 0 0 75555508.36586425 -25756127.48711492 -25756127.48711492 -10414336.64496449 0 0 0 0 0 79669254.23132482 -26428927.90407865 -26428927.90407865 -12217224.29498522 0 0 0 0 0 84180641.7908157 -26687722.91803928 -26687722.91803928 -13914512.52945046 0 0 0 0 0 68728737.92911404 -23362555.17127129 -23362555.17127129 -6773269.798770997 0 0 0 0 0 89008836.84079067 -26503655.51278714 -26503655.51278714 -15429059.0864604 0 0 0 0 0 94107255.16343027 -25844871.74508596 -25844871.74508596 -16663203.43628623 0 0 0 0 0 66071728.94554449 -21756665.51236957 -21756665.51236957 -5051942.579798896 0 0 0 0 0 63928132.85853614 -19960071.90720657 -19960071.90720657 -3455184.374161241 0 0 0 0 0 62286005.62689441 -18032199.10347982 -18032199.10347982 -2009880.34393274 0 0 0 0 0 99314125.23813257 -24715143.54103724 -24715143.54103724 -17566686.61842044 0 0 0 0 0 104480391.3117734 -23155481.32635365 -23155481.32635365 -18050910.04987417 0 0 0 0 0 109481600.6870901 -21194615.63995111 -21194615.63995111 -18061406.56419672 0 0 0 0 0 61119884.79643205 -16027762.05236224 -16027762.05236224 -734335.9311169158 0 0 0 0 0 60394415.79547684 -13999666.91203331 -13999666.91203331 364978.0080769478 0 0 0 0 0 60069761.83563126 -11988630.85317199 -11988630.85317199 1293068.462442004 0 0 0 0 0 60096339.42374618 -10026041.32488546 -10026041.32488546 2042081.414598965 0 0 0 0 0 60429217.46774046 -8138606.934586718 -8138606.934586718 2610162.012855833 0 0 0 0 0 62642084.17973124 -8151977.410891706 -8151977.410891706 3194482.648713079 0 0 0 0 0 63379789.23791765 -6542985.895292789 -6542985.895292789 3098139.837687473 0 0 0 0 0 65454271.50696319 -6509893.48902026 -6509893.48902026 3620581.068543877 0 0 0 0 0 69635277.45105214 -3790190.866718471 -3790190.866718471 3266744.44321503 0 0 0 0 0 68561544.21723007 -4488387.956752855 -4488387.956752855 3173372.239121464 0 0 0 0 0 66072919.77349962 -5147800.529891049 -5147800.529891049 3236231.945739264 0 0 0 0 0 67965008.92445965 -5416168.587547966 -5416168.587547966 3222899.219415426 0 0 0 0 0 72054199.15304741 -3744970.508301889 -3744970.508301889 3993770.120619746 0 0 0 0 0 73026508.15916051 -2708924.194173655 -2708924.194173655 4097398.912990949 0 0 0 0 0 73010975.0338643 -2509709.164858974 -2509709.164858974 3307266.781276879 0 0 0 0 0 74114137.18581684 -1793534.126791342 -1793534.126791342 3385143.752065976 0 0 0 0 0 234459018.7480074 -68515978.6209698 -68515978.6209698 34178600.73971247 0 0 0 0 0 205343355.0223715 -52069773.63820662 -52069773.63820662 33296861.88547051 0 0 0 0 0 184181946.4224137 -40577220.02174176 -40577220.02174176 29576031.70872904 0 0 0 0 0 168823739.9600115 -33517263.86696836 -33517263.86696836 24803034.08715767 0 0 0 0 0 157902113.4917254 -26706673.45661295 -26706673.45661295 17354239.13493887 0 0 0 0 0 149521576.1920699 -21732476.75799434 -21732476.75799434 10745320.15182938 0 0 0 0 0 143097998.6988137 -18098319.50570872 -18098319.50570872 4316349.603488095 0 0 0 0 0 138090452.8087387 -15759022.13132342 -15759022.13132342 -1231938.261735996 0 0 0 0 0 134044105.174617 -14391360.32060278 -14391360.32060278 -5732442.718042911 0 0 0 0 0 130611541.5201853 -13670702.78705693 -13670702.78705693 -9249884.037119778 0 0 0 0 0 123970298.7079178 -14350596.44346513 -14350596.44346513 -10638963.16699878 0 0 0 0 0 123173711.9439373 -16422841.59050944 -16422841.59050944 -14361290.93665608 0 0 0 0 0 120788703.0364631 -16311158.02548879 -16311158.02548879 -15739450.74470321 0 0 0 0 0 114824777.083276 -17572889.36271871 -17572889.36271871 -16651387.28216992 0 0 0 0 0 114213720.03521 -18885311.74182433 -18885311.74182433 -17564734.76022127 0 0 0 0 0 72834234.40921667 -26264827.33600771 -26264827.33600771 -10848736.09198085 0 0 0 0 0 69857949.08110043 -25096586.17655701 -25096586.17655701 -8903279.653290328 0 0 0 0 0 76278399.0375021 -27077796.21945152 -27077796.21945152 -12751289.72911341 0 0 0 0 0 80158320.36668742 -27482972.01612116 -27482972.01612116 -14536112.1429127 0 0 0 0 0 84421098.89134783 -27440421.81093946 -27440421.81093946 -16131678.93706794 0 0 0 0 0 67367119.98454461 -23632410.26381655 -23632410.26381655 -6982033.597260305 0 0 0 0 0 88997770.48226324 -26922788.25448036 -26922788.25448036 -17434540.10689925 0 0 0 0 0 93816006.84079573 -25904051.37119217 -25904051.37119217 -18374178.6359892 0 0 0 0 0 65360089.2044585 -21934421.29065203 -21934421.29065203 -5141178.040219175 0 0 0 0 0 63821919.88881993 -20064835.07512086 -20064835.07512086 -3426046.642750844 0 0 0 0 0 62728074.04980154 -18082138.32248209 -18082138.32248209 -1867464.563773551 0 0 0 0 0 98789576.50370197 -24413144.20042161 -24413144.20042161 -18866020.81942521 0 0 0 0 0 103719952.5759687 -22487632.68906705 -22487632.68906705 -18874422.93461404 0 0 0 0 0 108501652.3771562 -20182421.78234017 -20182421.78234017 -18370636.94207995 0 0 0 0 0 62049810.90789895 -16042257.7371149 -16042257.7371149 -483873.8086513641 0 0 0 0 0 61740383.52672726 -13992701.35811056 -13992701.35811056 712367.663129901 0 0 0 0 0 61768631.25449561 -11970044.50085117 -11970044.50085117 1726242.142281146 0 0 0 0 0 62086448.42577038 -10010180.35579457 -10010180.35579457 2552470.992645393 0 0 0 0 0 62865427.64217235 -8195013.676970353 -8195013.676970353 2645220.464507772 0 0 0 0 0 64813727.01229842 -8164997.03277826 -8164997.03277826 3136493.877658238 0 0 0 0 0 65513219.58453351 -6619402.972667774 -6619402.972667774 3011770.709968866 0 0 0 0 0 71031623.96699135 -4413440.711697863 -4413440.711697863 3916420.162885061 0 0 0 0 0 69914917.83654617 -5414635.474072988 -5414635.474072988 3739954.588166679 0 0 0 0 0 67411832.81882228 -6596902.256696664 -6596902.256696664 3494639.153790532 0 0 0 0 0 69235145.4595135 -6651147.29870173 -6651147.29870173 3385126.831847345 0 0 0 0 0 71353883.59768623 -4148378.37560247 -4148378.37560247 3206034.016476031 0 0 0 0 0 72142424.83819927 -3261954.379139652 -3261954.379139652 3270842.337866021 0 0 0 0 0 74245454.28551786 -3219445.717826277 -3219445.717826277 3903039.275512519 0 0 0 0 0 75169298.62231347 -2441962.65832835 -2441962.65832835 3958710.110450422 0 0 0 0 0 212618192.3268839 -58507483.95711883 -58507483.95711883 17815145.63825126 0 0 0 0 0 186324034.0099157 -37616919.3166175 -37616919.3166175 23615718.36282158 0 0 0 0 0 171211125.0116318 -30099963.07982472 -30099963.07982472 23300566.83977457 0 0 0 0 0 159597375.6236099 -23752824.25532936 -23752824.25532936 19882581.0641828 0 0 0 0 0 150660311.7018716 -19149295.29684966 -19149295.29684966 14987377.38112067 0 0 0 0 0 144024065.4596419 -15771425.92404301 -15771425.92404301 9809784.639173646 0 0 0 0 0 138950546.5145349 -13343396.6576609 -13343396.6576609 4852745.971471124 0 0 0 0 0 134894516.6366055 -11870335.58332604 -11870335.58332604 199164.08684585 0 0 0 0 0 131496289.7746073 -11127399.94790888 -11127399.94790888 -3882041.019572251 0 0 0 0 0 128519588.9087364 -10890464.69597409 -10890464.69597409 -7289427.968379181 0 0 0 0 0 127641875.7691315 -13399601.63917036 -13399601.63917036 -11871913.94616265 0 0 0 0 0 121613969.6094863 -14330024.90565785 -14330024.90565785 -12940881.07860949 0 0 0 0 0 119383163.4580617 -14474470.71399951 -14474470.71399951 -14624909.06379071 0 0 0 0 0 118605969.9101275 -16282208.40520531 -16282208.40520531 -16545930.1082468 0 0 0 0 0 113065577.8107982 -17549155.88927628 -17549155.88927628 -17328277.4095127 0 0 0 0 0 77011291.19960603 -24607276.7538776 -24607276.7538776 -9534560.808796836 0 0 0 0 0 73669552.03538483 -23604157.05786894 -23604157.05786894 -7796555.320095552 0 0 0 0 0 80763824.39651753 -25282449.42270278 -25282449.42270278 -11265526.09592823 0 0 0 0 0 84881460.57863972 -25583443.33786545 -25583443.33786545 -12926217.03743697 0 0 0 0 0 89315456.96521078 -25472939.60465481 -25472939.60465481 -14445764.44171253 0 0 0 0 0 70769581.7528514 -22323159.64850689 -22323159.64850689 -6105363.534015105 0 0 0 0 0 93947660.80161153 -24939978.94249637 -24939978.94249637 -15761043.30533749 0 0 0 0 0 98714143.76155759 -23969102.48393825 -23969102.48393825 -16785202.88111268 0 0 0 0 0 68327856.43624671 -20818844.92767705 -20818844.92767705 -4502912.787373926 0 0 0 0 0 66347739.84645116 -19145127.01324227 -19145127.01324227 -3020519.146479069 0 0 0 0 0 64816468.6450363 -17354737.89766741 -17354737.89766741 -1681906.024174131 0 0 0 0 0 103462747.4468347 -22577366.62822206 -22577366.62822206 -17477955.42629492 0 0 0 0 0 108092030.461224 -20804708.85490569 -20804708.85490569 -17749651.63176558 0 0 0 0 0 112510014.4351087 -18692325.84750148 -18692325.84750148 -17562114.28688463 0 0 0 0 0 63705154.38841499 -15499236.62743458 -15499236.62743458 -501880.8410192431 0 0 0 0 0 62996491.21655271 -13620223.30432727 -13620223.30432727 518196.5286149089 0 0 0 0 0 62641403.27931538 -11756237.33545896 -11756237.33545896 1372728.259186503 0 0 0 0 0 62611911.66121158 -9939291.059247322 -9939291.059247322 2070394.58279763 0 0 0 0 0 64357010.8311381 -9907646.015998175 -9907646.015998175 2508257.909578374 0 0 0 0 0 65101589.5635009 -8179827.942024592 -8179827.942024592 2618435.541105617 0 0 0 0 0 66840304.86468757 -8133582.205501151 -8133582.205501151 3046315.127671498 0 0 0 0 0 70496545.77936061 -5453444.340130904 -5453444.340130904 3314194.260275512 0 0 0 0 0 69833870.21638288 -5499190.873875904 -5499190.873875904 3254086.449025277 0 0 0 0 0 67494222.87335266 -6683187.476270379 -6683187.476270379 2950831.488844605 0 0 0 0 0 69303364.50013168 -6719588.329223914 -6719588.329223914 2901966.40195405 0 0 0 0 0 73432179.99458478 -4093740.175550458 -4093740.175550458 3784585.282032316 0 0 0 0 0 72590185.7472696 -5349527.19411526 -5349527.19411526 3381982.677831718 0 0 0 0 0 73513907.77631395 -3686907.343057352 -3686907.343057352 3144577.643815826 0 0 0 0 0 74330960.02085988 -2954728.870376346 -2954728.870376346 3197322.922448596 0 0 0 0 0 263370254.5490282 -59942653.89975612 -59942653.89975612 28630035.62117641 0 0 0 0 0 221997763.698844 -38769154.53025606 -38769154.53025606 27313475.50463062 0 0 0 0 0 191626359.0187424 -34461911.55716409 -34461911.55716409 30314394.25402914 0 0 0 0 0 204956859.1100201 -40086258.56118125 -40086258.56118125 29785298.91878876 0 0 0 0 0 176007870.3301783 -27813078.36834001 -27813078.36834001 26270521.53067981 0 0 0 0 0 164235439.0172704 -22158779.05767566 -22158779.05767566 20159248.2217546 0 0 0 0 0 155293470.3779979 -17849205.60163956 -17849205.60163956 13876621.59512214 0 0 0 0 0 148326244.8322819 -14721589.72089104 -14721589.72089104 8046287.234537788 0 0 0 0 0 142788677.2007916 -12545948.28139581 -12545948.28139581 2625399.459541306 0 0 0 0 0 138306493.8652878 -11221931.98056632 -11221931.98056632 -2055396.171913106 0 0 0 0 0 134556830.3790614 -10545523.68565788 -10545523.68565788 -5903741.849658808 0 0 0 0 0 131325224.9989761 -10316677.23755189 -10316677.23755189 -8953739.603573689 0 0 0 0 0 125850796.873298 -10983539.59797317 -10983539.59797317 -10019666.73654298 0 0 0 0 0 124959175.9759141 -13374266.03203805 -13374266.03203805 -13741579.87677688 0 0 0 0 0 122536640.3037813 -13489436.06886053 -13489436.06886053 -14986351.24505433 0 0 0 0 0 117333627.4111688 -14667487.95222359 -14667487.95222359 -15740597.08350788 0 0 0 0 0 116607692.2767001 -16280823.94001291 -16280823.94001291 -16894844.33720013 0 0 0 0 0 77632255.60775271 -25801387.10649062 -25801387.10649062 -11801686.64277322 0 0 0 0 0 74489114.48762541 -25002368.94977448 -25002368.94977448 -9978291.167371664 0 0 0 0 0 71767172.50376415 -23888288.24055008 -23888288.24055008 -8138366.821129901 0 0 0 0 0 81168177.85180259 -26236029.05655035 -26236029.05655035 -13542028.06618182 0 0 0 0 0 85055548.63416298 -26266925.69625412 -26266925.69625412 -15135232.85263533 0 0 0 0 0 89256450.20187505 -25863560.7572173 -25863560.7572173 -16514664.36379477 0 0 0 0 0 69482763.46191889 -22512592.61489555 -22512592.61489555 -6338130.704255777 0 0 0 0 0 93666486.77582671 -25009019.60877475 -25009019.60877475 -17566688.42212106 0 0 0 0 0 98199338.32514209 -23713766.89986433 -23713766.89986433 -18245972.57823652 0 0 0 0 0 67626189.28315361 -20930720.27280279 -20930720.27280279 -4625372.064186929 0 0 0 0 0 66184644.17209493 -19196956.14373858 -19196956.14373858 -3034962.346902811 0 0 0 0 0 65145881.6704289 -17362998.18100454 -17362998.18100454 -1591580.828061244 0 0 0 0 0 102748213.5491659 -21998377.2473214 -21998377.2473214 -18494840.01630176 0 0 0 0 0 107195944.9590187 -19910671.83356187 -19910671.83356187 -18285350.25725984 0 0 0 0 0 111448173.2739337 -17497626.34630707 -17497626.34630707 -17586223.9273505 0 0 0 0 0 64480718.49573646 -15480595.22241244 -15480595.22241244 -309513.0903486243 0 0 0 0 0 64156759.13255148 -13584647.9127928 -13584647.9127928 801284.7769894103 0 0 0 0 0 64132736.38457122 -11716995.85983146 -11716995.85983146 1740209.990799298 0 0 0 0 0 64925675.45669039 -9810932.685430095 -9810932.685430095 2086184.783727488 0 0 0 0 0 66455057.09129503 -9757004.499100571 -9757004.499100571 2454392.922926487 0 0 0 0 0 67163601.20523956 -8128008.847956367 -8128008.847956367 2565993.555051365 0 0 0 0 0 71391924.5665224 -5438224.502553463 -5438224.502553463 3182877.285131244 0 0 0 0 0 70704491.75667648 -6653926.195459412 -6653926.195459412 3214997.093956783 0 0 0 0 0 68705838.50164099 -8074956.11838121 -8074956.11838121 2938694.744627122 0 0 0 0 0 70395420.37979853 -7966492.181301191 -7966492.181301191 2822302.600808815 0 0 0 0 0 72819774.37397631 -4453685.552563765 -4453685.552563765 3046266.621858737 0 0 0 0 0 72670245.21048658 -5460250.682653276 -5460250.682653276 2923567.748438984 0 0 0 0 0 75467140.21081404 -3654956.023493036 -3654956.023493036 3728391.685332774 0 0 0 0 0 74745599.45843861 -4440231.511382006 -4440231.511382006 3599602.160800006 0 0 0 0 0 229324553.721957 -46501233.36996772 -46501233.36996772 12750460.24613817 0 0 0 0 0 206763216.9547285 -35695943.57244476 -35695943.57244476 21730221.3244866 0 0 0 0 0 178092801.824211 -22630978.45444211 -22630978.45444211 23939055.12627566 0 0 0 0 0 194057213.8271856 -24593393.47782405 -24593393.47782405 24261653.23606581 0 0 0 0 0 166447589.1402715 -17908090.58237928 -17908090.58237928 22333902.63053279 0 0 0 0 0 156782188.0867248 -14235197.8048688 -14235197.8048688 18343184.54946529 0 0 0 0 0 149543041.8291611 -11487025.0331305 -11487025.0331305 13597794.08999652 0 0 0 0 0 143828871.6628699 -9545553.843292888 -9545553.843292888 8780367.213262921 0 0 0 0 0 139286068.0732463 -8281500.353820889 -8281500.353820889 4204201.427266832 0 0 0 0 0 135517293.3243049 -7645738.909707907 -7645738.909707907 11685.78370235752 0 0 0 0 0 132274424.949359 -7490799.308073446 -7490799.308073446 -3648432.048691703 0 0 0 0 0 129402628.4466827 -7671243.247205454 -7671243.247205454 -6717944.949698726 0 0 0 0 0 128469351.5160871 -10382950.17670714 -10382950.17670714 -11265924.24028231 0 0 0 0 0 123407837.7360081 -11261852.01523804 -11261852.01523804 -12109869.06033489 0 0 0 0 0 121147702.6683326 -11629912.17830007 -11629912.17830007 -13646311.24217024 0 0 0 0 0 120301685.050531 -13667784.15216477 -13667784.15216477 -15750571.42622417 0 0 0 0 0 115429578.1042845 -14847616.13431438 -14847616.13431438 -16389423.519705 0 0 0 0 0 81743978.73379515 -24144300.94072092 -24144300.94072092 -10388933.07504207 0 0 0 0 0 78321840.59302829 -23475388.47840894 -23475388.47840894 -8742163.002172254 0 0 0 0 0 75269984.50020535 -22513505.5846213 -22513505.5846213 -7106239.044505316 0 0 0 0 0 85491560.77905603 -24480113.85627515 -24480113.85627515 -11994304.42934594 0 0 0 0 0 89526550.80377255 -24448950.90316667 -24448950.90316667 -13497365.42782205 0 0 0 0 0 93808368.80467236 -24021649.16244109 -24021649.16244109 -14837709.61683022 0 0 0 0 0 72616017.61000526 -21304865.69779369 -21304865.69779369 -5526272.424247336 0 0 0 0 0 98176613.41789103 -23177952.76717529 -23177952.76717529 -15940702.4171997 0 0 0 0 0 102521868.099143 -21971650.89511739 -21971650.89511739 -16765440.10269531 0 0 0 0 0 70375657.40467462 -19898043.21562905 -19898043.21562905 -4033993.471600519 0 0 0 0 0 68545985.26731177 -18338985.54210554 -18338985.54210554 -2655235.339707244 0 0 0 0 0 67116445.34992105 -16677791.60281935 -16677791.60281935 -1414426.467874539 0 0 0 0 0 106796686.4889599 -20386653.61528947 -20386653.61528947 -17236376.23930566 0 0 0 0 0 110906239.2064736 -18482172.82843395 -18482172.82843395 -17304561.3202263 0 0 0 0 0 114767230.0518252 -16270586.750968 -16270586.750968 -16920146.38978302 0 0 0 0 0 66061181.75946559 -14960750.08060309 -14960750.08060309 -321619.2747320302 0 0 0 0 0 65366983.61174505 -13221672.55165066 -13221672.55165066 622343.2133384584 0 0 0 0 0 64999202.68790627 -11498082.22903862 -11498082.22903862 1419162.358986189 0 0 0 0 0 66291033.40401501 -11442583.94804678 -11442583.94804678 1724502.77179479 0 0 0 0 0 67051623.11273408 -9642233.638746304 -9642233.638746304 2072406.173018513 0 0 0 0 0 68393620.52429663 -9577895.958132247 -9577895.958132247 2382254.56581109 0 0 0 0 0 72220237.04455523 -6630151.873265453 -6630151.873265453 3039840.003058375 0 0 0 0 0 70999623.50534528 -6657428.229477574 -6657428.229477574 2733637.277944609 0 0 0 0 0 69053564.05620542 -8049387.767940565 -8049387.767940565 2516601.797020715 0 0 0 0 0 70808180.18536362 -7918294.096783091 -7918294.096783091 2411222.701126307 0 0 0 0 0 74131243.71907043 -5405379.541106942 -5405379.541106942 3249189.726122536 0 0 0 0 0 73673465.97407527 -6539335.06230074 -6539335.06230074 2947492.612838274 0 0 0 0 0 74791818.11062832 -4081148.89739006 -4081148.89739006 2962455.888868035 0 0 0 0 0 74160405.45577021 -4795091.074029269 -4795091.074029269 2890027.719155286 0 0 0 0 0 282692101.0366826 -44714688.46260741 -44714688.46260741 22882742.91237184 0 0 0 0 0 240491527.4701781 -34270196.82736174 -34270196.82736174 26281844.49198842 0 0 0 0 0 215738290.5444198 -26874930.89029216 -26874930.89029216 30689358.35618031 0 0 0 0 0 178848051.9175596 -21572158.88916975 -21572158.88916975 27568406.5314624 0 0 0 0 0 190365376.6805568 -24919529.3466711 -24919529.3466711 28359596.84007152 0 0 0 0 0 167705117.2338369 -17376982.41825014 -17376982.41825014 22893101.74659783 0 0 0 0 0 158827381.8968953 -13786067.08783165 -13786067.08783165 17264769.26865038 0 0 0 0 0 151806711.3340368 -11135630.99013547 -11135630.99013547 11723268.77319522 0 0 0 0 0 146125462.2798727 -9266194.16559034 -9266194.16559034 6522693.358481191 0 0 0 0 0 141461927.6157238 -8073202.349380104 -8073202.349380104 1794723.147786285 0 0 0 0 0 137555620.160286 -7459486.384243429 -7459486.384243429 -2287652.01305498 0 0 0 0 0 134200174.8258821 -7284194.884158899 -7284194.884158899 -5675713.570551876 0 0 0 0 0 131246554.734707 -7416699.127087536 -7416699.127087536 -8389565.840160813 0 0 0 0 0 126802640.0518734 -8061836.658802536 -8061836.658802536 -9198210.404273652 0 0 0 0 0 125884495.0120073 -10614913.14611863 -10614913.14611863 -12952567.7044219 0 0 0 0 0 123502906.8038172 -10949172.34167329 -10949172.34167329 -14141463.08548949 0 0 0 0 0 119049380.9550791 -12005546.28374364 -12005546.28374364 -14685637.07363752 0 0 0 0 0 118269599.7053286 -13840801.03155551 -13840801.03155551 -16100939.75494805 0 0 0 0 0 78863167.85511976 -24560008.08748471 -24560008.08748471 -10915501.37502306 0 0 0 0 0 82089541.14618267 -25014951.19307147 -25014951.19307147 -12592583.96473521 0 0 0 0 0 75992654.99064228 -23781107.27484485 -23781107.27484485 -9183467.677864693 0 0 0 0 0 73502688.777613 -22722353.4325646 -22722353.4325646 -7453069.834514866 0 0 0 0 0 85631133.57359515 -25110691.79216873 -25110691.79216873 -14155727.42968707 0 0 0 0 0 89441778.70132551 -24815325.97430386 -24815325.97430386 -15543741.02893472 0 0 0 0 0 93489648.44879594 -24093540.04526754 -24093540.04526754 -16681678.5107536 0 0 0 0 0 71400304.97676523 -21432856.05987041 -21432856.05987041 -5773225.010028354 0 0 0 0 0 97691681.96497445 -22973550.86244972 -22973550.86244972 -17487277.04495269 0 0 0 0 0 101846423.787176 -21467713.85004725 -21467713.85004725 -17923197.8083834 0 0 0 0 0 69678985.52487817 -19960840.3444721 -19960840.3444721 -4181416.530816666 0 0 0 0 0 68331093.70844211 -18352483.07529699 -18352483.07529699 -2703787.308145372 0 0 0 0 0 67349086.77343643 -16657215.86538642 -16657215.86538642 -1365721.545358455 0 0 0 0 0 105971019.3702787 -19610869.54163662 -19610869.54163662 -17952687.70575165 0 0 0 0 0 109937573.0629167 -17424120.29830818 -17424120.29830818 -17548265.69971082 0 0 0 0 0 113684968.634225 -14984293.29761271 -14984293.29761271 -16684815.5668019 0 0 0 0 0 66706748.7535005 -14916251.97153121 -14916251.97153121 -178599.0143033156 0 0 0 0 0 66368942.833965 -13167736.56234 -13167736.56234 852873.7450717436 0 0 0 0 0 67163179.01691464 -11214544.38396551 -11214544.38396551 1447711.664903271 0 0 0 0 0 68276648.68397485 -11144213.05201064 -11144213.05201064 1696863.530360363 0 0 0 0 0 68984263.34147529 -9457790.83017033 -9457790.83017033 2031796.606313454 0 0 0 0 0 72593897.64244425 -6620214.170523675 -6620214.170523675 2743525.205756328 0 0 0 0 0 72009399.19495253 -7845994.121302048 -7845994.121302048 2685278.0190639 0 0 0 0 0 70181382.26225623 -9378895.7255936 -9378895.7255936 2299240.538755284 0 0 0 0 0 71820224.62941706 -9164926.686798776 -9164926.686798776 2195862.212309619 0 0 0 0 0 73868046.19979647 -5617722.39302924 -5617722.39302924 2736195.805469703 0 0 0 0 0 74021433.65351638 -6538030.834855673 -6538030.834855673 2597239.531665577 0 0 0 0 0 76007173.05971426 -4770154.782231463 -4770154.782231463 3440087.326590054 0 0 0 0 0 75601491.75385804 -5580731.450448769 -5580731.450448769 3217007.784639919 0 0 0 0 0 241929140.36722 -32043986.76337305 -32043986.76337305 6520040.292794347 0 0 0 0 0 215034674.6593847 -26952630.85912379 -26952630.85912379 18595701.11832784 0 0 0 0 0 195695599.186306 -19720863.94702879 -19720863.94702879 26532822.60470959 0 0 0 0 0 169483041.4060113 -12468609.98898832 -12468609.98898832 24755462.60042492 0 0 0 0 0 183488135.5729026 -13925012.94691506 -13925012.94691506 27458576.0974177 0 0 0 0 0 160441775.810074 -9632783.072016224 -9632783.072016224 21495226.14016342 0 0 0 0 0 153152970.1290653 -7433390.818465643 -7433390.818465643 17391927.22658637 0 0 0 0 0 147282784.7764985 -5860796.152127975 -5860796.152127975 12816466.63410121 0 0 0 0 0 142514418.4805947 -4848651.216438739 -4848651.216438739 8289174.595382191 0 0 0 0 0 138559950.5359241 -4334879.154480751 -4334879.154480751 4042918.29806771 0 0 0 0 0 135178996.2401027 -4251897.050763088 -4251897.050763088 203722.2268629416 0 0 0 0 0 132206423.1195479 -4495762.873695767 -4495762.873695767 -3141707.255985862 0 0 0 0 0 129533537.7391983 -4963144.49651864 -4963144.49651864 -5959137.140856937 0 0 0 0 0 128585156.6240064 -7749267.28622556 -7749267.28622556 -10496289.44626119 0 0 0 0 0 124412847.7453892 -8560152.260645339 -8560152.260645339 -11127485.70357192 0 0 0 0 0 122203951.3845153 -9108512.092050049 -9108512.092050049 -12567950.69185529 0 0 0 0 0 121333798.442786 -11285654.50429487 -11285654.50429487 -14851639.63131879 0 0 0 0 0 117105486.8144769 -12364427.72667972 -12364427.72667972 -15358265.25314858 0 0 0 0 0 82635359.78718431 -23032881.61866543 -23032881.61866543 -9586327.411179826 0 0 0 0 0 86058058.41447124 -23392233.64862376 -23392233.64862376 -11122014.78122269 0 0 0 0 0 79510773.1352485 -22375084.34942773 -22375084.34942773 -8029159.442430385 0 0 0 0 0 76722194.08674744 -21456161.14927109 -21456161.14927109 -6495153.348274271 0 0 0 0 0 89733341.6791191 -23422091.5933205 -23422091.5933205 -12584224.38388873 0 0 0 0 0 93609809.92694919 -23096231.85220506 -23096231.85220506 -13915558.26759832 0 0 0 0 0 97640614.61696705 -22399622.91700099 -22399622.91700099 -15058883.31843819 0 0 0 0 0 74292703.64869317 -20318165.66840424 -20318165.66840424 -5020172.720394881 0 0 0 0 0 101671913.0903233 -21333765.79923282 -21333765.79923282 -15983639.6364797 0 0 0 0 0 105616733.7140156 -19933282.89954187 -19933282.89954187 -16579774.2190796 0 0 0 0 0 72231677.19831435 -19002609.62140269 -19002609.62140269 -3631155.858031014 0 0 0 0 0 70532492.03924735 -17553117.51797456 -17553117.51797456 -2352073.560608603 0 0 0 0 0 69194505.39444217 -16013880.34165835 -16013880.34165835 -1200350.478335046 0 0 0 0 0 109428048.0072339 -18230161.78632818 -18230161.78632818 -16847223.79548574 0 0 0 0 0 113056263.5614848 -16224802.28891526 -16224802.28891526 -16709005.93861821 0 0 0 0 0 116383342.3200252 -13988204.99030158 -13988204.99030158 -16173132.76738036 0 0 0 0 0 68207248.75069553 -14422028.52036726 -14422028.52036726 -185032.3723153297 0 0 0 0 0 67533443.31985007 -12815416.12222769 -12815416.12222769 693408.601079975 0 0 0 0 0 68391494.76556081 -12745662.3957539 -12745662.3957539 877369.5217082094 0 0 0 0 0 69132714.77665436 -10915841.74782871 -10915841.74782871 1444485.950036321 0 0 0 0 0 70128108.48730512 -10830104.16983668 -10830104.16983668 1657697.988366009 0 0 0 0 0 73458748.35201569 -7730241.325870078 -7730241.325870078 2554306.526747122 0 0 0 0 0 72454872.10049453 -7775964.687145839 -7775964.687145839 2331147.003772423 0 0 0 0 0 70774331.22819372 -9253291.161826815 -9253291.161826815 1969441.680958512 0 0 0 0 0 72462014.39274874 -9021393.087469786 -9021393.087469786 1917000.036218126 0 0 0 0 0 74906417.2394889 -6423921.926578139 -6423921.926578139 2710450.795882964 0 0 0 0 0 74848846.66477336 -7577923.891288872 -7577923.891288872 2480540.087406257 0 0 0 0 0 75368003.62197226 -5169670.389349164 -5169670.389349164 2649108.709605019 0 0 0 0 0 74885075.14510807 -6000210.341385537 -6000210.341385537 2442334.880982803 0 0 0 0 0 290489602.5847297 -29356946.35641553 -29356946.35641553 15925051.84209716 0 0 0 0 0 251349724.1033348 -24990928.39380812 -24990928.39380812 26390011.47610046 0 0 0 0 0 222754071.8469359 -19895105.26935518 -19895105.26935518 31499481.60317298 0 0 0 0 0 199808017.9408826 -14990053.02398551 -14990053.02398551 31035978.61582742 0 0 0 0 0 178638714.9573193 -14786735.03478259 -14786735.03478259 28220356.53926221 0 0 0 0 0 168600094.6974262 -12673198.30724706 -12673198.30724706 25210968.12843772 0 0 0 0 0 180156798.1864688 -14409283.73345281 -14409283.73345281 28165334.02718789 0 0 0 0 0 160261169.5909032 -9888471.936774731 -9888471.936774731 20565485.44436849 0 0 0 0 0 153585245.471447 -7699964.433419822 -7699964.433419822 15452674.39934842 0 0 0 0 0 148069949.9241726 -6107118.736220814 -6107118.736220814 10419622.70783425 0 0 0 0 0 143471804.8913392 -5074853.600243969 -5074853.600243969 5725706.3125974 0 0 0 0 0 139581617.0438578 -4534540.659107119 -4534540.659107119 1506093.300245645 0 0 0 0 0 136230966.570087 -4401194.888046293 -4401194.888046293 -2142218.822596496 0 0 0 0 0 133283565.3620735 -4574380.70146732 -4574380.70146732 -5191181.308345105 0 0 0 0 0 130634736.7119715 -4961576.472113487 -4961576.472113487 -7667849.663356094 0 0 0 0 0 127089020.0786224 -5565832.319008319 -5565832.319008319 -8259894.153940678 0 0 0 0 0 126159355.8913484 -8185474.116907987 -8185474.116907987 -12066880.21766116 0 0 0 0 0 123921176.4198918 -8655943.408881433 -8655943.408881433 -13162167.47867707 0 0 0 0 0 120124327.6479822 -9652055.545305604 -9652055.545305604 -13618121.37560347 0 0 0 0 0 119335025.5304923 -11601984.47779842 -11601984.47779842 -15227073.64990848 0 0 0 0 0 79988897.27644934 -23365082.35942309 -23365082.35942309 -10096979.21075362 0 0 0 0 0 82934700.44269608 -23831431.08838205 -23831431.08838205 -11699282.5465519 0 0 0 0 0 86169313.75297578 -23975453.4807183 -23975453.4807183 -13215081.37697051 0 0 0 0 0 77365621.39697725 -22609875.50517156 -22609875.50517156 -8460811.360170901 0 0 0 0 0 75083201.97955573 -21606969.10677033 -21606969.10677033 -6839850.034614413 0 0 0 0 0 89650844.50716265 -23768338.55131666 -23768338.55131666 -14585602.65211457 0 0 0 0 0 93332809.12283136 -23196321.28731505 -23196321.28731505 -15768495.39080538 0 0 0 0 0 97163964.58463117 -22225110.26314298 -22225110.26314298 -16656595.1192567 0 0 0 0 0 73145066.77047721 -20399375.50567763 -20399375.50567763 -5274498.489755319 0 0 0 0 0 101043114.0519992 -20900012.9273353 -20900012.9273353 -17228988.62889133 0 0 0 0 0 104846940.0148016 -19262132.13307403 -19262132.13307403 -17451381.64705063 0 0 0 0 0 71555544.78288588 -19028845.82117771 -19028845.82117771 -3793120.02922916 0 0 0 0 0 70306881.832931 -17536272.92972094 -17536272.92972094 -2420090.848529705 0 0 0 0 0 69374177.4050605 -15968845.7477703 -15968845.7477703 -1178596.872574351 0 0 0 0 0 108535964.9227403 -17307203.95883293 -17307203.95883293 -17292185.64600893 0 0 0 0 0 112068485.184411 -15079100.03585544 -15079100.03585544 -16703207.35968832 0 0 0 0 0 115322414.5285719 -12662360.09469814 -12662360.09469814 -15692830.67802543 0 0 0 0 0 68750130.69502355 -14360031.21098583 -14360031.21098583 -78987.28814668702 0 0 0 0 0 69520703.74501243 -12401607.77479223 -12401607.77479223 741551.9972133234 0 0 0 0 0 70261833.54436485 -12320070.78203239 -12320070.78203239 888812.2652896482 0 0 0 0 0 70945672.05790721 -10611175.69154046 -10611175.69154046 1419531.383519107 0 0 0 0 0 73910456.89847755 -7640779.573492669 -7640779.573492669 2279137.551407386 0 0 0 0 0 73320403.69755085 -8936919.992235109 -8936919.992235109 2088725.44151004 0 0 0 0 0 71821752.22332144 -10519661.67560581 -10519661.67560581 1599553.649472902 0 0 0 0 0 73339737.66275746 -10205676.66749434 -10205676.66749434 1525640.645062008 0 0 0 0 0 75839532.13442469 -6288069.978139314 -6288069.978139314 2777813.11474507 0 0 0 0 0 75335993.37176931 -7456272.635910096 -7456272.635910096 2291997.124896053 0 0 0 0 0 76682697.54855257 -5872260.908383097 -5872260.908383097 2997086.841163647 0 0 0 0 0 255469828.068305 -18812418.31314352 -18812418.31314352 -150570.3237260184 0 0 0 0 0 220796994.1531232 -16278582.52843375 -16278582.52843375 20241339.06561297 0 0 0 0 0 200171410.0199495 -13952701.52954865 -13952701.52954865 27476706.29317885 0 0 0 0 0 184689347.2609147 -9785882.725557083 -9785882.725557083 30611894.21212741 0 0 0 0 0 168864237.7380154 -8034866.982534623 -8034866.982534623 26886706.88180635 0 0 0 0 0 162029198.0294926 -5492802.700083851 -5492802.700083851 24268159.5598636 0 0 0 0 0 182073081.935881 -9226709.113433246 -9226709.113433246 30272458.90304223 0 0 0 0 0 154963748.0646348 -3867897.677010103 -3867897.677010103 20952835.25403587 0 0 0 0 0 149246165.8347537 -2580943.876636708 -2580943.876636708 16727117.31227373 0 0 0 0 0 144534478.5235908 -1738285.126804933 -1738285.126804933 12346716.70327073 0 0 0 0 0 140579403.9611134 -1325713.662867181 -1325713.662867181 8096831.250846858 0 0 0 0 0 137196536.9243215 -1288480.130124398 -1288480.130124398 4147661.773070253 0 0 0 0 0 134229643.2302834 -1561693.83867416 -1561693.83867416 599128.6730962566 0 0 0 0 0 131569549.4122225 -2063818.752658511 -2063818.752658511 -2495096.255161105 0 0 0 0 0 129142906.5820465 -2720361.677099538 -2720361.677099538 -5114788.531333366 0 0 0 0 0 128214228.8020953 -5479315.382849022 -5479315.382849022 -9619036.720990436 0 0 0 0 0 124820112.8681356 -6235765.319993071 -6235765.319993071 -10084151.80388288 0 0 0 0 0 122704259.7319574 -6910678.566627352 -6910678.566627352 -11475813.27049445 0 0 0 0 0 121859692.2659555 -9128131.532371484 -9128131.532371484 -13879455.70667491 0 0 0 0 0 118225377.0517997 -10131933.1816831 -10131933.1816831 -14283009.42474006 0 0 0 0 0 83451989.62108269 -21957994.07673468 -21957994.07673468 -8853978.082290519 0 0 0 0 0 86580007.66859823 -22333266.78516262 -22333266.78516262 -10313245.52550904 0 0 0 0 0 89939419.11486726 -22412364.1005643 -22412364.1005643 -11721065.64827423 0 0 0 0 0 80596632.98713797 -21315633.72194519 -21315633.72194519 -7387795.907589694 0 0 0 0 0 78045995.76754579 -20440074.52697317 -20440074.52697317 -5951256.546313045 0 0 0 0 0 93479205.710999 -22173488.86102942 -22173488.86102942 -13028836.96280296 0 0 0 0 0 97164351.35524607 -21600116.03511126 -21600116.03511126 -14187144.3590938 0 0 0 0 0 100869845.953301 -20684578.99831764 -20684578.99831764 -15140513.22734061 0 0 0 0 0 75819055.8388702 -19369128.77661771 -19369128.77661771 -4573607.67984857 0 0 0 0 0 104553583.3888108 -19451868.97613413 -19451868.97613413 -15850502.00050716 0 0 0 0 0 108106145.6025126 -17918129.88441989 -17918129.88441989 -16252964.17408548 0 0 0 0 0 73918343.73326533 -18142130.13272843 -18142130.13272843 -3283842.77457731 0 0 0 0 0 72345739.31790134 -16795334.89432782 -16795334.89432782 -2099396.626581123 0 0 0 0 0 71096674.65272795 -15368901.69573928 -15368901.69573928 -1030038.343444868 0 0 0 0 0 111502008.6242452 -16122718.21284861 -16122718.21284861 -16313573.18703596 0 0 0 0 0 114653548.8416843 -14086782.75272171 -14086782.75272171 -16016045.91291156 0 0 0 0 0 117489688.4544655 -11873926.2698177 -11873926.2698177 -15337206.22628574 0 0 0 0 0 70162534.76629488 -13894669.08756707 -13894669.08756707 -83829.05622421646 0 0 0 0 0 70620506.95990913 -13819186.21073398 -13819186.21073398 -6566.02356848294 0 0 0 0 0 71331809.63114116 -11993905.70621262 -11993905.70621262 763150.2846117495 0 0 0 0 0 71978173.49130483 -11901284.38671949 -11901284.38671949 881439.2576946313 0 0 0 0 0 74781158.82798655 -8700928.185943263 -8700928.185943263 2018588.601191425 0 0 0 0 0 73957910.57748805 -8786201.517920464 -8786201.517920464 1849816.922811924 0 0 0 0 0 72636612.3123329 -10294843.51045162 -10294843.51045162 1395293.425677431 0 0 0 0 0 74162965.82063423 -9972759.158779498 -9972759.158779498 1361126.143281842 0 0 0 0 0 75728049.00606357 -7329318.964293985 -7329318.964293985 2299413.483414398 0 0 0 0 0 76149500.7501557 -8459126.310354993 -8459126.310354993 1941350.295261361 0 0 0 0 0 76210408.31880669 -6168083.671746758 -6168083.671746758 2311743.180843549 0 0 0 0 0 305591946.1418412 -13891242.51469422 -13891242.51469422 14029190.34120681 0 0 0 0 0 255544235.8190096 -9410142.406993685 -9410142.406993685 20012503.42574954 0 0 0 0 0 236130741.3850085 -15584279.02631693 -15584279.02631693 24899894.29359455 0 0 0 0 0 225571159.4954913 -13699576.53649965 -13699576.53649965 32896750.86043712 0 0 0 0 0 203532342.7868909 -10636550.13984974 -10636550.13984974 33278204.82221646 0 0 0 0 0 185751522.7303144 -8955828.980711522 -8955828.980711522 32525105.78923708 0 0 0 0 0 168701202.286914 -8080282.477702477 -8080282.477702477 27408994.37201307 0 0 0 0 0 159974756.0578355 -6318723.626026964 -6318723.626026964 23580758.3512073 0 0 0 0 0 172406224.7607683 -7721268.403289859 -7721268.403289859 30900549.91571107 0 0 0 0 0 153895982.2055798 -4625023.887383541 -4625023.887383541 19041348.61600771 0 0 0 0 0 148743249.7524837 -3266646.016113218 -3266646.016113218 14269134.51740977 0 0 0 0 0 144380904.6253129 -2359923.299185753 -2359923.299185753 9648147.221930437 0 0 0 0 0 140655339.4221241 -1878527.862340322 -1878527.862340322 5369985.55302103 0 0 0 0 0 137428307.84005 -1763970.327833361 -1763970.327833361 1543782.595850036 0 0 0 0 0 134580777.8462908 -1947773.698315845 -1947773.698315845 -1771615.846282174 0 0 0 0 0 132022914.1822508 -2352134.610154395 -2352134.610154395 -4562680.135738191 0 0 0 0 0 129680653.3468962 -2910433.03424364 -2910433.03424364 -6857032.04553974 0 0 0 0 0 126894267.3484834 -3464853.610570424 -3464853.610570424 -7279189.826645036 0 0 0 0 0 125993168.1853387 -6057341.507574506 -6057341.507574506 -11087662.54865199 0 0 0 0 0 123921168.8807186 -6648832.459486891 -6648832.459486891 -12158647.27005263 0 0 0 0 0 120734063.795483 -7552809.036373561 -7552809.036373561 -12487186.26864486 0 0 0 0 0 119946570.6226274 -9568439.31435168 -9568439.31435168 -14288132.77124615 0 0 0 0 0 81022028.29199989 -22222707.84304075 -22222707.84304075 -9344628.001437003 0 0 0 0 0 83714603.4704255 -22693688.77879614 -22693688.77879614 -10865621.21476244 0 0 0 0 0 86671948.87853697 -22876237.71533288 -22876237.71533288 -12322902.82037097 0 0 0 0 0 89857190.88380437 -22745265.23916322 -22745265.23916322 -13665890.41166351 0 0 0 0 0 78621545.51977876 -21494470.70865354 -21494470.70865354 -7805626.78719092 0 0 0 0 0 76523909.67840676 -20545776.66219172 -20545776.66219172 -6290252.905536958 0 0 0 0 0 93222847.79706185 -22284697.35488692 -22284697.35488692 -14848480.4174876 0 0 0 0 0 96726850.07937075 -21467651.88960596 -21467651.88960596 -15792927.74009185 0 0 0 0 0 100287182.6835819 -20325275.00948757 -20325275.00948757 -16481260.51096816 0 0 0 0 0 74740229.7132363 -19414949.84644237 -19414949.84644237 -4829427.160037124 0 0 0 0 0 103833521.5150344 -18855372.40825157 -18855372.40825157 -16840021.21691949 0 0 0 0 0 107271033.5066691 -17123824.8907525 -17123824.8907525 -16876622.80965275 0 0 0 0 0 73271997.68150795 -18139676.33354038 -18139676.33354038 -3453585.172063981 0 0 0 0 0 72109880.50019667 -16757865.1006954 -16757865.1006954 -2181249.954750988 0 0 0 0 0 71235296.50080602 -15304923.49331524 -15304923.49331524 -1028524.428181787 0 0 0 0 0 110571881.9490042 -15116445.48032768 -15116445.48032768 -16524234.53087186 0 0 0 0 0 113663478.6195475 -12900101.36493335 -12900101.36493335 -15782458.2383361 0 0 0 0 0 116455406.7307453 -10554619.93653259 -10554619.93653259 -14661011.57670517 0 0 0 0 0 71957262.67987743 -13377836.38639792 -13377836.38639792 -5795.114886968586 0 0 0 0 0 72345155.12023477 -13291590.67447623 -13291590.67447623 49511.60991980698 0 0 0 0 0 73024522.1546137 -11578936.97242741 -11578936.97242741 784017.9972099157 0 0 0 0 0 75319259.27734017 -8577100.629679536 -8577100.629679536 1774985.858058069 0 0 0 0 0 74789755.37693587 -9879788.54178473 -9879788.54178473 1468485.112407985 0 0 0 0 0 73519790.54598592 -11485864.52144449 -11485864.52144449 857290.1807997731 0 0 0 0 0 74976016.06651378 -11076171.13131117 -11076171.13131117 841146.9198406246 0 0 0 0 0 77007015.69721535 -7147976.06961316 -7147976.06961316 2344057.791804526 0 0 0 0 0 76365744.02095175 -8444453.920807498 -8444453.920807498 1488196.77357101 0 0 0 0 0 77211061.88321659 -6999185.367259345 -6999185.367259345 2301737.481775023 0 0 0 0 0 263118640.1567641 -572971.2403367502 -572971.2403367502 9556294.02037913 0 0 0 0 0 255017926.1218319 -9949445.161356628 -9949445.161356628 19942098.46233397 0 0 0 0 0 223610616.2377355 -6296702.533014094 -6296702.533014094 28857425.52558314 0 0 0 0 0 204381745.0583633 -9672052.423089344 -9672052.423089344 27278970.50353424 0 0 0 0 0 187655426.4237704 -7436661.54973962 -7436661.54973962 30893766.68561039 0 0 0 0 0 176051318.9962993 -3247009.368942896 -3247009.368942896 32920835.19055286 0 0 0 0 0 161799908.6691529 -2027774.929468196 -2027774.929468196 27881098.97229222 0 0 0 0 0 155230388.7617159 -837657.3611956644 -837657.3611956644 24323947.56590615 0 0 0 0 0 172261029.9914586 -2931668.006402324 -2931668.006402324 31041310.59128007 0 0 0 0 0 149868359.2316157 174086.3213092925 174086.3213092925 20372250.97067017 0 0 0 0 0 145388295.3518814 900000.9040285947 900000.9040285947 16218769.98422103 0 0 0 0 0 141601937.6328805 1270964.053977753 1270964.053977753 12051246.366704 0 0 0 0 0 138340304.8961921 1301389.909177072 1301389.909177072 8064897.850188402 0 0 0 0 0 135475663.6350504 1040496.603636293 1040496.603636293 4385074.957674334 0 0 0 0 0 132908905.9590551 547313.9780069765 547313.9780069765 1088359.067457497 0 0 0 0 0 130565687.7587457 -113542.919098672 -113542.919098672 -1793458.206799294 0 0 0 0 0 128397688.4335583 -884501.3445973452 -884501.3445973452 -4249517.221678081 0 0 0 0 0 127523854.7281942 -3550249.884266259 -3550249.884266259 -8676632.144906878 0 0 0 0 0 124784442.3954049 -4245907.087703689 -4245907.087703689 -9019678.801557092 0 0 0 0 0 122813806.3767626 -5007734.061981713 -5007734.061981713 -10363340.09624678 0 0 0 0 0 121996687.4581943 -7218154.152871288 -7218154.152871288 -12873416.68308714 0 0 0 0 0 118902991.3397647 -8139700.415167385 -8139700.415167385 -13180922.43018894 0 0 0 0 0 84204414.81285563 -20926662.23421874 -20926662.23421874 -8187153.821542648 0 0 0 0 0 87066241.91789378 -21311164.33455342 -21311164.33455342 -9566705.476623924 0 0 0 0 0 90142029.69144218 -21430444.08372784 -21430444.08372784 -10912744.74110886 0 0 0 0 0 93386591.00183548 -21263359.1996298 -21263359.1996298 -12182530.740173 0 0 0 0 0 81591781.01491331 -20302802.23046283 -20302802.23046283 -6811004.068830173 0 0 0 0 0 79256314.55828476 -19468999.57361003 -19468999.57361003 -5463305.459067967 0 0 0 0 0 96756049.52222274 -20795319.51134221 -20795319.51134221 -13330904.15104713 0 0 0 0 0 100168660.4721102 -20016587.30741491 -20016587.30741491 -14309692.04354983 0 0 0 0 0 103582060.2545265 -18941196.47903218 -18941196.47903218 -15080606.71974519 0 0 0 0 0 77205631.71410564 -18465068.18887734 -18465068.18887734 -4182409.759257777 0 0 0 0 0 106902994.7622032 -17575250.31522968 -17575250.31522968 -15590087.70390485 0 0 0 0 0 110096059.7136919 -15961582.29466473 -15961582.29466473 -15802811.03528724 0 0 0 0 0 75455105.30407754 -17319871.27127431 -17319871.27127431 -2984036.96031697 0 0 0 0 0 74002041.32707189 -16069940.49238386 -16069940.49238386 -1884643.308509432 0 0 0 0 0 72840954.98177031 -14744961.0990834 -14744961.0990834 -890075.0928283326 0 0 0 0 0 113074671.0359104 -14116628.02670968 -14116628.02670968 -15694720.29658521 0 0 0 0 0 115786607.6099229 -12090643.0555375 -12090643.0555375 -15247171.5751729 0 0 0 0 0 118180739.8064414 -9943606.948386105 -9943606.948386105 -14450400.73532225 0 0 0 0 0 72924757.2354954 -14671605.11048402 -14671605.11048402 -907550.8602949218 0 0 0 0 0 73607732.20300795 -12869505.76134358 -12869505.76134358 60470.86543524072 0 0 0 0 0 73888342.60118054 -12780040.25439387 -12780040.25439387 84950.18424861802 0 0 0 0 0 76144199.86589964 -9562334.503438137 -9562334.503438137 1410111.969414451 0 0 0 0 0 75582311.72155811 -9659176.155183617 -9659176.155183617 1326627.322262253 0 0 0 0 0 74542935.79732753 -11169511.07848865 -11169511.07848865 784950.5448221543 0 0 0 0 0 75948407.14471686 -10770137.45848027 -10770137.45848027 781658.3273233454 0 0 0 0 0 76689707.62797047 -7973757.737956586 -7973757.737956586 1620869.650386539 0 0 0 0 0 77552102.23542143 -9277441.055947363 -9277441.055947363 1373201.720446721 0 0 0 0 0 77908753.51414512 -8318377.223499775 -8318377.223499775 1970247.868887633 0 0 0 0 0 77194350.00699042 -7048639.626102114 -7048639.626102114 1923866.963446945 0 0 0 0 0 236217473.5906389 -371092.0909006745 -371092.0909006745 21015427.23178508 0 0 0 0 0 222601159.5838601 -7586962.898990246 -7586962.898990246 29107554.783526 0 0 0 0 0 206376190.1705084 -6716998.460419046 -6716998.460419046 33859423.94259857 0 0 0 0 0 187406335.0256201 -3207644.736142196 -3207644.736142196 33465684.12372528 0 0 0 0 0 177986566.5477887 -5925246.747640853 -5925246.747640853 34751806.81038282 0 0 0 0 0 170411140.4646214 -5521028.659942466 -5521028.659942466 33342374.89353342 0 0 0 0 0 158499425.5587482 -3399369.614896429 -3399369.614896429 26561782.77220416 0 0 0 0 0 164532118.3112057 -4639350.259814218 -4639350.259814218 30345622.66963965 0 0 0 0 0 152989369.8298043 -1995369.296748613 -1995369.296748613 22355543.64094486 0 0 0 0 0 148315089.4755964 -856700.5787246724 -856700.5787246724 17927127.07300184 0 0 0 0 0 144306230.7696376 -40162.87352303018 -40162.87352303018 13465522.36081863 0 0 0 0 0 140852936.279164 419166.8842694721 419166.8842694721 9198326.358106738 0 0 0 0 0 137840490.7523988 543937.9704322554 543937.9704322554 5271254.312028321 0 0 0 0 0 135175732.141064 386293.9944849276 386293.9944849276 1767653.075343739 0 0 0 0 0 132768359.6906932 -33.66788164741708 -33.66788164741708 -1279708.991135087 0 0 0 0 0 130567024.6180176 -551675.2172418019 -551675.2172418019 -3863714.697561507 0 0 0 0 0 128522303.5757811 -1212494.799127839 -1212494.799127839 -6002542.054532353 0 0 0 0 0 126358514.9050243 -1713532.264584796 -1713532.264584796 -6298533.844640875 0 0 0 0 0 125507592.1829947 -4225670.25450957 -4225670.25450957 -10086318.47842471 0 0 0 0 0 123615747.4676606 -4896450.23665918 -4896450.23665918 -11128994.1659811 0 0 0 0 0 120964373.3297859 -5727121.205157292 -5727121.205157292 -11374201.27708124 0 0 0 0 0 120206657.2502055 -7739173.461779522 -7739173.461779522 -13314043.42920293 0 0 0 0 0 84437714.6226301 -21606815.16123303 -21606815.16123303 -10092471.07594531 0 0 0 0 0 81974163.03627366 -21136725.11933103 -21136725.11933103 -8655196.527948141 0 0 0 0 0 87144974.57212019 -21819225.32056995 -21819225.32056995 -11484686.54885785 0 0 0 0 0 90062505.67971921 -21750740.55014418 -21750740.55014418 -12786928.85614544 0 0 0 0 0 93148670.97435024 -21384138.60155863 -21384138.60155863 -13953750.99868198 0 0 0 0 0 79768524.6912629 -20436244.49903684 -20436244.49903684 -7214166.770239936 0 0 0 0 0 77842428.1639908 -19541481.31048748 -19541481.31048748 -5794013.816549304 0 0 0 0 0 96358618.23760571 -20702326.83392068 -20702326.83392068 -14932442.44826137 0 0 0 0 0 99629993.7828605 -19714267.40196779 -19714267.40196779 -15678950.54644553 0 0 0 0 0 102915576.04382 -18425951.00697547 -18425951.00697547 -16155787.85488985 0 0 0 0 0 76200879.86915997 -18483169.61938121 -18483169.61938121 -4435399.558046999 0 0 0 0 0 106131379.1241193 -16875274.09293296 -16875274.09293296 -16339658.05515226 0 0 0 0 0 109226416.6889209 -15071945.55609866 -15071945.55609866 -16182018.98237303 0 0 0 0 0 74845885.99452281 -17297600.89502319 -17297600.89502319 -3155361.632051168 0 0 0 0 0 73753150.04388036 -16014897.29920295 -16014897.29920295 -1979385.486197162 0 0 0 0 0 112145221.5143868 -13063739.77536648 -13063739.77536648 -15673445.03050773 0 0 0 0 0 114820396.6881689 -10900266.75907029 -10900266.75907029 -14808192.66913721 0 0 0 0 0 117196044.5178962 -8655577.90111758 -8655577.90111758 -13607755.83298943 0 0 0 0 0 74450065.3610599 -14137596.2548095 -14137596.2548095 -759634.5653471645 0 0 0 0 0 74441706.82315756 -14056256.08947126 -14056256.08947126 -807694.4157178352 0 0 0 0 0 75103980.6617479 -12364433.62895959 -12364433.62895959 110971.7682423131 0 0 0 0 0 76863356.67395765 -9375428.763253562 -9375428.763253562 1263728.826516051 0 0 0 0 0 76318185.35537645 -10675387.45119484 -10675387.45119484 819408.0003966076 0 0 0 0 0 75332804.1179868 -12273550.31402995 -12273550.31402995 119552.1075372018 0 0 0 0 0 76665626.14168337 -11791561.84256262 -11791561.84256262 146037.2939584216 0 0 0 0 0 78522367.9449299 -7754821.866446677 -7754821.866446677 2219543.185632645 0 0 0 0 0 78357345.7533894 -9105089.375427587 -9105089.375427587 1483451.178883408 0 0 0 0 0 77539923.32121375 -8966151.181711171 -8966151.181711171 1219705.264132784 0 0 0 0 0 207673928.4443325 1222390.264692383 1222390.264692383 30305074.41514754 0 0 0 0 0 190917976.4824023 -2789740.470847551 -2789740.470847551 32160952.73240934 0 0 0 0 0 187204157.973516 -5942982.382883229 -5942982.382883229 34939688.80273299 0 0 0 0 0 172728859.9656177 -218555.0512404184 -218555.0512404184 35282229.71082507 0 0 0 0 0 166168448.4549153 -209394.8368229 -209394.8368229 33297175.25840212 0 0 0 0 0 154209085.13195 1589817.866515069 1589817.866515069 27441189.89927776 0 0 0 0 0 159705527.7742428 890267.1324107529 890267.1324107529 30991899.91935895 0 0 0 0 0 149343337.0228185 2385397.435060415 2385397.435060415 23760132.45332313 0 0 0 0 0 145219541.1697601 3007331.400805819 3007331.400805819 19804572.49875125 0 0 0 0 0 141706731.4057813 3373230.274018036 3373230.274018036 15785870.52415853 0 0 0 0 0 138666348.3729715 3445500.400368258 3445500.400368258 11839175.3684853 0 0 0 0 0 135986064.5576543 3240871.555459548 3240871.555459548 8105485.634808579 0 0 0 0 0 133577131.1082957 2802245.213938343 2802245.213938343 4676255.99377524 0 0 0 0 0 131380282.0769267 2183214.792126902 2183214.792126902 1603830.437093917 0 0 0 0 0 129337534.9007617 1432574.742641293 1432574.742641293 -1091779.452056927 0 0 0 0 0 127419632.3989331 602605.2980256929 602605.2980256929 -3402527.215061147 0 0 0 0 0 126605511.3252551 -1935328.016602073 -1935328.016602073 -7734258.55440302 0 0 0 0 0 124440824.4748155 -2553813.088827183 -2553813.088827183 -7958055.176317232 0 0 0 0 0 122624572.2714077 -3369715.142766986 -3369715.142766986 -9274472.07130257 0 0 0 0 0 121849526.2651119 -5534826.62571907 -5534826.62571907 -11859801.95731124 0 0 0 0 0 119234252.8187539 -6380558.172281964 -6380558.172281964 -12085091.78356563 0 0 0 0 0 87522762.78971124 -20331367.34330893 -20331367.34330893 -8880758.050529027 0 0 0 0 0 84904545.88705757 -19940161.03337653 -19940161.03337653 -7574719.302375579 0 0 0 0 0 90343295.55953252 -20481819.13507252 -20481819.13507252 -10159867.7458287 0 0 0 0 0 93320202.55492528 -20375663.34472498 -20375663.34472498 -11383039.34870708 0 0 0 0 0 96409822.34985124 -19997729.21090294 -19997729.21090294 -12508540.53101822 0 0 0 0 0 82512878.98198758 -19338059.74302132 -19338059.74302132 -6280216.931855185 0 0 0 0 0 80360527.88670765 -18546862.42410879 -18546862.42410879 -5019541.693138817 0 0 0 0 0 99561964.65368493 -19338517.24799642 -19338517.24799642 -13493195.98809297 0 0 0 0 0 102716726.4978864 -18400990.33659508 -18400990.33659508 -14294435.07733921 0 0 0 0 0 105815684.9035581 -17197530.73616016 -17197530.73616016 -14880222.95553534 0 0 0 0 0 78482450.04415126 -17601762.14227604 -17601762.14227604 -3827220.788015066 0 0 0 0 0 108810740.5947223 -15751082.19515011 -15751082.19515011 -15214853.91782833 0 0 0 0 0 111628772.7319935 -14084925.03075186 -14084925.03075186 -15259550.61163699 0 0 0 0 0 76869530.74889635 -16532364.26970468 -16532364.26970468 -2713192.183293532 0 0 0 0 0 75539763.99332571 -15365199.3513942 -15365199.3513942 -1683974.227718944 0 0 0 0 0 114216511.9211875 -12242457.05214995 -12242457.05214995 -15004092.02152309 0 0 0 0 0 116536258.396153 -10254548.81543185 -10254548.81543185 -14421488.33210935 0 0 0 0 0 118532213.9542306 -8199552.500516628 -8199552.500516628 -13531288.23422865 0 0 0 0 0 75218173.96554016 -15303376.46747477 -15303376.46747477 -1801862.068351506 0 0 0 0 0 75895304.41823061 -13547985.03909942 -13547985.03909942 -651461.317373478 0 0 0 0 0 75856011.25951673 -13463228.32004164 -13463228.32004164 -711814.5873504203 0 0 0 0 0 77583654.85257919 -10275261.29601088 -10275261.29601088 780973.3415349554 0 0 0 0 0 77264168.78725892 -10377572.93622316 -10377572.93622316 771023.7493468819 0 0 0 0 0 76483033.34983021 -11883622.84654435 -11883622.84654435 151445.1511401669 0 0 0 0 0 77746367.21702267 -11427244.58963367 -11427244.58963367 177406.3728551411 0 0 0 0 0 78240989.96706326 -7935219.297756316 -7935219.297756316 1474115.943668873 0 0 0 0 0 78079645.88441555 -9749194.096227216 -9749194.096227216 612749.6539192941 0 0 0 0 0 78303601.28215089 -8809241.533566106 -8809241.533566106 1169596.354353173 0 0 0 0 0 200157123.8287762 -4868649.768312476 -4868649.768312476 34412610.89168026 0 0 0 0 0 179192693.98144 -78118.41638068073 -78118.41638068073 35289194.40401123 0 0 0 0 0 165485019.5965573 -2928958.970838772 -2928958.970838772 34736507.36172528 0 0 0 0 0 170886267.4902274 -3460959.150260381 -3460959.150260381 36448353.96802488 0 0 0 0 0 160333571.9268439 -2235456.094553422 -2235456.094553422 32845901.18511378 0 0 0 0 0 150921829.1967719 74334.97087134431 74334.97087134431 25417286.11392618 0 0 0 0 0 155356533.5620442 -946892.6181338584 -946892.6181338584 29111369.7943573 0 0 0 0 0 146916809.955692 1061565.596682453 1061565.596682453 21296808.96515019 0 0 0 0 0 143387297.0136694 1821087.813583756 1821087.813583756 17060662.47182308 0 0 0 0 0 140284761.2746259 2290357.977334114 2290357.977334114 12887440.48872012 0 0 0 0 0 137555575.2945589 2463036.908134087 2463036.908134087 8936726.531240925 0 0 0 0 0 135124469.6260447 2363926.996362571 2363926.996362571 5317330.012195644 0 0 0 0 0 132924221.0279624 2035814.775494045 2035814.775494045 2086637.861947662 0 0 0 0 0 130901187.2856424 1529137.585121577 1529137.585121577 -735738.8768139373 0 0 0 0 0 129015417.0737855 891579.2744285484 891579.2744285484 -3143149.338728413 0 0 0 0 0 127238772.0518059 170861.6471523381 170861.6471523381 -5163768.397565921 0 0 0 0 0 125601052.3824897 -266544.7455807814 -266544.7455807814 -5348248.454580267 0 0 0 0 0 124800237.9375352 -2672075.507539032 -2672075.507539032 -9095001.703565175 0 0 0 0 0 123098240.8380002 -3390593.321804972 -3390593.321804972 -10116774.01151351 0 0 0 0 0 120906514.3528379 -4139300.09159189 -4139300.09159189 -10282563.64471378 0 0 0 0 0 120183294.2677554 -6120488.568754791 -6120488.568754791 -12336743.54915786 0 0 0 0 0 87591363.39653784 -20808321.52106508 -20808321.52106508 -10701098.93768058 0 0 0 0 0 85102201.84659187 -20573193.45128581 -20573193.45128581 -9381108.824035628 0 0 0 0 0 82824236.91299175 -20108239.04859052 -20108239.04859052 -8027607.481816876 0 0 0 0 0 90268358.4831745 -20791074.23574533 -20791074.23574533 -11954567.69842482 0 0 0 0 0 93101621.22485244 -20505127.06520897 -20505127.06520897 -13095537.94210535 0 0 0 0 0 96048701.71292354 -19938135.57075296 -19938135.57075296 -14081894.55998358 0 0 0 0 0 80797680.9703826 -19438355.85969498 -19438355.85969498 -6671608.304550669 0 0 0 0 0 79023598.32778795 -18596579.72345801 -18596579.72345801 -5343023.167111793 0 0 0 0 0 99065879.26920357 -19086286.83011552 -19086286.83011552 -14872595.74613574 0 0 0 0 0 102102698.9684475 -17964166.71419676 -17964166.71419676 -15435136.07435026 0 0 0 0 0 105101266.9329401 -16583386.99937748 -16583386.99937748 -15730249.7358732 0 0 0 0 0 77506958.5306434 -17601990.62316873 -17601990.62316873 -4080101.749286322 0 0 0 0 0 108007474.8048292 -14965680.59851186 -14965680.59851186 -15729824.47448781 0 0 0 0 0 110760070.1182788 -13149020.1745811 -13149020.1745811 -15412772.35491417 0 0 0 0 0 76247416.10294303 -16496817.46322513 -16496817.46322513 -2894290.10830008 0 0 0 0 0 113317583.7815808 -11171432.6043497 -11171432.6043497 -14772939.61581287 0 0 0 0 0 115615743.865289 -9091843.811334014 -9091843.811334014 -13813873.9087889 0 0 0 0 0 117619483.7813297 -6963568.707740698 -6963568.707740698 -12552093.07154578 0 0 0 0 0 76905965.51939155 -14691854.98447463 -14691854.98447463 -1511433.022485807 0 0 0 0 0 76595015.16376331 -14618782.64093816 -14618782.64093816 -1633058.698728209 0 0 0 0 0 77220179.52885646 -12983561.94345919 -12983561.94345919 -563513.3769348871 0 0 0 0 0 78665872.81580576 -9923294.040522251 -9923294.040522251 889521.4736340027 0 0 0 0 0 77925393.93258105 -11338216.64690687 -11338216.64690687 178955.8813060206 0 0 0 0 0 77186423.69422378 -12895968.26172233 -12895968.26172233 -622573.5119746831 0 0 0 0 0 78419928.17332317 -12364111.02181885 -12364111.02181885 -552846.1631190957 0 0 0 0 0 79367796.14045419 -8659217.96331642 -8659217.96331642 1469064.065668493 0 0 0 0 0 79440903.85632044 -9603346.959424479 -9603346.959424479 1020005.293121169 0 0 0 0 0 187241309.2408597 1372903.368946445 1372903.368946445 34289033.53329659 0 0 0 0 0 181748078.0637989 -2955786.131449395 -2955786.131449395 36315745.00773636 0 0 0 0 0 161721760.675258 1425799.390493337 1425799.390493337 35128933.91670076 0 0 0 0 0 167370256.9583707 754395.5664284336 754395.5664284336 36429251.70194123 0 0 0 0 0 156412530.5973287 2165649.293321825 2165649.293321825 32949882.1642713 0 0 0 0 0 147771394.634705 3876635.504068619 3876635.504068619 26689407.41113592 0 0 0 0 0 151909789.7769341 3127946.440410107 3127946.440410107 30133500.51498613 0 0 0 0 0 144154257.7784523 4516721.594839378 4516721.594839378 23015834.51669862 0 0 0 0 0 141009703.6215203 4932946.030614029 4932946.030614029 19193697.62593971 0 0 0 0 0 138266043.0817407 5094119.790914415 5094119.790914415 15364454.4551332 0 0 0 0 0 135828678.9851607 4990260.261082035 4990260.261082035 11656060.92726588 0 0 0 0 0 133633799.1085331 4651927.954202686 4651927.954202686 8167683.132408243 0 0 0 0 0 131622663.6628659 4117519.810178553 4117519.810178553 4971633.96634555 0 0 0 0 0 129751958.7569868 3433981.018839665 3433981.018839665 2103708.989511077 0 0 0 0 0 127987222.4499499 2645300.980206055 2645300.980206055 -422789.4961610478 0 0 0 0 0 126303859.6261659 1792907.976559199 1792907.976559199 -2607923.327937139 0 0 0 0 0 125555651.8276707 -592413.3182961568 -592413.3182961568 -6815612.473731357 0 0 0 0 0 123862006.2000217 -1139064.415416481 -1139064.415416481 -6951073.700261635 0 0 0 0 0 122204071.0755355 -1983813.518309165 -1983813.518309165 -8237818.496379948 0 0 0 0 0 121484445.5366927 -4068886.68588968 -4068886.68588968 -10857090.76742211 0 0 0 0 0 119299558.4562411 -4841187.448005316 -4841187.448005316 -11015669.49815987 0 0 0 0 0 90543462.84407616 -19570244.61254498 -19570244.61254498 -9458708.904710928 0 0 0 0 0 87956326.28661662 -19399290.19908279 -19399290.19908279 -8242312.48325662 0 0 0 0 0 85546533.95962232 -18999077.87507262 -18999077.87507262 -7000716.914291154 0 0 0 0 0 93280530.20844945 -19515388.18914257 -19515388.18914257 -10631888.1045946 0 0 0 0 0 96125501.5655636 -19213031.81570824 -19213031.81570824 -11724154.55632472 0 0 0 0 0 99035738.00362383 -18655102.17861708 -18655102.17861708 -12698871.480315 0 0 0 0 0 83341669.00278562 -18422452.78373105 -18422452.78373105 -5795122.621632369 0 0 0 0 0 81352694.79718493 -17671298.87508304 -17671298.87508304 -4628728.285150466 0 0 0 0 0 101964238.1556355 -17842137.38005785 -17842137.38005785 -13520196.90972099 0 0 0 0 0 104857494.1132957 -16782204.18308699 -16782204.18308699 -14155384.36402513 0 0 0 0 0 107660122.8119296 -15492299.68202353 -15492299.68202353 -14571775.80719956 0 0 0 0 0 79626849.98203172 -16780414.19187142 -16780414.19187142 -3512068.22106937 0 0 0 0 0 110322875.5851084 -13992828.6856249 -13992828.6856249 -14739284.05929387 0 0 0 0 0 112787174.7530514 -12318289.43930425 -12318289.43930425 -14635902.62246505 0 0 0 0 0 78145016.78676319 -15773499.25945779 -15773499.25945779 -2470790.648966862 0 0 0 0 0 115010933.7412858 -10504060.93268097 -10504060.93268097 -14246063.22266105 0 0 0 0 0 116969410.1702742 -8593481.872726707 -8593481.872726707 -13568785.37856967 0 0 0 0 0 118623047.573642 -6642532.076513438 -6642532.076513438 -12605386.81959666 0 0 0 0 0 77550256.47950216 -15727186.04674174 -15727186.04674174 -2650493.844740581 0 0 0 0 0 78163068.82269956 -14047728.10975422 -14047728.10975422 -1368436.705481841 0 0 0 0 0 77866785.17541531 -13970035.36582744 -13970035.36582744 -1488788.044863498 0 0 0 0 0 79082945.32169317 -10858566.61585694 -10858566.61585694 220846.5999317389 0 0 0 0 0 78950891.80207397 -10961885.59459588 -10961885.59459588 240235.4888987424 0 0 0 0 0 78429634.94277386 -12452984.58278805 -12452984.58278805 -502455.2816005741 0 0 0 0 0 79581853.11645503 -11955871.86292039 -11955871.86292039 -432251.7537816329 0 0 0 0 0 79358739.67806502 -8684923.321510084 -8684923.321510084 978304.7073473459 0 0 0 0 0 79589635.26330259 -9539624.587046579 -9539624.587046579 660744.0488536371 0 0 0 0 0 172278541.9144914 1171647.854849758 1171647.854849758 36538233.34991471 0 0 0 0 0 155793758.0594928 -703450.5294893931 -703450.5294893931 34337362.28294051 0 0 0 0 0 159155322.9307303 -1327826.676037055 -1327826.676037055 36093346.0210932 0 0 0 0 0 161863732.5205262 -1025676.700816238 -1025676.700816238 36992920.14129972 0 0 0 0 0 151810291.3329418 357350.2259610285 357350.2259610285 31601997.24053895 0 0 0 0 0 148160522.3045221 1453738.986537425 1453738.986537425 28087333.77924351 0 0 0 0 0 144819443.5133809 2398438.229858048 2398438.229858048 24320288.96999346 0 0 0 0 0 141790310.8059735 3169430.546277341 3169430.546277341 20342844.27254195 0 0 0 0 0 139093306.4034323 3695089.536999126 3695089.536999126 16336520.13391105 0 0 0 0 0 136683104.1847341 3952463.089326929 3952463.089326929 12440704.41019734 0 0 0 0 0 134519789.5843927 3948007.009215516 3948007.009215516 8780753.159742838 0 0 0 0 0 132556145.4077574 3714475.838760377 3714475.838760377 5433643.412082178 0 0 0 0 0 130742298.8187432 3288166.862685074 3288166.862685074 2441178.466758524 0 0 0 0 0 129044228.9392036 2714696.347353397 2714696.347353397 -185428.9409969126 0 0 0 0 0 127438774.1508714 2034663.39125303 2034663.39125303 -2447547.631878471 0 0 0 0 0 125903981.805355 1289884.107677337 1289884.107677337 -4355229.523874245 0 0 0 0 0 124681292.237489 907643.5847776448 907643.5847776448 -4462439.612229836 0 0 0 0 0 123951388.2236843 -1358181.164706901 -1358181.164706901 -8122835.637707275 0 0 0 0 0 122423225.3836777 -2101421.607399127 -2101421.607399127 -9130902.512426665 0 0 0 0 0 120641212.4845044 -2774359.685798248 -2774359.685798248 -9236446.091269208 0 0 0 0 0 119962041.603643 -4695816.37544469 -4695816.37544469 -11367389.87265366 0 0 0 0 0 90474116.37878276 -19869378.49493783 -19869378.49493783 -11172718.2229076 0 0 0 0 0 87995294.69876553 -19844192.17118905 -19844192.17118905 -9974880.959716333 0 0 0 0 0 85698997.43435423 -19596002.56872755 -19596002.56872755 -8720272.920637643 0 0 0 0 0 83588009.92526498 -19134463.31274174 -19134463.31274174 -7429344.868435715 0 0 0 0 0 93079290.33364435 -19651217.45514913 -19651217.45514913 -12281846.43351449 0 0 0 0 0 95795557.08809298 -19178963.51367653 -19178963.51367653 -13263193.04141065 0 0 0 0 0 98583265.46822564 -18450040.27056264 -18450040.27056264 -14080553.71080545 0 0 0 0 0 81740330.8498318 -18493309.78156325 -18493309.78156325 -6157977.432979831 0 0 0 0 0 80117993.29388154 -17690676.57426044 -17690676.57426044 -4935404.027486712 0 0 0 0 0 101396953.4621354 -17468038.30783483 -17468038.30783483 -14697741.5887626 0 0 0 0 0 104187763.734032 -16245301.21418036 -16245301.21418036 -15081280.84055903 0 0 0 0 0 106904074.4604139 -14801888.35609823 -14801888.35609823 -15206863.22239128 0 0 0 0 0 78713700.81236164 -16762498.23291036 -16762498.23291036 -3757439.293329653 0 0 0 0 0 109500934.3685468 -13161593.85610959 -13161593.85610959 -15046682.7812597 0 0 0 0 0 111924460.0253015 -11368742.32944747 -11368742.32944747 -14600134.67232839 0 0 0 0 0 114147092.3522142 -9448373.768107718 -9448373.768107718 -13847506.71156146 0 0 0 0 0 116109987.9441442 -7467674.107145494 -7467674.107145494 -12818056.87588371 0 0 0 0 0 117784326.1731206 -5470816.765133031 -5470816.765133031 -11524092.96643602 0 0 0 0 0 79311552.0824699 -15060118.67471294 -15060118.67471294 -2259519.038610241 0 0 0 0 0 78758244.43645462 -15002353.68192872 -15002353.68192872 -2434617.077478621 0 0 0 0 0 79318488.12944283 -13446855.86210741 -13446855.86210741 -1248941.206824536 0 0 0 0 0 79977888.10486774 -10477836.01710534 -10477836.01710534 156596.4547135078 0 0 0 0 0 79538780.71745408 -11862629.41192997 -11862629.41192997 -494221.5561443563 0 0 0 0 0 79072443.92039083 -13364285.7186907 -13364285.7186907 -1357992.335550524 0 0 0 0 0 80167101.05322972 -12795011.33400236 -12795011.33400236 -1255363.002996254 0 0 0 0 0 80491144.94873808 -9404557.250024989 -9404557.250024989 931314.5593194708 0 0 0 0 0 80461472.60133265 -10379787.68341204 -10379787.68341204 297131.4084103456 0 0 0 0 0 169558417.1075303 -1583011.189236929 -1583011.189236929 36913625.52271049 0 0 0 0 0 152695743.8362132 2726089.765700534 2726089.765700534 34198310.98797631 0 0 0 0 0 156740734.9183037 1796495.755504567 1796495.755504567 35984970.58049801 0 0 0 0 0 160346300.5515797 1032072.379488217 1032072.379488217 37008357.77697774 0 0 0 0 0 148861039.8545984 3739378.250594404 3739378.250594404 31988341.39980958 0 0 0 0 0 145466230.0251306 4674251.004658712 4674251.004658712 29074674.58570147 0 0 0 0 0 142386457.2698154 5409225.397234635 5409225.397234635 25740969.14831131 0 0 0 0 0 139671370.2382965 5942497.018058447 5942497.018058447 22186735.95562193 0 0 0 0 0 137253669.0131819 6229345.868997115 6229345.868997115 18548704.79022669 0 0 0 0 0 135104229.2708675 6268509.328616677 6268509.328616677 14940777.62591877 0 0 0 0 0 133152980.988021 6067103.700824088 6067103.700824088 11472803.15928976 0 0 0 0 0 131358413.569325 5659046.297084572 5659046.297084572 8222389.448510141 0 0 0 0 0 129685384.0531057 5083162.499783508 5083162.499783508 5244571.902593318 0 0 0 0 0 128101649.4681182 4378556.940864133 4378556.940864133 2562684.802523771 0 0 0 0 0 126577014.9017632 3580521.925788503 3580521.925788503 187685.8682471128 0 0 0 0 0 125105375.8987571 2731962.086919362 2731962.086919362 -1875993.602681243 0 0 0 0 0 124430554.9074304 516598.9918335538 516598.9918335538 -5927846.626649577 0 0 0 0 0 123125835.1838883 32701.62688555916 32701.62688555916 -6004027.5733247 0 0 0 0 0 121643661.6676893 -810485.0563643144 -810485.0563643144 -7254392.249341638 0 0 0 0 0 120980637.3011484 -2796633.634879475 -2796633.634879475 -9878864.930415466 0 0 0 0 0 119156788.6830266 -3500627.314872019 -3500627.314872019 -9986932.251374219 0 0 0 0 0 93259496.03348558 -18686271.85341587 -18686271.85341587 -9930472.024013124 0 0 0 0 0 90740129.5885224 -18699325.4860403 -18699325.4860403 -8804490.789293226 0 0 0 0 0 88348302.07101738 -18503382.00825018 -18503382.00825018 -7648325.161618976 0 0 0 0 0 86100918.30618665 -18113480.90149807 -18113480.90149807 -6487219.95550366 0 0 0 0 0 95881564.1878617 -18450119.71423652 -18450119.71423652 -10984874.66673384 0 0 0 0 0 98571969.14872038 -17981577.58199777 -17981577.58199777 -11942750.22997354 0 0 0 0 0 101289818.7963671 -17279518.95915838 -17279518.95915838 -12772557.92760906 0 0 0 0 0 84069715.73479337 -17548500.59009279 -17548500.59009279 -5356278.0790557 0 0 0 0 0 82285989.45093398 -16835522.42980811 -16835522.42980811 -4263572.475402843 0 0 0 0 0 103984908.3083618 -16348063.98594915 -16348063.98594915 -13442399.24366146 0 0 0 0 0 106609588.2402721 -15199210.06769797 -15199210.06769797 -13921667.13725669 0 0 0 0 0 109120270.3194267 -13853249.72491444 -13853249.72491444 -14182482.81256959 0 0 0 0 0 80689667.39072888 -15997244.83527938 -15997244.83527938 -3223937.980857738 0 0 0 0 0 111465609.7060043 -12335257.09558764 -12335257.09558764 -14204037.47990994 0 0 0 0 0 113609189.2814201 -10678508.10004017 -10678508.10004017 -13968732.27291819 0 0 0 0 0 115510754.3182741 -8918493.109358694 -8918493.109358694 -13470219.42970667 0 0 0 0 0 117153297.138507 -7098933.962799185 -7098933.962799185 -12707130.45291206 0 0 0 0 0 118513017.49256 -5263535.829894189 -5263535.829894189 -11686565.5893119 0 0 0 0 0 79842569.87517701 -15966964.12459566 -15966964.12459566 -3459049.076348596 0 0 0 0 0 80388731.54203041 -14389125.12342244 -14389125.12342244 -2079639.671085329 0 0 0 0 0 79896084.09597698 -14324570.21049717 -14324570.21049717 -2243212.114348803 0 0 0 0 0 80644678.84899959 -11376388.68116385 -11376388.68116385 -434647.8904537833 0 0 0 0 0 80626008.69151631 -11462211.9709983 -11462211.9709983 -403381.623545313 0 0 0 0 0 80404320.17942905 -12880737.7019299 -12880737.7019299 -1146890.798415401 0 0 0 0 0 81414681.24002402 -12343044.81777327 -12343044.81777327 -1062981.785521275 0 0 0 0 0 80593734.45857424 -9353422.058387173 -9353422.058387173 464185.2930020181 0 0 0 0 0 80963708.79724599 -10155833.24550358 -10155833.24550358 77865.16125877097 0 0 0 0 0 162064989.6054215 541410.6784624213 541410.6784624213 36789730.79348354 0 0 0 0 0 148025064.1763184 1073298.461045638 1073298.461045638 33189485.11749623 0 0 0 0 0 150649391.1076464 135191.0075170326 135191.0075170326 35357491.3596701 0 0 0 0 0 153275732.0464436 -497243.4844778487 -497243.4844778487 36543129.24187911 0 0 0 0 0 156971388.8528837 -860127.868112354 -860127.868112354 36869466.4253053 0 0 0 0 0 145049574.5710555 2122130.506444658 2122130.506444658 30312240.89181776 0 0 0 0 0 142268412.6179957 3155203.981488646 3155203.981488646 26894577.37960843 0 0 0 0 0 139716745.7985676 3996091.995038525 3996091.995038525 23236934.00094566 0 0 0 0 0 137424502.0035131 4621243.328948309 4621243.328948309 19453089.6114092 0 0 0 0 0 135343161.0798385 4994067.798503656 4994067.798503656 15694161.2223565 0 0 0 0 0 133468473.650653 5119747.763839169 5119747.763839169 12067721.14059178 0 0 0 0 0 131751153.7482523 5011077.398504094 5011077.398504094 8675916.497634931 0 0 0 0 0 130163255.2753614 4701555.963046706 4701555.963046706 5576112.43395176 0 0 0 0 0 128666266.2707969 4224378.504918071 4224378.504918071 2794105.957016252 0 0 0 0 0 127245895.3538598 3621583.275893861 3621583.275893861 338684.7933773549 0 0 0 0 0 125880947.0274015 2932141.223623559 2932141.223623559 -1785296.152527081 0 0 0 0 0 124560322.519682 2188119.067520895 2188119.067520895 -3589113.89838506 0 0 0 0 0 123679972.8701165 1863125.248798156 1863125.248798156 -3639138.591226184 0 0 0 0 0 123017263.3327283 -253679.3696694062 -253679.3696694062 -7191967.572893126 0 0 0 0 0 121664136.3883017 -1001019.290550032 -1001019.290550032 -8183506.423447049 0 0 0 0 0 120212678.4440341 -1607355.377778835 -1607355.377778835 -8242256.178596044 0 0 0 0 0 119580954.560508 -3451788.451769138 -3451788.451769138 -10424298.06117581 0 0 0 0 0 93076768.92615625 -18829405.44080077 -18829405.44080077 -11511425.48381697 0 0 0 0 0 90666328.17828387 -18989569.56122254 -18989569.56122254 -10443051.21093739 0 0 0 0 0 88355731.90984161 -18933523.4542021 -18933523.4542021 -9297677.169196013 0 0 0 0 0 86248312.07860851 -18670636.72864965 -18670636.72864965 -8095368.799425717 0 0 0 0 0 84351998.56743942 -18213521.49460899 -18213521.49460899 -6888456.476906953 0 0 0 0 0 95581706.8159014 -18440904.2141909 -18440904.2141909 -12475744.79738466 0 0 0 0 0 98160009.91402513 -17817647.66756566 -17817647.66756566 -13300554.4243632 0 0 0 0 0 100773202.1279184 -16960254.3955318 -16960254.3955318 -13951283.61409451 0 0 0 0 0 82637766.19411132 -17592794.13116726 -17592794.13116726 -5699675.243668037 0 0 0 0 0 81124527.42834909 -16841020.05986688 -16841020.05986688 -4558511.812758967 0 0 0 0 0 103376451.9280873 -15877731.19911494 -15877731.19911494 -14399203.97035275 0 0 0 0 0 105924014.9625469 -14588442.01810931 -14588442.01810931 -14621509.23151103 0 0 0 0 0 108373984.3347091 -13112152.68493222 -13112152.68493222 -14592894.96446495 0 0 0 0 0 110676953.9145875 -11481793.45063554 -11481793.45063554 -14304233.86787171 0 0 0 0 0 112799082.9982785 -9729469.235024996 -9729469.235024996 -13744674.35596148 0 0 0 0 0 114704664.9586267 -7895728.584665356 -7895728.584665356 -12918488.11560595 0 0 0 0 0 116361858.2624284 -6025966.869583032 -6025966.869583032 -11840562.24063839 0 0 0 0 0 117753083.4825358 -4159831.641035806 -4159831.641035806 -10525838.90173076 0 0 0 0 0 81651957.99414656 -15264056.57743147 -15264056.57743147 -2982138.404518668 0 0 0 0 0 80905177.57617876 -15222998.55309749 -15222998.55309749 -3199503.283304451 0 0 0 0 0 81403156.83642174 -13759974.67015239 -13759974.67015239 -1921204.23844274 0 0 0 0 0 81590849.70394138 -11014844.41187607 -11014844.41187607 -386239.6799932551 0 0 0 0 0 81186014.14433095 -12259391.82686523 -12259391.82686523 -1168107.066846495 0 0 0 0 0 80941106.23190913 -13689549.17826369 -13689549.17826369 -2079958.312696469 0 0 0 0 0 81910870.9570542 -13092348.60389854 -13092348.60389854 -1934200.920175377 0 0 0 0 0 81712212.89979802 -10020441.2555698 -10020441.2555698 303356.99770686 0 0 0 0 0 81791394.41727871 -10935328.7878872 -10935328.7878872 -350320.1338972787 0 0 0 0 0 145493040.6439935 3793469.933412808 3793469.933412808 33224869.84156267 0 0 0 0 0 148492880.9157947 2783814.85733177 2783814.85733177 35080018.61295006 0 0 0 0 0 151245513.6423328 1817143.747428102 1817143.747428102 36355366.94454833 0 0 0 0 0 153665024.4854513 938404.363461934 938404.363461934 36746173.61020567 0 0 0 0 0 142704566.4853958 4830101.217747013 4830101.217747013 30781394.01965019 0 0 0 0 0 140142564.3858623 5727792.707103619 5727792.707103619 27887345.55818289 0 0 0 0 0 137844228.4290171 6413382.705874608 6413382.705874608 24675955.12239039 0 0 0 0 0 135773225.7600465 6865516.640566912 6865516.640566912 21302292.36298475 0 0 0 0 0 133919818.4724143 7075296.026613931 7075296.026613931 17875406.36925897 0 0 0 0 0 132225524.6867422 7043480.020431174 7043480.020431174 14507873.73197256 0 0 0 0 0 130665784.918077 6795007.610314067 6795007.610314067 11278883.79291997 0 0 0 0 0 129199924.2598728 6358813.98318627 6358813.98318627 8255100.424985303 0 0 0 0 0 127811530.9268994 5774419.792178364 5774419.792178364 5477686.822705673 0 0 0 0 0 126468942.3349105 5073612.40103764 5073612.40103764 2969518.34832149 0 0 0 0 0 125160747.9934473 4294756.4271686 4294756.4271686 738990.0037420061 0 0 0 0 0 123881598.3359961 3468258.792318533 3468258.792318533 -1208715.779217775 0 0 0 0 0 123277921.0913787 1422541.913384995 1422541.913384995 -5091430.217034922 0 0 0 0 0 122301581.9999224 1002625.260782443 1002625.260782443 -5119587.569530564 0 0 0 0 0 120964698.5815267 171992.2857901121 171992.2857901121 -6330895.439051847 0 0 0 0 0 120355788.8198135 -1709159.064380122 -1709159.064380122 -8947629.607056659 0 0 0 0 0 118864493.0579372 -2339480.008919461 -2339480.008919461 -8999352.445120499 0 0 0 0 0 95676278.81314763 -17712364.56756093 -17712364.56756093 -10290376.70057983 0 0 0 0 0 93254680.12428965 -17890959.52663221 -17890959.52663221 -9272700.682794293 0 0 0 0 0 90917476.06684405 -17871090.98395847 -17871090.98395847 -8191977.398113924 0 0 0 0 0 88682657.36220318 -17659931.49177621 -17659931.49177621 -7107730.830013155 0 0 0 0 0 86650791.77971081 -17270637.33875161 -17270637.33875161 -6030372.343807353 0 0 0 0 0 98165564.10509884 -17322636.5799753 -17322636.5799753 -11223839.27158334 0 0 0 0 0 100686257.3198815 -16717997.12282421 -16717997.12282421 -12049400.84619533 0 0 0 0 0 103196096.2942826 -15903179.25968816 -15903179.25968816 -12738093.91177745 0 0 0 0 0 84792033.29682302 -16727401.68177878 -16727401.68177878 -4967141.93677712 0 0 0 0 0 83129015.76787451 -16052292.72827164 -16052292.72827164 -3944541.193764507 0 0 0 0 0 105653747.5282474 -14884948.7870207 -14884948.7870207 -13262109.85074864 0 0 0 0 0 108019702.916267 -13678935.68027547 -13678935.68027547 -13596215.60929253 0 0 0 0 0 110249537.021498 -12307543.69485165 -12307543.69485165 -13717492.49442651 0 0 0 0 0 112306648.3548097 -10796663.90699778 -10796663.90699778 -13611089.85189889 0 0 0 0 0 114157230.086567 -9178824.058101408 -9178824.058101408 -13264037.16719023 0 0 0 0 0 115776273.3203033 -7489797.361273303 -7489797.361273303 -12675318.70409009 0 0 0 0 0 117147881.7881054 -5766290.131699208 -5766290.131699208 -11844571.67498461 0 0 0 0 0 118252837.6092782 -4048995.752676043 -4048995.752676043 -10786150.3388653 0 0 0 0 0 82100573.42400751 -16040349.6740724 -16040349.6740724 -4219205.585002624 0 0 0 0 0 82580544.63321856 -14578185.76897702 -14578185.76897702 -2763415.155817405 0 0 0 0 0 81880461.88449067 -14529046.67012312 -14529046.67012312 -2972644.100836531 0 0 0 0 0 82095657.58139913 -11768605.2648476 -11768605.2648476 -1068853.312476651 0 0 0 0 0 82352963.47152047 -11832476.49609554 -11832476.49609554 -969286.5471997526 0 0 0 0 0 82345951.62893353 -13163417.01542005 -13163417.01542005 -1782125.957993856 0 0 0 0 0 83218816.00748786 -12602685.78513214 -12602685.78513214 -1658723.596438533 0 0 0 0 0 81933161.82025854 -9911501.398062006 -9911501.398062006 -57933.12786949771 0 0 0 0 0 82363412.11482781 -10674737.0885975 -10674737.0885975 -489146.8902335652 0 0 0 0 0 141785047.3799725 2305680.0703422 2305680.0703422 31862407.36440039 0 0 0 0 0 143824391.2653386 1177485.160302652 1177485.160302652 34054459.20336844 0 0 0 0 0 146049946.9966372 135065.1979869696 135065.1979869696 35602000.28697553 0 0 0 0 0 148867563.0882431 -685951.0802187958 -685951.0802187958 36435436.76818085 0 0 0 0 0 139480915.1419339 3377594.588353171 3377594.588353171 28963856.83648007 0 0 0 0 0 137359902.9973791 4337851.219487688 4337851.219487688 25667408.53861609 0 0 0 0 0 135429491.971558 5085087.098825686 5085087.098825686 22171717.29172864 0 0 0 0 0 133674074.2420884 5601972.504616615 5601972.504616615 18611044.21632544 0 0 0 0 0 132075570.3696196 5877908.876577699 5877908.876577699 15097088.5617043 0 0 0 0 0 130604402.2649815 5921007.02159158 5921007.02159158 11736051.92046465 0 0 0 0 0 129239391.9689534 5754442.186055198 5754442.186055198 8592602.065569768 0 0 0 0 0 127949931.5153472 5406238.824703797 5406238.824703797 5715335.893347839 0 0 0 0 0 126720652.9972589 4913270.88276891 4913270.88276891 3122892.651935339 0 0 0 0 0 125530864.3541912 4308017.335434496 4308017.335434496 827575.316890909 0 0 0 0 0 124372881.3653746 3628470.072384683 3628470.072384683 -1168226.239512152 0 0 0 0 0 123238969.4645273 2903152.81306062 2903152.81306062 -2873877.488113188 0 0 0 0 0 122635966.6961627 2628324.497263151 2628324.497263151 -2881876.950305371 0 0 0 0 0 122040309.2784976 662329.7585604168 662329.7585604168 -6312978.191052207 0 0 0 0 0 120836839.2537737 -74457.29951505993 -74457.29951505993 -7291581.850911243 0 0 0 0 0 119681375.782236 -614691.0976810073 -614691.0976810073 -7305688.670821793 0 0 0 0 0 119086588.1488238 -2376006.528366117 -2376006.528366117 -9519329.646202879 0 0 0 0 0 95403937.83120076 -17724410.71088752 -17724410.71088752 -11728413.06777131 0 0 0 0 0 93083933.9491165 -18042732.12481548 -18042732.12481548 -10789519.53244838 0 0 0 0 0 90829898.76287177 -18158186.9684624 -18158186.9684624 -9760719.311283886 0 0 0 0 0 88729323.27251716 -18068463.13302747 -18068463.13302747 -8657568.061604178 0 0 0 0 0 86806855.81182373 -17787016.81543612 -17787016.81543612 -7522478.989986062 0 0 0 0 0 85052320.23366906 -17347007.90443673 -17347007.90443673 -6404613.699828355 0 0 0 0 0 97789825.23506522 -17193374.38453775 -17193374.38453775 -12548705.58771688 0 0 0 0 0 100216134.5721619 -16449121.70838879 -16449121.70838879 -13221760.57822637 0 0 0 0 0 102639903.8648304 -15495485.82195174 -15495485.82195174 -13719257.80788065 0 0 0 0 0 83481289.9756887 -16755889.75351813 -16755889.75351813 -5292711.527581831 0 0 0 0 0 105025293.0322162 -14346220.87473292 -14346220.87473292 -14016263.94987132 0 0 0 0 0 107334350.0707392 -13020965.27285358 -13020965.27285358 -14093188.28466121 0 0 0 0 0 109523152.1555399 -11540982.04128818 -11540982.04128818 -13935090.81379226 0 0 0 0 0 111553913.4658103 -9939433.583003229 -9939433.583003229 -13533484.74497162 0 0 0 0 0 113398493.7803919 -8248603.194378433 -8248603.194378433 -12886750.22587176 0 0 0 0 0 115029082.2887015 -6506683.650297082 -6506683.650297082 -12002295.72951465 0 0 0 0 0 116422349.4363432 -4750545.15856061 -4750545.15856061 -10891071.95238985 0 0 0 0 0 117566198.1123235 -3017448.278975209 -3017448.278975209 -9571312.700774396 0 0 0 0 0 83938597.64429474 -15316577.68706809 -15316577.68706809 -3665215.632887703 0 0 0 0 0 82990772.04059902 -15294980.42910523 -15294980.42910523 -3924093.039523771 0 0 0 0 0 83440277.20869124 -13928963.72591329 -13928963.72591329 -2567679.229090825 0 0 0 0 0 83105559.8396717 -11399950.2568656 -11399950.2568656 -934351.3512855077 0 0 0 0 0 82753954.34457184 -12526949.44307258 -12526949.44307258 -1821104.122071055 0 0 0 0 0 82785646.62987573 -13874651.95563748 -13874651.95563748 -2767881.450135973 0 0 0 0 0 83624850.45724152 -13261268.54740784 -13261268.54740784 -2578157.977494016 0 0 0 0 0 82927234.76451279 -10552390.51700905 -10552390.51700905 -330932.2995589779 0 0 0 0 0 83179973.43191658 -11316667.86575833 -11316667.86575833 -938675.9871283291 0 0 0 0 0 139709757.7667004 4524900.777539209 4524900.777539209 31947566.19898644 0 0 0 0 0 142089560.0368114 3425530.777529848 3425530.777529848 33844888.67785516 0 0 0 0 0 144069143.9412498 2291365.859547862 2291365.859547862 35275813.79342157 0 0 0 0 0 146236758.2994694 1260636.215675631 1260636.215675631 36014012.45175519 0 0 0 0 0 137626410.2642228 5555517.076724268 5555517.076724268 29439562.4335389 0 0 0 0 0 135692169.6868267 6404942.583002239 6404942.583002239 26632965.79930759 0 0 0 0 0 133958775.0554094 7040418.229907605 7040418.229907605 23578788.80769804 0 0 0 0 0 132386531.4192926 7436786.088104895 7436786.088104895 20399666.23886479 0 0 0 0 0 130952743.7289479 7596768.965115811 7596768.965115811 17200498.31996572 0 0 0 0 0 129624884.847886 7530138.845261746 7530138.845261746 14066181.33136796 0 0 0 0 0 128373763.3141054 7262805.242906945 7262805.242906945 11067776.31863319 0 0 0 0 0 127180416.0128242 6825406.959072852 6825406.959072852 8256398.104916671 0 0 0 0 0 126023665.4220347 6252421.762933081 6252421.762933081 5669281.681632618 0 0 0 0 0 124889277.7829969 5575013.770877406 5575013.770877406 3325079.489902542 0 0 0 0 0 123771085.2089549 4827775.872065273 4827775.872065273 1234452.150504565 0 0 0 0 0 122668284.4691208 4040289.184314512 4040289.184314512 -601312.0921706546 0 0 0 0 0 122123930.3091784 2154610.99870448 2154610.99870448 -4314486.212341651 0 0 0 0 0 121413282.4680849 1795691.860114639 1795691.860114639 -4301944.239203425 0 0 0 0 0 120221536.4544437 988430.5241609486 988430.5241609486 -5478580.765160359 0 0 0 0 0 119657754.0388501 -783185.6275136496 -783185.6275136496 -8064967.672365155 0 0 0 0 0 118450563.1428224 -1347855.361383992 -1347855.361383992 -8074893.035137121 0 0 0 0 0 97806303.62634361 -16681165.41507585 -16681165.41507585 -10545101.3885531 0 0 0 0 0 95497811.88579498 -17003611.75746387 -17003611.75746387 -9639591.77673568 0 0 0 0 0 93245947.09710902 -17136741.95085957 -17136741.95085957 -8653816.697724996 0 0 0 0 0 91079422.83942565 -17084210.86020936 -17084210.86020936 -7644543.43917687 0 0 0 0 0 89043707.84225482 -16857236.27675882 -16857236.27675882 -6623737.615486452 0 0 0 0 0 87182748.36504945 -16475599.00161644 -16475599.00161644 -5608355.542776345 0 0 0 0 0 100145531.4541752 -16164032.37916985 -16164032.37916985 -11358256.14344116 0 0 0 0 0 102482406.9886189 -15452752.80644567 -15452752.80644567 -12056922.01048099 0 0 0 0 0 104784670.1054044 -14552803.92243808 -14552803.92243808 -12611231.95404634 0 0 0 0 0 85472266.86184362 -15955798.21563264 -15955798.21563264 -4616045.883112684 0 0 0 0 0 107014743.9520909 -13474522.14656041 -13474522.14656041 -12997658.10367458 0 0 0 0 0 109132551.2962212 -12236125.04258532 -12236125.04258532 -13197493.75927957 0 0 0 0 0 111101060.8608963 -10864962.95246811 -10864962.95246811 -13199710.3115623 0 0 0 0 0 112897248.4933062 -9378018.074373519 -9378018.074373519 -12978334.60109673 0 0 0 0 0 114487803.1422118 -7814787.235439793 -7814787.235439793 -12538169.68901501 0 0 0 0 0 115855652.3018524 -6206064.434261367 -6206064.434261367 -11876220.46128065 0 0 0 0 0 116987968.0285828 -4586032.840175581 -4586032.840175581 -10999367.37465985 0 0 0 0 0 117874431.4482532 -2989255.15772636 -2989255.15772636 -9920043.664086089 0 0 0 0 0 84272309.77285752 -15967608.45723792 -15967608.45723792 -4922606.531807049 0 0 0 0 0 84697738.63754325 -14623173.69793771 -14623173.69793771 -3410865.42139399 0 0 0 0 0 83817800.05611594 -14592942.73388879 -14592942.73388879 -3656731.719816534 0 0 0 0 0 83604673.4412735 -12032568.71259936 -12032568.71259936 -1667954.388605459 0 0 0 0 0 84024737.95264424 -12091466.02305746 -12091466.02305746 -1526495.012773264 0 0 0 0 0 84238164.90927052 -13315301.49380839 -13315301.49380839 -2388883.3610338 0 0 0 0 0 84973201.45765746 -12744764.73389825 -12744764.73389825 -2240001.180096679 0 0 0 0 0 83266521.12592113 -10376631.83668412 -10376631.83668412 -607165.8550796871 0 0 0 0 0 83774091.61278564 -11079931.25107926 -11079931.25107926 -1082754.03922986 0 0 0 0 0 136588576.7710068 3174553.088179899 3174553.088179899 30445724.35817573 0 0 0 0 0 138223537.2960763 2040648.461418813 2040648.461418813 32695979.30301144 0 0 0 0 0 139735621.6836798 765289.5263237774 765289.5263237774 34358779.18687784 0 0 0 0 0 142129816.4617433 -368567.84665799 -368567.84665799 35428014.22017619 0 0 0 0 0 134850570.6988638 4242918.741898165 4242918.741898165 27574138.89840571 0 0 0 0 0 133253517.5876249 5131814.791641005 5131814.791641005 24427037.55891027 0 0 0 0 0 131788857.9938949 5804489.254742625 5804489.254742625 21128816.14673686 0 0 0 0 0 130446165.0951919 6245306.93707075 6245306.93707075 17800931.45034275 0 0 0 0 0 129207572.3476942 6456429.641919717 6456429.641919717 14538806.31562498 0 0 0 0 0 128055458.3954875 6452030.208033046 6452030.208033046 11423374.86941324 0 0 0 0 0 126965125.7329346 6255339.630767286 6255339.630767286 8510234.88665634 0 0 0 0 0 125921234.9674539 5895858.112517269 5895858.112517269 5837165.748030103 0 0 0 0 0 124907506.8927202 5406107.072465697 5406107.072465697 3422211.767285124 0 0 0 0 0 123913633.9946961 4818931.6541917 4818931.6541917 1276459.038675239 0 0 0 0 0 122932642.182348 4162187.294631016 4162187.294631016 -598496.3736445708 0 0 0 0 0 121958175.1968538 3462626.596371038 3462626.596371038 -2220095.030945427 0 0 0 0 0 121578354.6393276 3234625.260612925 3234625.260612925 -2194421.491808848 0 0 0 0 0 121040886.7949943 1416776.528029299 1416776.528029299 -5496811.378162642 0 0 0 0 0 119975938.7522762 698801.2899734479 698801.2899734479 -6457749.644390685 0 0 0 0 0 119071573.3484461 220852.4569328385 220852.4569328385 -6437677.9283463 0 0 0 0 0 118515495.9456845 -1449686.947204384 -1449686.947204384 -8657512.740354111 0 0 0 0 0 97463360.46750633 -16583656.12838804 -16583656.12838804 -11827494.03121134 0 0 0 0 0 95243517.34036404 -17035056.27917381 -17035056.27917381 -11016298.75602448 0 0 0 0 0 93077130.44886202 -17295384.3615358 -17295384.3615358 -10106669.5918133 0 0 0 0 0 91027671.31423664 -17360696.82461987 -17360696.82461987 -9112560.877649864 0 0 0 0 0 89109365.53896891 -17244062.74259827 -17244062.74259827 -8073624.199548525 0 0 0 0 0 87337764.5193215 -16958836.02521179 -16958836.02521179 -7013903.772334618 0 0 0 0 0 85720278.76936233 -16530327.08027709 -16530327.08027709 -5960163.404724638 0 0 0 0 0 99717057.84824851 -15938026.36431005 -15938026.36431005 -12510717.69627519 0 0 0 0 0 101977129.1992001 -15100736.45688352 -15100736.45688352 -13041222.67233121 0 0 0 0 0 104212192.4730409 -14079420.86641324 -14079420.86641324 -13399246.84139481 0 0 0 0 0 106387827.7250703 -12890146.84808915 -12890146.84808915 -13564078.27669893 0 0 0 0 0 108465014.7388559 -11551253.47587699 -11551253.47587699 -13513497.838941 0 0 0 0 0 110406546.0766071 -10088180.50366565 -10088180.50366565 -13244386.39652369 0 0 0 0 0 112188982.3283363 -8531833.034981038 -8531833.034981038 -12750606.19239758 0 0 0 0 0 113781742.4403075 -6915516.270705898 -6915516.270705898 -12035951.07567472 0 0 0 0 0 115170218.4781139 -5268870.895965589 -5268870.895965589 -11105174.83505261 0 0 0 0 0 116333792.4978732 -3628695.255221647 -3628695.255221647 -9976449.591929493 0 0 0 0 0 117261713.9395485 -2029865.300559842 -2029865.300559842 -8670821.387917506 0 0 0 0 0 86113974.46076155 -15228158.66067323 -15228158.66067323 -4301141.235806813 0 0 0 0 0 85006241.13227552 -15228882.94020913 -15228882.94020913 -4589659.097966409 0 0 0 0 0 85405938.18706593 -13968008.45303407 -13968008.45303407 -3179690.644875206 0 0 0 0 0 84739632.3887216 -11661300.11449337 -11661300.11449337 -1471653.609453053 0 0 0 0 0 84332603.25625333 -12675801.79623642 -12675801.79623642 -2444642.749756613 0 0 0 0 0 84584601.69093736 -13930150.93898789 -13930150.93898789 -3414402.466955426 0 0 0 0 0 85293090.55512245 -13316187.80786883 -13316187.80786883 -3175778.340545581 0 0 0 0 0 84222630.57054062 -10935010.91015453 -10935010.91015453 -951591.3847129272 0 0 0 0 0 84592893.97657908 -11578043.3201874 -11578043.3201874 -1541051.91010488 0 0 0 0 0 134972972.2988978 4962732.399730559 4962732.399730559 30375069.91977444 0 0 0 0 0 136827036.6900369 3920943.156297196 3920943.156297196 32428508.23013477 0 0 0 0 0 138202052.3249569 2597847.443710905 2597847.443710905 33694033.72173748 0 0 0 0 0 139821926.3252904 1448864.44164799 1448864.44164799 34832466.45941117 0 0 0 0 0 133379321.9020448 5985530.344499939 5985530.344499939 28024312.52750859 0 0 0 0 0 131936002.290625 6806706.118787537 6806706.118787537 25346500.92388684 0 0 0 0 0 130626789.5300193 7399879.798375881 7399879.798375881 22474158.38293067 0 0 0 0 0 129428750.0663621 7757359.801241412 7757359.801241412 19504930.20205158 0 0 0 0 0 128320957.5248249 7886933.373553823 7886933.373553823 16529388.80406361 0 0 0 0 0 127275849.2066143 7805173.994261939 7805173.994261939 13621704.76025167 0 0 0 0 0 126274976.6023569 7537763.057683965 7537763.057683965 10840859.21718464 0 0 0 0 0 125300330.8422942 7114523.225179205 7114523.225179205 8231407.843304615 0 0 0 0 0 124340297.7283209 6566886.000416323 6566886.000416323 5823695.659039741 0 0 0 0 0 123386078.9971008 5926190.706771098 5926190.706771098 3635811.820115106 0 0 0 0 0 122432795.6750887 5219278.348137761 5219278.348137761 1673871.501459557 0 0 0 0 0 121481482.3095317 4473242.1223812 4473242.1223812 -61403.96787329315 0 0 0 0 0 120991809.5399304 2743015.334603771 2743015.334603771 -3599883.282454113 0 0 0 0 0 120495917.9608142 2434378.647789411 2434378.647789411 -3560396.332092721 0 0 0 0 0 119437860.2616085 1659957.641586875 1659957.641586875 -4697527.442315074 0 0 0 0 0 118920053.0728489 2118.612026670249 2118.612026670249 -7234707.693213788 0 0 0 0 0 117952678.588382 -504176.9060617316 -504176.9060617316 -7213713.879450426 0 0 0 0 0 99659531.43410054 -15621217.90530339 -15621217.90530339 -10702987.28169796 0 0 0 0 0 97481930.98351523 -16060262.60283669 -16060262.60283669 -9901394.98479129 0 0 0 0 0 95337308.39546414 -16323686.42007471 -16323686.42007471 -9018562.146823335 0 0 0 0 0 93256489.6504683 -16410514.89208793 -16410514.89208793 -8094648.408165284 0 0 0 0 0 91275934.71763855 -16332803.65455461 -16332803.65455461 -7142404.421170207 0 0 0 0 0 89412850.94327505 -16097918.51649025 -16097918.51649025 -6179714.067182586 0 0 0 0 0 87689976.56903987 -15725109.91678115 -15725109.91678115 -5227060.635569945 0 0 0 0 0 101841691.8650789 -15001147.06506772 -15001147.06506772 -11398255.5165134 0 0 0 0 0 103997342.4209924 -14206744.34429439 -14206744.34429439 -11971233.14679089 0 0 0 0 0 106097054.2098493 -13245419.82927896 -13245419.82927896 -12400478.17265907 0 0 0 0 0 108102951.1469689 -12132279.684377 -12132279.684377 -12667532.92849766 0 0 0 0 0 109986126.7555551 -10890318.01264693 -10890318.01264693 -12755932.72610694 0 0 0 0 0 111723800.7792103 -9525582.147476071 -9525582.147476071 -12637521.98832781 0 0 0 0 0 113282332.3569389 -8081167.16370828 -8081167.16370828 -12322619.93881818 0 0 0 0 0 114642273.3719984 -6581801.720282464 -6581801.720282464 -11803817.24903336 0 0 0 0 0 115788556.4584693 -5060089.141809249 -5060089.141809249 -11086178.47443124 0 0 0 0 0 116713800.5479316 -3545145.853292176 -3545145.853292176 -10176587.67968353 0 0 0 0 0 117414841.2111518 -2067778.168507603 -2067778.168507603 -9088809.176831521 0 0 0 0 0 86345052.41917956 -15762686.00578968 -15762686.00578968 -5557613.289857297 0 0 0 0 0 86714130.63138632 -14543713.05152099 -14543713.05152099 -4014711.014552881 0 0 0 0 0 85693215.2349848 -14534204.469403 -14534204.469403 -4286077.133680033 0 0 0 0 0 84927830.95163949 -12106908.69331968 -12106908.69331968 -2320063.677433953 0 0 0 0 0 85727371.19453812 -12200337.81322858 -12200337.81322858 -2092957.686550593 0 0 0 0 0 86072808.66625677 -13342333.36605742 -13342333.36605742 -2957649.582216388 0 0 0 0 0 86666871.96584764 -12769518.05088029 -12769518.05088029 -2742101.864104872 0 0 0 0 0 84594166.93518297 -10734168.69532709 -10734168.69532709 -1169817.262211103 0 0 0 0 0 84995628.54015493 -11427055.60457848 -11427055.60457848 -1729862.633620393 0 0 0 0 0 132346114.4618135 3793758.380116287 3793758.380116287 28938288.05865433 0 0 0 0 0 133719176.1999247 2659263.931034217 2659263.931034217 31326264.59344121 0 0 0 0 0 134673325.3232977 1511247.534622859 1511247.534622859 33136354.72219286 0 0 0 0 0 136547600.5730099 -164371.6726355697 -164371.6726355697 34108223.17336396 0 0 0 0 0 131027156.8076678 4818399.516639142 4818399.516639142 26184429.16560575 0 0 0 0 0 129802960.6127857 5648785.557471443 5648785.557471443 23207460.87192821 0 0 0 0 0 128681886.0357702 6258862.903832315 6258862.903832315 20120976.07122405 0 0 0 0 0 127647980.6373924 6644170.637449042 6644170.637449042 17026047.95087918 0 0 0 0 0 126687346.0258946 6812543.71706558 6812543.71706558 14004750.47573697 0 0 0 0 0 125780586.4551686 6781565.594114221 6781565.594114221 11120515.9921739 0 0 0 0 0 124910779.6605378 6574772.460406896 6574772.460406896 8421392.327096999 0 0 0 0 0 124064217.0289778 6220723.747409235 6220723.747409235 5938577.791792287 0 0 0 0 0 123229524.5916415 5748425.114266333 5748425.114266333 3690965.615844759 0 0 0 0 0 122398426.2889116 5186276.024630081 5186276.024630081 1682776.675062523 0 0 0 0 0 121566548.201472 4560035.987613021 4560035.987613021 -86541.66040490323 0 0 0 0 0 120733674.9954413 3894925.758093657 3894925.758093657 -1625469.557252336 0 0 0 0 0 120529229.8625615 3709011.954561418 3709011.954561418 -1577735.25039184 0 0 0 0 0 120047041.3532176 2033740.131739127 2033740.131739127 -4740783.855408912 0 0 0 0 0 119103464.2076 1339426.724403852 1339426.724403852 -5683815.344693754 0 0 0 0 0 118410171.747589 918987.3862565401 918987.3862565401 -5637262.053119822 0 0 0 0 0 117895039.567502 -656076.4522353222 -656076.4522353222 -7841627.182014063 0 0 0 0 0 97170901.30847414 -15989968.72775795 -15989968.72775795 -11141825.00483339 0 0 0 0 0 99267809.83292691 -15430229.83213922 -15430229.83213922 -11823220.43749654 0 0 0 0 0 95107790.31026472 -16371686.85843604 -16371686.85843604 -10349076.32938972 0 0 0 0 0 93123435.0868372 -16570301.51187705 -16570301.51187705 -9461304.327091862 0 0 0 0 0 91241013.73104909 -16596575.64897564 -16596575.64897564 -8519700.019469151 0 0 0 0 0 89472499.98270886 -16463415.00536692 -16463415.00536692 -7542522.505665036 0 0 0 0 0 87837167.30297159 -16178845.32784627 -16178845.32784627 -6547106.446030036 0 0 0 0 0 101378576.1100974 -14695591.96013678 -14695591.96013678 -12378239.13536341 0 0 0 0 0 103470938.3064078 -13790213.52219942 -13790213.52219942 -12780280.70652116 0 0 0 0 0 105519552.0045352 -12724774.01433067 -12724774.01433067 -13009159.95588551 0 0 0 0 0 107487460.4556405 -11516129.28458017 -11516129.28458017 -13046939.96703427 0 0 0 0 0 109345701.57282 -10184617.56501386 -10184617.56501386 -12894228.57531413 0 0 0 0 0 111066019.5214964 -8754262.900348948 -8754262.900348948 -12533654.595071 0 0 0 0 0 112620338.7213744 -7255205.548277317 -7255205.548277317 -11967082.80837183 0 0 0 0 0 113990097.2166489 -5719426.571888443 -5719426.571888443 -11200117.12955678 0 0 0 0 0 115162503.4214872 -4173749.124067233 -4173749.124067233 -10241910.68238041 0 0 0 0 0 116123696.3998457 -2650260.53693198 -2650260.53693198 -9110044.35504923 0 0 0 0 0 116868358.512023 -1179597.284297666 -1179597.284297666 -7826377.585345827 0 0 0 0 0 88170475.85135914 -15016876.56572611 -15016876.56572611 -4879771.882857377 0 0 0 0 0 86927201.68507527 -15041792.95823637 -15041792.95823637 -5190497.066975133 0 0 0 0 0 87273886.07498917 -13900941.13751707 -13900941.13751707 -3758305.484071141 0 0 0 0 0 86230361.57988843 -11829841.29768319 -11829841.29768319 -1864463.876884935 0 0 0 0 0 86029249.55393706 -12754419.94735498 -12754419.94735498 -2919530.722898918 0 0 0 0 0 86334827.23395631 -13877608.25226452 -13877608.25226452 -4015798.193583542 0 0 0 0 0 86949483.22537725 -13284031.45918591 -13284031.45918591 -3720118.974003964 0 0 0 0 0 85547407.50438252 -11261042.90210786 -11261042.90210786 -1548533.013039154 0 0 0 0 0 131024067.6672857 5240772.488772437 5240772.488772437 28864849.69407406 0 0 0 0 0 132366218.3100351 4048532.767196341 4048532.767196341 30721201.47665182 0 0 0 0 0 133991939.4772208 2399260.726182445 2399260.726182445 31549954.40323156 0 0 0 0 0 134318220.4393165 1493395.941359167 1493395.941359167 33575841.87618948 0 0 0 0 0 129832937.5891602 6243636.767506199 6243636.767506199 26599313.08729099 0 0 0 0 0 128744728.6420873 7023145.931443099 7023145.931443099 24079775.81557668 0 0 0 0 0 127753016.4608418 7575750.511850552 7575750.511850552 21391541.69713217 0 0 0 0 0 126838707.7931225 7901146.338900981 7901146.338900981 18629766.03775882 0 0 0 0 0 125980414.6809502 8011583.179024015 8011583.179024015 15870232.33282639 0 0 0 0 0 125159086.7870708 7926249.769144416 7926249.769144416 13177321.27297547 0 0 0 0 0 124357703.7398113 7670025.302626703 7670025.302626703 10601813.50409611 0 0 0 0 0 123563428.5926246 7270597.094391309 7270597.094391309 8181094.839127518 0 0 0 0 0 122767831.6847958 6756884.947911986 6756884.947911986 5940574.010583885 0 0 0 0 0 121965676.5878294 6156343.383673833 6156343.383673833 3896102.633167457 0 0 0 0 0 121154198.5034381 5493760.541690439 5493760.541690439 2054113.078396858 0 0 0 0 0 120331893.7235629 4792838.47517485 4792838.47517485 415882.212346651 0 0 0 0 0 119897661.9004875 3210805.260288537 3210805.260288537 -2944381.426423553 0 0 0 0 0 119573010.062781 2946919.787643222 2946919.787643222 -2886210.779218575 0 0 0 0 0 118636896.8308687 2209387.002879104 2209387.002879104 -3984054.5674634 0 0 0 0 0 118164135.1890499 663784.5081400354 663784.5081400354 -6458840.835420416 0 0 0 0 0 117398189.1387934 211762.9457339084 211762.9457339084 -6414648.0731965 0 0 0 0 0 99235497.22815639 -15083468.87638325 -15083468.87638325 -10074137.92988197 0 0 0 0 0 101267895.7361335 -14544672.18400607 -14544672.18400607 -10763333.44656196 0 0 0 0 0 97206962.03520411 -15458092.3981696 -15458092.3981696 -9295240.490532175 0 0 0 0 0 95217842.49002221 -15665710.20089758 -15665710.20089758 -8455711.588234939 0 0 0 0 0 93304127.28774054 -15716339.31155269 -15716339.31155269 -7578708.68525019 0 0 0 0 0 91480639.36778909 -15617802.48808629 -15617802.48808629 -6678033.564066829 0 0 0 0 0 89763416.09873338 -15379151.12934679 -15379151.12934679 -5772227.363112115 0 0 0 0 0 103287838.146962 -13847786.18765846 -13847786.18765846 -11348809.22616484 0 0 0 0 0 105266730.9017941 -12990871.14120959 -12990871.14120959 -11804706.96148197 0 0 0 0 0 107167885.323594 -11991324.93898987 -11991324.93898987 -12119493.39007948 0 0 0 0 0 108965159.3211246 -10863659.98611319 -10863659.98611319 -12272951.36629538 0 0 0 0 0 110636661.9600792 -9623106.573227024 -9623106.573227024 -12249466.19659898 0 0 0 0 0 112157726.8357182 -8290749.572775997 -8290749.572775997 -12043366.41300488 0 0 0 0 0 113500787.7586923 -6898390.984372796 -6898390.984372796 -11650763.84036489 0 0 0 0 0 114653856.5313142 -5472613.806683002 -5472613.806683002 -11071874.710596 0 0 0 0 0 115605827.384517 -4042377.131059334 -4042377.131059334 -10314571.11015799 0 0 0 0 0 116354433.2378407 -2632173.612685043 -2632173.612685043 -9384700.389390007 0 0 0 0 0 116898907.2362112 -1269440.135505005 -1269440.135505005 -8298450.300644252 0 0 0 0 0 88306866.5662265 -15442248.20498396 -15442248.20498396 -6117931.063490788 0 0 0 0 0 88621388.57762612 -14349783.70542246 -14349783.70542246 -4562140.811549608 0 0 0 0 0 87471382.00447927 -14364112.71559309 -14364112.71559309 -4854221.349128069 0 0 0 0 0 86236547.33880271 -11675288.32455668 -11675288.32455668 -2306156.74917148 0 0 0 0 0 87066150.93073595 -12256946.75317683 -12256946.75317683 -2792032.904707135 0 0 0 0 0 87808118.69283275 -13286295.29677905 -13286295.29677905 -3490601.347985045 0 0 0 0 0 88263077.25281325 -12745658.94118359 -12745658.94118359 -3340076.731346546 0 0 0 0 0 85997087.33631101 -10994992.00854651 -10994992.00854651 -1708733.183877271 0 0 0 0 0 128862159.5651283 4223528.867572053 4223528.867572053 27436729.54597285 0 0 0 0 0 130051737.4527871 3094560.923639578 3094560.923639578 29734442.33365773 0 0 0 0 0 131450673.2684785 2118970.981686708 2118970.981686708 31706796.488875 0 0 0 0 0 131353308.8529894 2232452.589787203 2232452.589787203 32926726.78430201 0 0 0 0 0 132272277.8825846 130721.0143427032 130721.0143427032 32319380.64108817 0 0 0 0 0 127813376.6589705 5199847.723211602 5199847.723211602 24822578.90243974 0 0 0 0 0 126869498.0231596 5969421.681301097 5969421.681301097 22030376.22976888 0 0 0 0 0 126005015.9771455 6524940.208944844 6524940.208944844 19157037.08335344 0 0 0 0 0 125208466.4080477 6866558.438401496 6866558.438401496 16287609.27472288 0 0 0 0 0 124461774.7924343 7006273.443332671 7006273.443332671 13492117.71937241 0 0 0 0 0 123748957.7392868 6962306.986819407 6962306.986819407 10824347.07084602 0 0 0 0 0 123054678.1129252 6757593.802317674 6757593.802317674 8324544.515816662 0 0 0 0 0 122367284.7321594 6417748.213010981 6417748.213010981 6018979.589217528 0 0 0 0 0 121679970.4020108 5970178.997083516 5970178.997083516 3922100.563066831 0 0 0 0 0 120985797.817282 5439461.59004008 5439461.59004008 2039567.600095017 0 0 0 0 0 120282653.1093701 4849561.633199448 4849561.633199448 372327.9027941872 0 0 0 0 0 119568776.7707616 4222424.209375553 4222424.209375553 -1086820.559115929 0 0 0 0 0 119502499.5174165 4074426.796564456 4074426.796564456 -1024013.719722113 0 0 0 0 0 119070548.4022234 2533117.377534951 2533117.377534951 -4045993.1034944 0 0 0 0 0 118238647.7867318 1868293.178840418 1868293.178840418 -4967348.569166381 0 0 0 0 0 117717658.9908322 1498297.435977916 1498297.435977916 -4904331.387884331 0 0 0 0 0 117244728.4981672 21267.39328307047 21267.39328307047 -7075246.155806739 0 0 0 0 0 96921909.76331957 -15408752.57432712 -15408752.57432712 -10490252.86908494 0 0 0 0 0 98878071.60388051 -14926529.92210271 -14926529.92210271 -11171494.56711309 0 0 0 0 0 100844952.3723345 -14284741.18086749 -14284741.18086749 -11738113.61034316 0 0 0 0 0 95019514.04627852 -15724916.97391242 -15724916.97391242 -9716062.355507033 0 0 0 0 0 93192615.15942697 -15875398.79708016 -15875398.79708016 -8870372.566712078 0 0 0 0 0 91453617.23845784 -15873108.92466306 -15873108.92466306 -7976357.527044163 0 0 0 0 0 89821065.3692212 -15725160.62838188 -15725160.62838188 -7052737.734330395 0 0 0 0 0 102803294.2004826 -13481909.2041629 -13481909.2041629 -12171829.1706517 0 0 0 0 0 104731757.4166607 -12528912.8484181 -12528912.8484181 -12453778.29600126 0 0 0 0 0 106593210.1055735 -11439385.75798072 -11439385.75798072 -12567880.73262373 0 0 0 0 0 108360500.2534744 -10234715.66875284 -10234715.66875284 -12511343.12363152 0 0 0 0 0 110019303.5980911 -8921531.202175649 -8921531.202175649 -12259722.3483253 0 0 0 0 0 111533861.8194292 -7534863.15521911 -7534863.15521911 -11819090.32306612 0 0 0 0 0 112882395.5042897 -6102468.221114581 -6102468.221114581 -11193383.53025477 0 0 0 0 0 114054962.3263705 -4652063.870218922 -4652063.870218922 -10387955.27007172 0 0 0 0 0 115037675.7477562 -3208552.181284239 -3208552.181284239 -9415543.332206614 0 0 0 0 0 115824292.3887844 -1799178.66577778 -1799178.66577778 -8291989.678059665 0 0 0 0 0 116413152.7742117 -449981.3643478177 -449981.3643478177 -7037546.183840212 0 0 0 0 0 90098561.89764634 -14698499.04854505 -14698499.04854505 -5397649.064089774 0 0 0 0 0 88747009.79654968 -14746911.55417937 -14746911.55417937 -5723794.571579702 0 0 0 0 0 89042515.47247434 -13725104.48491107 -13725104.48491107 -4285198.045738845 0 0 0 0 0 86915497.40314309 -11537569.50278908 -11537569.50278908 -2071738.524482415 0 0 0 0 0 87353574.03819115 -12122438.0706211 -12122438.0706211 -2693890.366050955 0 0 0 0 0 87803857.16865395 -12757697.22559871 -12757697.22559871 -3470400.204429532 0 0 0 0 0 87925819.87954369 -13705850.53296361 -13705850.53296361 -4586810.337786413 0 0 0 0 0 88239301.07228808 -13087971.33339032 -13087971.33339032 -4263516.61900306 0 0 0 0 0 127754047.9311022 5445457.971370738 5445457.971370738 27364497.86633962 0 0 0 0 0 128788632.8639393 4323852.172111247 4323852.172111247 29202264.1887546 0 0 0 0 0 129805943.9354341 3182339.834232672 3182339.834232672 30882930.64069528 0 0 0 0 0 129892656.8579058 1301122.135551383 1301122.135551383 31226557.77146307 0 0 0 0 0 130061584.4194343 1231374.502612654 1231374.502612654 32170171.60858529 0 0 0 0 0 126835658.5089702 6380792.989542193 6380792.989542193 25227350.81230547 0 0 0 0 0 126009521.2181704 7110722.613006311 7110722.613006311 22853201.06092244 0 0 0 0 0 125257467.9717448 7621544.15078628 7621544.15078628 20349130.40407683 0 0 0 0 0 124559507.1510098 7919562.466496716 7919562.466496716 17784873.15820062 0 0 0 0 0 123896642.8640839 8018038.098130671 8018038.098130671 15228378.51312963 0 0 0 0 0 123250568.7381208 7935934.545233786 7935934.545233786 12736643.00494852 0 0 0 0 0 122609206.7235928 7696835.463448508 7696835.463448508 10352476.20843438 0 0 0 0 0 121963021.1143825 7326001.166464937 7326001.166464937 8106722.084500445 0 0 0 0 0 121304454.6195552 6849109.423125583 6849109.423125583 6020867.336671206 0 0 0 0 0 120630968.8472734 6291129.307033202 6291129.307033202 4110059.271994368 0 0 0 0 0 119939506.0432545 5674779.069462258 5674779.069462258 2381603.830642015 0 0 0 0 0 119231735.0381676 5021127.652353553 5021127.652353553 836021.1767757523 0 0 0 0 0 118846015.1122248 3577122.843502851 3577122.843502851 -2347508.168102993 0 0 0 0 0 118662438.0694816 3354068.494121347 3354068.494121347 -2275196.132281995 0 0 0 0 0 117833012.6183329 2654558.684695037 2654558.684695037 -3334531.134604284 0 0 0 0 0 117402503.7273649 1217875.767202635 1217875.767202635 -5737131.315633968 0 0 0 0 0 116807843.1959269 815965.0871862601 815965.0871862601 -5675310.691987729 0 0 0 0 0 98862515.23650751 -14555814.77581392 -14555814.77581392 -9479513.966234135 0 0 0 0 0 100766008.3041262 -14089730.22851299 -14089730.22851299 -10159782.03181542 0 0 0 0 0 102658803.0765111 -13474726.8849493 -13474726.8849493 -10746148.91676968 0 0 0 0 0 96980718.46315758 -14869024.29520564 -14869024.29520564 -8731717.548355034 0 0 0 0 0 95143632.85496964 -15032657.70319684 -15032657.70319684 -7934001.500551955 0 0 0 0 0 93372161.30709864 -15054063.06208424 -15054063.06208424 -7100599.253092196 0 0 0 0 0 91684672.38163298 -14940335.6711275 -14940335.6711275 -6251186.927310967 0 0 0 0 0 104518516.3625704 -12714805.56807155 -12714805.56807155 -11220951.84672743 0 0 0 0 0 106318766.3069647 -11817812.1004916 -11817812.1004916 -11571679.72155648 0 0 0 0 0 108030948.4471626 -10796932.94216736 -10796932.94216736 -11778924.3139835 0 0 0 0 0 109636507.2742726 -9669261.425449286 -9669261.425449286 -11832364.44667083 0 0 0 0 0 111106231.2600941 -8449706.864546591 -8449706.864546591 -11721933.93220425 0 0 0 0 0 112428039.4931196 -7160145.696675783 -7160145.696675783 -11437947.99565816 0 0 0 0 0 113582513.9214945 -5825770.10983012 -5825770.10983012 -10977693.28298868 0 0 0 0 0 114552131.9394642 -4480320.229458597 -4480320.229458597 -10352787.00443111 0 0 0 0 0 115336469.5289759 -3141350.547586972 -3141350.547586972 -9565288.914893273 0 0 0 0 0 115933625.3672096 -1833916.456200138 -1833916.456200138 -8626790.863222225 0 0 0 0 0 116346178.8977865 -580933.4109702932 -580933.4109702932 -7551762.747742268 0 0 0 0 0 90155601.46316588 -15028096.25329798 -15028096.25329798 -6602324.187261721 0 0 0 0 0 90421728.0123689 -14051876.36761641 -14051876.36761641 -5051611.741096965 0 0 0 0 0 89160616.57621691 -14094012.78620165 -14094012.78620165 -5357513.197077172 0 0 0 0 0 87336974.98555215 -11184811.34394063 -11184811.34394063 -2253516.957949649 0 0 0 0 0 87792826.19837652 -11754704.99569478 -11754704.99569478 -2843464.07451614 0 0 0 0 0 88251815.83100468 -12420923.46787927 -12420923.46787927 -3478768.017768628 0 0 0 0 0 89507850.07992564 -13102945.81745621 -13102945.81745621 -4019953.696943189 0 0 0 0 0 89530350.74242733 -12722633.70578975 -12722633.70578975 -3719591.518638121 0 0 0 0 0 125878884.2934969 4531502.191036917 4531502.191036917 25976277.94153665 0 0 0 0 0 126802254.9741979 3469714.886117339 3469714.886117339 28182476.38290006 0 0 0 0 0 128001308.5152126 2408978.254830307 2408978.254830307 30030677.43628384 0 0 0 0 0 127971225.1595602 2233251.430734077 2233251.430734077 30950440.18160599 0 0 0 0 0 128430368.2527422 149025.606175572 149025.606175572 31017934.08623298 0 0 0 0 0 125078308.6938824 5437127.94535558 5437127.94535558 23514015.11532952 0 0 0 0 0 124344621.7579318 6148336.733188651 6148336.733188651 20906743.1998209 0 0 0 0 0 123681589.1818735 6654096.092122368 6654096.092122368 18239439.02973808 0 0 0 0 0 123068602.2362648 6960808.260688078 6960808.260688078 15583357.16387624 0 0 0 0 0 122490221.8133379 7081185.089121829 7081185.089121829 12998625.06661703 0 0 0 0 0 121929408.8778467 7032561.501718895 7032561.501718895 10531939.7248685 0 0 0 0 0 121374921.2068623 6836886.37362818 6836886.37362818 8215939.937865577 0 0 0 0 0 120817901.7650347 6517319.418647473 6517319.418647473 6072722.897635384 0 0 0 0 0 120251963.2122443 6098011.015831551 6098011.015831551 4115534.501293913 0 0 0 0 0 119673317.3867881 5602380.227352876 5602380.227352876 2351250.601948034 0 0 0 0 0 119078191.8491948 5051050.047698295 5051050.047698295 779742.1823046494 0 0 0 0 0 118467197.8252265 4463454.149770944 4463454.149770944 -604397.483812323 0 0 0 0 0 118510534.0920731 4349134.114890161 4349134.114890161 -531173.1801259769 0 0 0 0 0 118122990.9519116 2933895.782434206 2933895.782434206 -3409736.277545669 0 0 0 0 0 117389114.4675951 2299999.565660155 2299999.565660155 -4310353.079805704 0 0 0 0 0 117015137.3160169 1977487.875105733 1977487.875105733 -4233196.26426286 0 0 0 0 0 116580657.141821 596191.6385443247 596191.6385443247 -6359167.197413268 0 0 0 0 0 98539451.69538571 -14431058.62839502 -14431058.62839502 -10554984.6105202 0 0 0 0 0 96730162.50459875 -14841014.62895855 -14841014.62895855 -9882134.203276763 0 0 0 0 0 100377569.5645693 -13866795.25963902 -13866795.25963902 -11125231.86360378 0 0 0 0 0 102212263.2054052 -13158388.21568969 -13158388.21568969 -11582559.12355935 0 0 0 0 0 94969528.59888168 -15100104.59313714 -15100104.59313714 -9131553.096037861 0 0 0 0 0 93274477.13403639 -15213390.94147385 -15213390.94147385 -8323643.038949168 0 0 0 0 0 91664271.62017845 -15186614.80809424 -15186614.80809424 -7474171.520056528 0 0 0 0 0 104021936.3648232 -12307294.76706515 -12307294.76706515 -11904168.88543791 0 0 0 0 0 105781999.6783873 -11326034.62159517 -11326034.62159517 -12077764.21654774 0 0 0 0 0 107464718.4984562 -10232097.17961948 -10232097.17961948 -12094234.45913622 0 0 0 0 0 109052984.3829689 -9035731.328684827 -9035731.328684827 -11938323.08476068 0 0 0 0 0 110521747.8864966 -7757395.48121969 -7757395.48121969 -11607786.3579634 0 0 0 0 0 111848091.2114928 -6424800.460483611 -6424800.460483611 -11106266.38207928 0 0 0 0 0 113010985.3400369 -5067134.584720425 -5067134.584720425 -10437038.87228663 0 0 0 0 0 114004777.4710489 -3704953.490762955 -3704953.490762955 -9608270.236289691 0 0 0 0 0 114822365.9655118 -2361407.903496991 -2361407.903496991 -8631263.079866026 0 0 0 0 0 115459179.9182822 -1061249.648442114 -1061249.648442114 -7523522.90996688 0 0 0 0 0 115915793.0234244 173431.7922623769 173431.7922623769 -6304295.262041264 0 0 0 0 0 91886505.32217297 -14299697.88254454 -14299697.88254454 -5860225.163464149 0 0 0 0 0 90482881.11769515 -14370729.61447514 -14370729.61447514 -6187710.312569184 0 0 0 0 0 90730149.21451743 -13438574.35867199 -13438574.35867199 -4708283.647636136 0 0 0 0 0 88207832.46025872 -11682745.77019072 -11682745.77019072 -2714781.822997162 0 0 0 0 0 88810574.13404498 -12290285.74774826 -12290285.74774826 -3269594.934401223 0 0 0 0 0 89554245.27334903 -13484477.33876097 -13484477.33876097 -4995750.723476187 0 0 0 0 0 89485811.9388561 -12538742.87879247 -12538742.87879247 -4167567.58820894 0 0 0 0 0 124967949.2942109 5547117.916495277 5547117.916495277 25970813.21559987 0 0 0 0 0 125736790.8601284 4506614.411538817 4506614.411538817 27734482.60246881 0 0 0 0 0 126614348.03514 3357576.467627954 3357576.467627954 29485132.4050306 0 0 0 0 0 126516911.8480219 1346663.920122558 1346663.920122558 29903695.45280707 0 0 0 0 0 126619393.5546722 1066876.069656639 1066876.069656639 30595649.34590399 0 0 0 0 0 124267966.0699091 6426559.60301401 6426559.60301401 23900502.36253044 0 0 0 0 0 123643943.4431018 7101483.071600667 7101483.071600667 21684969.70243131 0 0 0 0 0 123076526.4047037 7573589.004503487 7573589.004503487 19352051.08424668 0 0 0 0 0 122546140.0663716 7848818.218787981 7848818.218787981 16973288.72865621 0 0 0 0 0 122034448.2157698 7939644.367956761 7939644.367956761 14607897.79188402 0 0 0 0 0 121527978.709439 7864992.750304305 7864992.750304305 12302365.82591031 0 0 0 0 0 121016428.3124824 7646304.897724831 7646304.897724831 10094204.7509501 0 0 0 0 0 120491495.8315969 7305630.938419089 7305630.938419089 8009694.381056313 0 0 0 0 0 119947801.8419823 6866267.07454437 6866267.07454437 6067336.003449636 0 0 0 0 0 119381867.2923091 6351574.458615423 6351574.458615423 4281531.08219191 0 0 0 0 0 118793751.8754708 5781072.375631732 5781072.375631732 2660804.68077526 0 0 0 0 0 118185380.9038033 5174370.441102475 5174370.441102475 1202044.475836051 0 0 0 0 0 117842683.7472362 3857799.063674459 3857799.063674459 -1807646.883759401 0 0 0 0 0 117773496.7368976 3671963.74419415 3671963.74419415 -1725329.995363223 0 0 0 0 0 117040227.5065441 3011078.018678964 3011078.018678964 -2747601.348466422 0 0 0 0 0 116648567.4167209 1679097.435849755 1679097.435849755 -5070254.648282636 0 0 0 0 0 116197281.9673592 1322870.559616171 1322870.559616171 -4995540.336328642 0 0 0 0 0 100325141.9433414 -13637610.83416335 -13637610.83416335 -9590663.288617468 0 0 0 0 0 98551376.79729216 -14038922.51669008 -14038922.51669008 -8931434.626227209 0 0 0 0 0 102096813.7996448 -13097507.1161709 -13097507.1161709 -10173788.66909232 0 0 0 0 0 103848665.5410856 -12422679.63856432 -12422679.63856432 -10661038.3046988 0 0 0 0 0 96800267.67382878 -14300648.81259509 -14300648.81259509 -8212502.166423232 0 0 0 0 0 95094679.59358554 -14427220.25443956 -14427220.25443956 -7449157.144591415 0 0 0 0 0 93450394.60708345 -14424151.51333647 -14424151.51333647 -6659153.854569378 0 0 0 0 0 105549329.9294342 -11618941.03445954 -11618941.03445954 -11036188.0148932 0 0 0 0 0 107179635.4596451 -10696676.65111593 -10696676.65111593 -11285978.76236238 0 0 0 0 0 108717498.5188026 -9670673.571769353 -9670673.571769353 -11398187.70510109 0 0 0 0 0 110139401.7585853 -8555142.090774059 -8555142.090774059 -11362980.2610541 0 0 0 0 0 111429563.870697 -7365912.164026131 -7365912.164026131 -11170812.38898404 0 0 0 0 0 112571135.5933071 -6126327.275836084 -6126327.275836084 -10819302.23661116 0 0 0 0 0 113551861.4152171 -4861743.353552103 -4861743.353552103 -10311199.56025525 0 0 0 0 0 114362397.6227059 -3595816.227187977 -3595816.227187977 -9651030.821223136 0 0 0 0 0 115001765.1592087 -2347522.327639895 -2347522.327639895 -8845855.44260172 0 0 0 0 0 115470103.2732615 -1138917.580249457 -1138917.580249457 -7907451.76703903 0 0 0 0 0 115772055.2059624 10360.66596582378 10360.66596582378 -6850402.08102486 0 0 0 0 0 91871789.37286124 -14536435.38124915 -14536435.38124915 -7009984.616400955 0 0 0 0 0 92083934.51000635 -13697353.62232962 -13697353.62232962 -5503843.34270982 0 0 0 0 0 90810952.85405318 -13744113.59401949 -13744113.59401949 -5810398.116344381 0 0 0 0 0 88708990.49733184 -11265049.36297453 -11265049.36297453 -2764885.454032706 0 0 0 0 0 89292357.63090004 -11796920.25669566 -11796920.25669566 -3371665.915512172 0 0 0 0 0 90931299.17296074 -12872881.31328363 -12872881.31328363 -4533050.228786872 0 0 0 0 0 90613388.36326031 -12265554.74013431 -12265554.74013431 -3742106.910500815 0 0 0 0 0 90549038.25582169 -12791237.97382126 -12791237.97382126 -4653634.45100644 0 0 0 0 0 124012029.8879555 3714700.966679683 3714700.966679683 26677631.10687647 0 0 0 0 0 123360067.442618 4718832.190514131 4718832.190514131 24584195.7424231 0 0 0 0 0 125093486.4110553 2565737.297009733 2565737.297009733 28464287.35130575 0 0 0 0 0 125006799.015462 2235250.54471789 2235250.54471789 29613328.68408516 0 0 0 0 0 125240582.8871108 167649.8343538178 167649.8343538178 29566750.70375235 0 0 0 0 0 122715709.0460889 5568342.583145935 5568342.583145935 22270510.59620036 0 0 0 0 0 122158449.7632596 6220602.67526421 6220602.67526421 19843239.95691775 0 0 0 0 0 121652902.3525461 6683442.738216989 6683442.738216989 17369650.40168315 0 0 0 0 0 121183300.3231116 6962104.602968141 6962104.602968141 14912463.83784307 0 0 0 0 0 120736092.8230706 7069431.951517047 7069431.951517047 12523569.21044267 0 0 0 0 0 120295979.6986774 7021528.207704032 7021528.207704032 10242079.4931471 0 0 0 0 0 119854181.0478207 6838934.803730365 6838934.803730365 8095241.875888073 0 0 0 0 0 119402998.0051182 6541806.750111995 6541806.750111995 6100417.477275532 0 0 0 0 0 118938782.8776028 6152992.383048712 6152992.383048712 4272911.931669617 0 0 0 0 0 118456084.1072342 5694029.286110454 5694029.286110454 2619638.672120597 0 0 0 0 0 117952323.6102093 5180717.49656327 5180717.49656327 1137753.611823579 0 0 0 0 0 117429172.7460215 4632789.817552577 4632789.817552577 -175438.8776871615 0 0 0 0 0 117559907.8238806 4548698.07486365 4548698.07486365 -95962.91348952131 0 0 0 0 0 117212348.9460809 3250986.289684777 3250986.289684777 -2831968.843497375 0 0 0 0 0 116566004.5225757 2650069.781454986 2650069.781454986 -3708580.352956174 0 0 0 0 0 116310800.3935655 2369121.28361458 2369121.28361458 -3623540.876081212 0 0 0 0 0 115914948.4406706 1081981.287077486 1081981.287077486 -5692890.371036882 0 0 0 0 0 98258736.77376673 -13938678.42239615 -13938678.42239615 -9967522.440838985 0 0 0 0 0 99970289.38056132 -13448518.78327564 -13448518.78327564 -10538723.07667153 0 0 0 0 0 96575652.95142196 -14289750.77715691 -14289750.77715691 -9311635.686318731 0 0 0 0 0 101686967.283308 -12822082.09527622 -12822082.09527622 -11008933.05935052 0 0 0 0 0 103389719.8969692 -12062288.67701145 -12062288.67701145 -11359651.55642822 0 0 0 0 0 94938900.0102258 -14502835.67521627 -14502835.67521627 -8588953.535848973 0 0 0 0 0 93365252.92130853 -14582784.82157166 -14582784.82157166 -7816047.705588717 0 0 0 0 0 105050633.1929822 -11180261.03481724 -11180261.03481724 -11580634.29603097 0 0 0 0 0 106650433.972269 -10187347.49253058 -10187347.49253058 -11658703.87900135 0 0 0 0 0 108167068.0617077 -9097468.45970506 -9097468.45970506 -11584822.82860151 0 0 0 0 0 109580655.3280772 -7926363.94167709 -7926363.94167709 -11352741.0371535 0 0 0 0 0 110873435.5874135 -6694030.83156626 -6694030.83156626 -10959088.88980743 0 0 0 0 0 112027530.3896797 -5422327.317540194 -5422327.317540194 -10405394.68691348 0 0 0 0 0 113026187.6605766 -4140921.781621833 -4140921.781621833 -9704826.074064236 0 0 0 0 0 113864942.8413723 -2866226.405718421 -2866226.405718421 -8862067.814009389 0 0 0 0 0 114538847.1636709 -1620299.064329402 -1620299.064329402 -7890003.992630638 0 0 0 0 0 115046759.6292494 -424026.7149368425 -424026.7149368425 -6805098.273655087 0 0 0 0 0 115391204.3972623 703535.7825784767 703535.7825784767 -5625722.214674659 0 0 0 0 0 93536941.23542544 -13825886.29023858 -13825886.29023858 -6250233.627368763 0 0 0 0 0 92071581.22962475 -13920700.9738932 -13920700.9738932 -6580978.516696515 0 0 0 0 0 92284610.51358363 -13129152.44543383 -13129152.44543383 -5222127.278574074 0 0 0 0 0 89494839.63043396 -11729315.24800651 -11729315.24800651 -3312819.395222845 0 0 0 0 0 90075557.55261727 -12250105.6689852 -12250105.6689852 -3878327.097065291 0 0 0 0 0 91165524.51449242 -13195072.88380862 -13195072.88380862 -5471359.93444048 0 0 0 0 0 90494026.80646548 -12368698.1446239 -12368698.1446239 -4651419.509264559 0 0 0 0 0 91442830.10374688 -12372767.50314105 -12372767.50314105 -4443397.586450147 0 0 0 0 0 123182585.6584629 4577702.120727162 4577702.120727162 26409170.20136369 0 0 0 0 0 122578977.6706775 5582699.577099325 5582699.577099325 24569085.90402497 0 0 0 0 0 123857956.1408565 3470055.362960656 3470055.362960656 27957662.39215682 0 0 0 0 0 123810890.6235185 1417494.516506528 1417494.516506528 28503906.50716256 0 0 0 0 0 123822459.482762 951855.4517799128 951855.4517799128 29096553.23126112 0 0 0 0 0 122050313.1850535 6394766.652741198 6394766.652741198 22651375.1417307 0 0 0 0 0 121585103.8419953 7020618.851840372 7020618.851840372 20572795.7275671 0 0 0 0 0 121161043.5608612 7458877.975334118 7458877.975334118 18405123.34272767 0 0 0 0 0 120760649.5252527 7715494.847136047 7715494.847136047 16202170.09434269 0 0 0 0 0 120367027.3110292 7802206.973546742 7802206.973546742 14013045.54394243 0 0 0 0 0 119972167.815622 7737051.103647019 7737051.103647019 11879019.16597686 0 0 0 0 0 119565722.1724311 7539794.945664156 7539794.945664156 9830267.033738047 0 0 0 0 0 119140510.9761181 7228872.163204494 7228872.163204494 7895495.545043704 0 0 0 0 0 118691516.6439869 6826523.618191868 6826523.618191868 6086297.383343196 0 0 0 0 0 118217159.0826216 6354349.748023893 6354349.748023893 4416480.603558019 0 0 0 0 0 117716846.934547 5828057.749869737 5828057.749869737 2896792.381240962 0 0 0 0 0 117196260.111178 5267712.313368943 5267712.313368943 1520248.377450406 0 0 0 0 0 116898002.7044389 4071154.284741999 4071154.284741999 -1318700.615880762 0 0 0 0 0 116911647.2781806 3915945.940151168 3915945.940151168 -1233949.585017749 0 0 0 0 0 116263675.2727773 3294410.111492664 3294410.111492664 -2214014.268641425 0 0 0 0 0 115911246.9821294 2061293.335357142 2061293.335357142 -4453865.260284026 0 0 0 0 0 115577897.0079837 1745636.762963287 1745636.762963287 -4372179.565869479 0 0 0 0 0 99937273.18433475 -13191894.30128994 -13191894.30128994 -9057820.797993669 0 0 0 0 0 101597601.6493085 -12718654.91944583 -12718654.91944583 -9630942.756447315 0 0 0 0 0 98281769.11988516 -13537290.45400058 -13537290.45400058 -8418726.99645826 0 0 0 0 0 103242996.825811 -12120122.16642334 -12120122.16642334 -10122142.29457236 0 0 0 0 0 104850873.63348 -11400982.79296992 -11400982.79296992 -10516173.04953237 0 0 0 0 0 96651534.33277997 -13754980.38178344 -13754980.38178344 -7727659.737445132 0 0 0 0 0 95065005.20223875 -13848463.23511138 -13848463.23511138 -6999257.70205398 0 0 0 0 0 106402680.6190588 -10567960.38844837 -10567960.38844837 -10797370.02211375 0 0 0 0 0 107875286.0125165 -9633745.21450733 -9633745.21450733 -10955834.8409942 0 0 0 0 0 109247198.3115854 -8612597.53234286 -8612597.53234286 -10981753.15530185 0 0 0 0 0 110501495.5616685 -7520024.106458412 -7520024.106458412 -10867392.41257026 0 0 0 0 0 111623854.896856 -6373148.155044959 -6373148.155044959 -10610000.76585922 0 0 0 0 0 112603660.6105725 -5190019.466776941 -5190019.466776941 -10205897.71649625 0 0 0 0 0 113432496.0058125 -3996774.263171808 -3996774.263171808 -9658535.955120431 0 0 0 0 0 114104325.1169991 -2810785.485578511 -2810785.485578511 -8973730.840108266 0 0 0 0 0 114618750.8025443 -1651115.595358088 -1651115.595358088 -8159877.138041633 0 0 0 0 0 114978251.9994649 -536247.8989061886 -536247.8989061886 -7228330.899525707 0 0 0 0 0 115187447.713947 515842.6176034135 515842.6176034135 -6194526.082062563 0 0 0 0 0 93461548.37067516 -13982353.20152475 -13982353.20152475 -7344882.423294983 0 0 0 0 0 93628955.2651951 -13257588.97674418 -13257588.97674418 -5878024.217704285 0 0 0 0 0 92288310.49249883 -13344518.04981579 -13344518.04981579 -6180475.303836619 0 0 0 0 0 90142152.25609988 -11255999.42893743 -11255999.42893743 -3224683.950964488 0 0 0 0 0 90596125.03426629 -11796430.13604409 -11796430.13604409 -3920422.801437807 0 0 0 0 0 92494749.87924553 -12609925.80389749 -12609925.80389749 -4886196.34942469 0 0 0 0 0 91757816.7440469 -12029349.98380389 -12029349.98380389 -4163465.990670666 0 0 0 0 0 91606330.0700985 -12565148.15218552 -12565148.15218552 -5132038.016788982 0 0 0 0 0 122423272.5372369 2692075.045188326 2692075.045188326 26970668.04778114 0 0 0 0 0 121771730.2947932 3852782.239456516 3852782.239456516 25280746.05502994 0 0 0 0 0 121155572.2344034 4832494.46501103 4832494.46501103 23261195.81807081 0 0 0 0 0 122464601.977084 2247031.5119069 2247031.5119069 27897187.87126603 0 0 0 0 0 122577756.7107553 226120.0360828166 226120.0360828166 28460652.70278709 0 0 0 0 0 120677652.5170327 5611876.550152254 5611876.550152254 21096562.13984461 0 0 0 0 0 120255816.8997219 6213935.026835784 6213935.026835784 18837439.26538452 0 0 0 0 0 119872850.8867697 6639781.441955966 6639781.441955966 16544805.72807323 0 0 0 0 0 119514910.9258796 6896023.277161845 6896023.277161845 14273650.80991488 0 0 0 0 0 119168887.8524216 6994444.922298722 6994444.922298722 12065944.75347767 0 0 0 0 0 118825487.5886242 6950765.511021391 6950765.511021391 9953791.292648332 0 0 0 0 0 118476161.7399403 6784309.992541288 6784309.992541288 7962272.224904138 0 0 0 0 0 118110416.831235 6509234.496492598 6509234.496492598 6104417.47399882 0 0 0 0 0 117730129.8785148 6152132.476004752 6152132.476004752 4398316.460124665 0 0 0 0 0 117329994.461875 5729668.730242691 5729668.730242691 2848529.036235167 0 0 0 0 0 116902030.6087595 5253097.206241195 5253097.206241195 1451308.089729885 0 0 0 0 0 116457731.0586197 4745351.426367231 4745351.426367231 209762.7274792276 0 0 0 0 0 116647951.7870658 4686634.971637831 4686634.971637831 290984.4583886638 0 0 0 0 0 116344970.3236742 3502542.597553549 3502542.597553549 -2300432.113900663 0 0 0 0 0 115772656.8203351 2933623.234927914 2933623.234927914 -3153126.316021056 0 0 0 0 0 115614744.2292218 2688231.668923746 2688231.668923746 -3064878.956689832 0 0 0 0 0 115254514.6863976 1490143.593954661 1490143.593954661 -5075030.927080557 0 0 0 0 0 98016761.66020292 -13459155.19922906 -13459155.19922906 -9414461.287934903 0 0 0 0 0 99613779.55880268 -13031968.4415907 -13031968.4415907 -9978779.443641583 0 0 0 0 0 101221567.680922 -12478809.29144891 -12478809.29144891 -10455549.95548692 0 0 0 0 0 96448822.1048032 -13758514.39114553 -13758514.39114553 -8777072.335186452 0 0 0 0 0 102820095.7541707 -11802264.33880828 -11802264.33880828 -10828818.73059699 0 0 0 0 0 104388703.8751016 -11008648.73516549 -11008648.73516549 -11085773.88086493 0 0 0 0 0 94926478.07574144 -13931259.55031844 -13931259.55031844 -8082139.859187696 0 0 0 0 0 105909323.8694313 -10108634.7909054 -10108634.7909054 -11215481.12894784 0 0 0 0 0 107356996.6790398 -9114753.412034482 -9114753.412034482 -11208145.57609394 0 0 0 0 0 108713944.6005814 -8042795.478242518 -8042795.478242518 -11057840.92352467 0 0 0 0 0 109967113.6248203 -6905957.357278358 -6905957.357278358 -10758228.14613094 0 0 0 0 0 111102737.9941801 -5723090.224651394 -5723090.224651394 -10310362.85290214 0 0 0 0 0 112100220.4975419 -4520189.969478878 -4520189.969478878 -9722646.177069871 0 0 0 0 0 112952623.5727032 -3315315.950116067 -3315315.950116067 -9000449.08725678 0 0 0 0 0 113654714.6922914 -2126970.362619076 -2126970.362619076 -8152784.999325126 0 0 0 0 0 114204107.9343194 -974711.3253282005 -974711.3253282005 -7193075.338001708 0 0 0 0 0 114602142.406558 123749.5665855966 123749.5665855966 -6135537.051229102 0 0 0 0 0 114852318.4851057 1151977.255159345 1151977.255159345 -4997736.831200666 0 0 0 0 0 95053273.88883072 -13295267.64239336 -13295267.64239336 -6581983.489244179 0 0 0 0 0 93566059.97072411 -13413172.77180714 -13413172.77180714 -6905920.241923393 0 0 0 0 0 93723485.24965714 -12732725.48353539 -12732725.48353539 -5529238.56463151 0 0 0 0 0 90827128.58514519 -11704134.65979505 -11704134.65979505 -3823250.266728179 0 0 0 0 0 92547216.19978674 -12798628.68456462 -12798628.68456462 -5800351.467712471 0 0 0 0 0 91582752.90069954 -12019651.18950267 -12019651.18950267 -4746012.482500955 0 0 0 0 0 92824125.3187971 -12006349.08778328 -12006349.08778328 -4598219.325556046 0 0 0 0 0 121483728.1063204 3492267.628021664 3492267.628021664 26651521.80272343 0 0 0 0 0 120990526.9962977 4611692.059158341 4611692.059158341 24815272.30581385 0 0 0 0 0 120516359.1892556 5543641.753286831 5543641.753286831 23264600.6288777 0 0 0 0 0 121335914.9816158 1481691.949778713 1481691.949778713 26823150.4227777 0 0 0 0 0 121365892.3839973 973916.2775986444 973916.2775986444 27717157.67140631 0 0 0 0 0 120127006.2400668 6305842.644750688 6305842.644750688 21457127.57144133 0 0 0 0 0 119784034.4786132 6890533.933678043 6890533.933678043 19522624.06587324 0 0 0 0 0 119468659.9806011 7299131.981457264 7299131.981457264 17510239.72949218 0 0 0 0 0 119168742.7844442 7539161.624013317 7539161.624013317 15468984.63749281 0 0 0 0 0 118871089.042292 7623684.858312814 7623684.858312814 13440337.92243271 0 0 0 0 0 118565485.2831468 7568558.215306166 7568558.215306166 11463019.57086082 0 0 0 0 0 118245692.7982627 7392824.475064212 7392824.475064212 9563120.569337921 0 0 0 0 0 117900303.4863252 7110770.100451946 7110770.100451946 7776452.262572988 0 0 0 0 0 117530311.5692087 6745234.386585301 6745234.386585301 6087351.16944043 0 0 0 0 0 117132861.88887 6312553.617902984 6312553.617902984 4522814.346361857 0 0 0 0 0 116708306.3413611 5829797.685947327 5829797.685947327 3095133.025777653 0 0 0 0 0 116260954.1662542 5312649.10033425 5312649.10033425 1797942.586741402 0 0 0 0 0 115999588.0789208 4224759.386975308 4224759.386975308 -875757.1816266564 0 0 0 0 0 116084559.0083044 4101088.000572605 4101088.000572605 -788033.1869575931 0 0 0 0 0 115514317.9808194 3519205.188422238 3519205.188422238 -1729120.151903237 0 0 0 0 0 115189529.8791781 2373593.672882061 2373593.672882061 -3887650.269700113 0 0 0 0 0 114962005.1465625 2096676.238832668 2096676.238832668 -3797516.379336717 0 0 0 0 0 99594931.68188593 -12756191.73081055 -12756191.73081055 -8556482.983768821 0 0 0 0 0 101150993.5326996 -12341654.74819479 -12341654.74819479 -9117122.21869286 0 0 0 0 0 102699226.8255949 -11810932.2381644 -11810932.2381644 -9606846.371722586 0 0 0 0 0 98048232.65546064 -13052788.74726397 -13052788.74726397 -7938623.884414403 0 0 0 0 0 104218076.4196855 -11166732.06844204 -11166732.06844204 -10011374.00049845 0 0 0 0 0 105689211.0064617 -10416941.19522774 -10416941.19522774 -10317716.25462467 0 0 0 0 0 96529503.9879663 -13231321.42406861 -13231321.42406861 -7276510.412122409 0 0 0 0 0 107093407.4867467 -9569793.593156718 -9569793.593156718 -10515762.95927397 0 0 0 0 0 108413978.6458656 -8635744.496211736 -8635744.496211736 -10593964.59013465 0 0 0 0 0 109633509.34819 -7630488.699301514 -7630488.699301514 -10544901.26316733 0 0 0 0 0 110736168.6063187 -6568461.234268073 -6568461.234268073 -10364161.01370798 0 0 0 0 0 111709079.7207117 -5467898.300135313 -5467898.300135313 -10049996.87405233 0 0 0 0 0 112547769.7588332 -4346653.13835802 -4346653.13835802 -9602021.908427188 0 0 0 0 0 113243732.0548512 -3224343.815826618 -3224343.815826618 -9024835.499374695 0 0 0 0 0 113795341.3118837 -2116809.167722855 -2116809.167722855 -8323501.429611218 0 0 0 0 0 114203405.471038 -1041506.318930727 -1041506.318930727 -7507375.782378229 0 0 0 0 0 114470291.7259372 -15921.43390394697 -15921.43390394697 -6589570.101950279 0 0 0 0 0 114602248.8305792 945372.1173690588 945372.1173690588 -5583505.900167486 0 0 0 0 0 94931830.46104702 -13385334.61630921 -13385334.61630921 -7609792.176911842 0 0 0 0 0 95058718.27030499 -12767190.16206127 -12767190.16206127 -6184042.619130756 0 0 0 0 0 93663722.25308809 -12876869.71895212 -12876869.71895212 -6488503.47135057 0 0 0 0 0 91533542.43300465 -11179463.05898117 -11179463.05898117 -3655704.532830878 0 0 0 0 0 93843749.76610015 -12222368.71067489 -12222368.71067489 -5201777.108710612 0 0 0 0 0 92744697.56854399 -11558384.66650375 -11558384.66650375 -4232487.954307579 0 0 0 0 0 92766617.41381811 -12239968.28733006 -12239968.28733006 -5461770.335190748 0 0 0 0 0 120249262.91857 2831286.214611153 2831286.214611153 25789498.54944547 0 0 0 0 0 119681133.4488643 3993344.605516473 3993344.605516473 23916987.21100862 0 0 0 0 0 119279612.5575751 4869092.790753246 4869092.790753246 22009687.94333391 0 0 0 0 0 120235312.4775888 2019371.479635258 2019371.479635258 27223187.42860148 0 0 0 0 0 120234814.496321 241048.2678803309 241048.2678803309 26528181.01266389 0 0 0 0 0 118914297.1262136 5593636.225493548 5593636.225493548 19986044.92875448 0 0 0 0 0 118592065.5586721 6151382.160225926 6151382.160225926 17891048.06725958 0 0 0 0 0 118299067.2062641 6544562.828884472 6544562.828884472 15771107.8249139 0 0 0 0 0 118028530.7189763 6781960.136853383 6781960.136853383 13669839.47597275 0 0 0 0 0 117765758.6512965 6874535.597313812 6874535.597313812 11625996.6983712 0 0 0 0 0 117498953.6045589 6836101.184803618 6836101.184803618 9666537.28072552 0 0 0 0 0 117230094.0909671 6689273.457865454 6689273.457865454 7818287.231101813 0 0 0 0 0 116928999.9371522 6435584.598616821 6435584.598616821 6092261.446700795 0 0 0 0 0 116616156.0357934 6107976.00303103 6107976.00303103 4496588.929122225 0 0 0 0 0 116288228.9233049 5721107.264570476 5721107.264570476 3042848.015304941 0 0 0 0 0 115923063.2760955 5280502.600134944 5280502.600134944 1726475.542352934 0 0 0 0 0 115544656.0142877 4810775.038693341 4810775.038693341 549970.8347776966 0 0 0 0 0 115783461.9608828 4774556.525353936 4774556.525353936 631916.3123451495 0 0 0 0 0 115516839.5424952 3693877.404369805 3693877.404369805 -1820186.248612529 0 0 0 0 0 115006767.3197682 3155999.13596249 3155999.13596249 -2652879.106689865 0 0 0 0 0 114939228.4080871 2945210.002355999 2945210.002355999 -2556601.43850536 0 0 0 0 0 114606963.6327082 1829607.158574065 1829607.158574065 -4505089.947411687 0 0 0 0 0 97808013.50525731 -12993761.2534172 -12993761.2534172 -8893938.427221032 0 0 0 0 0 99299847.6715851 -12621696.14766381 -12621696.14766381 -9448279.57592319 0 0 0 0 0 100806145.5122899 -12133356.79960078 -12133356.79960078 -9926492.937580898 0 0 0 0 0 102309314.5073622 -11529975.71677912 -11529975.71677912 -10313931.99108364 0 0 0 0 0 96347893.9862162 -13247795.48294005 -13247795.48294005 -8276469.094679646 0 0 0 0 0 103789944.3279935 -10818541.64300238 -10818541.64300238 -10599083.72158661 0 0 0 0 0 105229948.0547599 -10004608.28024274 -10004608.28024274 -10768814.80369922 0 0 0 0 0 106613396.6894672 -9098241.742066571 -9098241.742066571 -10814476.73105419 0 0 0 0 0 107920441.432181 -8114414.879231545 -8114414.879231545 -10731550.85777111 0 0 0 0 0 109134028.6898914 -7066226.744536981 -7066226.744536981 -10514261.80818716 0 0 0 0 0 110239764.99769 -5971689.240882857 -5971689.240882857 -10162229.19938059 0 0 0 0 0 111227209.5762461 -4846636.631498308 -4846636.631498308 -9675994.786613693 0 0 0 0 0 112085262.498066 -3711387.492381343 -3711387.492381343 -9062231.030587517 0 0 0 0 0 112807369.8352605 -2582702.622094832 -2582702.622094832 -8328083.304964343 0 0 0 0 0 113389751.4579815 -1478023.895308945 -1478023.895308945 -7483550.786950104 0 0 0 0 0 113832211.8887392 -414215.2998927434 -414215.2998927434 -6540565.759416019 0 0 0 0 0 114136748.5327219 592695.7074545015 592695.7074545015 -5514321.966114813 0 0 0 0 0 114307906.5044961 1528975.983064276 1528975.983064276 -4420859.887670469 0 0 0 0 0 96432392.38471813 -12729829.71342314 -12729829.71342314 -6854562.090054877 0 0 0 0 0 94951574.55690901 -12863578.64301722 -12863578.64301722 -7168160.745135113 0 0 0 0 0 95074099.12107502 -12263582.18933645 -12263582.18933645 -5793206.547874286 0 0 0 0 0 91901058.32107086 -11580710.10995437 -11580710.10995437 -4448891.7809224 0 0 0 0 0 93794946.01109181 -12370744.99017566 -12370744.99017566 -6089947.407480778 0 0 0 0 0 92738741.5487981 -11799957.71304117 -11799957.71304117 -5106405.723669413 0 0 0 0 0 93970357.30746302 -11697408.26899617 -11697408.26899617 -4860850.172052343 0 0 0 0 0 119507180.3077147 3461577.2109171 3461577.2109171 24674152.57979507 0 0 0 0 0 119067932.4497598 4602702.129037712 4602702.129037712 23573517.23994581 0 0 0 0 0 118738568.0234297 5477016.125464034 5477016.125464034 22022980.17677553 0 0 0 0 0 119443581.6042284 1555359.040475261 1555359.040475261 25219730.64686894 0 0 0 0 0 119456557.9381837 783757.7004975457 783757.7004975457 26376790.1999281 0 0 0 0 0 118449629.0030945 6185650.705389881 6185650.705389881 20332854.48584897 0 0 0 0 0 118196846.5196964 6727891.606585016 6727891.606585016 18530671.36542659 0 0 0 0 0 117967056.1703252 7108342.271621168 7108342.271621168 16663940.93531976 0 0 0 0 0 117746085.361773 7334708.593900266 7334708.593900266 14772391.50439899 0 0 0 0 0 117524236.1603838 7418078.972497588 7418078.972497588 12891871.93123837 0 0 0 0 0 117294407.5146166 7373262.324294687 7373262.324294687 11058391.19581114 0 0 0 0 0 117042902.8770641 7215834.021002788 7215834.021002788 9307754.107188845 0 0 0 0 0 116759624.2258543 6965110.004541892 6965110.004541892 7657089.424050464 0 0 0 0 0 116458480.162545 6636925.962529524 6636925.962529524 6089784.352182445 0 0 0 0 0 116121010.374269 6241257.899713972 6241257.899713972 4625042.485147967 0 0 0 0 0 115766609.8534667 5801886.905500956 5801886.905500956 3284018.166726485 0 0 0 0 0 115379555.2961113 5324012.563946496 5324012.563946496 2056379.598493032 0 0 0 0 0 115149717.5764545 4327279.639334105 4327279.639334105 -483048.5178469213 0 0 0 0 0 115290273.5879328 4230727.771641546 4230727.771641546 -394279.7677823961 0 0 0 0 0 114795719.6179361 3688343.241628434 3688343.241628434 -1298565.32683665 0 0 0 0 0 114495660.673616 2626306.007448617 2626306.007448617 -3370751.73199878 0 0 0 0 0 114352856.7578847 2383154.321443253 2383154.321443253 -3276731.564253186 0 0 0 0 0 99292422.88603459 -12332128.67531943 -12332128.67531943 -8084809.238144203 0 0 0 0 0 100751669.7948471 -11969143.5485888 -11969143.5485888 -8631181.433729216 0 0 0 0 0 102207131.6013661 -11498954.27498405 -11498954.27498405 -9116502.692997674 0 0 0 0 0 103641124.4283507 -10923694.84030884 -10923694.84030884 -9527528.932124114 0 0 0 0 0 97847201.43385118 -12586047.49777421 -12586047.49777421 -7489704.598879393 0 0 0 0 0 105038047.3401925 -10248190.61585734 -10248190.61585734 -9852133.911328264 0 0 0 0 0 106377489.8151884 -9479353.20617038 -9479353.20617038 -10079290.77405838 0 0 0 0 0 107643654.0211366 -8627884.589809285 -8627884.589809285 -10199656.71213881 0 0 0 0 0 108823607.448444 -7704871.862591689 -7704871.862591689 -10205872.73577332 0 0 0 0 0 109901939.0071087 -6723069.693120007 -6723069.693120007 -10091323.32912767 0 0 0 0 0 110866630.294795 -5699236.111174144 -5699236.111174144 -9853835.012591688 0 0 0 0 0 111708101.0242567 -4648903.070859224 -4648903.070859224 -9493147.500145642 0 0 0 0 0 112420593.9365104 -3589931.748394208 -3589931.748394208 -9011996.335495718 0 0 0 0 0 113000847.9828823 -2536895.584586435 -2536895.584586435 -8413118.10659291 0 0 0 0 0 113448900.6787003 -1505076.837817055 -1505076.837817055 -7702996.607688278 0 0 0 0 0 113765951.1705265 -510513.7174666736 -510513.7174666736 -6891698.146151028 0 0 0 0 0 113955200.106674 431649.9926664971 431649.9926664971 -5991639.872685623 0 0 0 0 0 114023478.6372292 1309101.832246127 1309101.832246127 -5015980.166368116 0 0 0 0 0 96269751.91128536 -12757336.89440222 -12757336.89440222 -7808224.459042115 0 0 0 0 0 96356954.21704246 -12249861.28126841 -12249861.28126841 -6461401.471195797 0 0 0 0 0 94987347.63004766 -12364640.10264684 -12364640.10264684 -6760432.678538054 0 0 0 0 0 92875759.9398903 -11032324.11179924 -11032324.11179924 -4053482.458820936 0 0 0 0 0 95087596.1990604 -11801535.85895322 -11801535.85895322 -5444704.166191988 0 0 0 0 0 93835576.10862033 -11274959.43799383 -11274959.43799383 -4618325.619949462 0 0 0 0 0 93848922.73425223 -11920787.12464416 -11920787.12464416 -5784652.741078285 0 0 0 0 0 118433978.3959049 3017192.820953798 3017192.820953798 24261490.11636132 0 0 0 0 0 118697317.631841 2088314.213450363 2088314.213450363 26133824.46660312 0 0 0 0 0 117985287.3592143 4038854.086362555 4038854.086362555 22601017.70145518 0 0 0 0 0 117650177.9424284 4864246.466860619 4864246.466860619 20827991.97757076 0 0 0 0 0 118586049.9071317 1717448.706716737 1717448.706716737 25842978.15873966 0 0 0 0 0 118399912.0576526 249378.4070993989 249378.4070993989 25645914.95833776 0 0 0 0 0 117366163.0428808 5534449.855392351 5534449.855392351 18948584.01955455 0 0 0 0 0 117120690.2262387 6048625.440120596 6048625.440120596 17001471.2287579 0 0 0 0 0 116903322.1333574 6412945.127196894 6412945.127196894 15039532.40514909 0 0 0 0 0 116700810.7230293 6634608.654387699 6634608.654387699 13096056.94798122 0 0 0 0 0 116503272.0406415 6723032.512061797 6723032.512061797 11202351.42041062 0 0 0 0 0 116297338.2872908 6688305.081976051 6688305.081976051 9382139.26758666 0 0 0 0 0 116099364.6765285 6560935.038815862 6560935.038815862 7671266.808354189 0 0 0 0 0 115844509.6279348 6331009.281994129 6331009.281994129 6068926.258676094 0 0 0 0 0 115588205.71853 6033995.055827699 6033995.055827699 4579012.769371002 0 0 0 0 0 115313347.4300156 5681186.470915182 5681186.470915182 3217545.731294382 0 0 0 0 0 115010926.6392187 5279986.495789425 5279986.495789425 1977748.890567815 0 0 0 0 0 114686031.2396832 4845091.432706985 4845091.432706985 861446.1858308499 0 0 0 0 0 114962941.6091643 4823947.156513467 4823947.156513467 945977.7919559776 0 0 0 0 0 114723137.9891449 3829405.746322636 3829405.746322636 -1394480.146767741 0 0 0 0 0 114281448.2247704 3327207.770823495 3327207.770823495 -2200458.632804313 0 0 0 0 0 114280112.2766671 3145442.458376748 3145442.458376748 -2102863.480905484 0 0 0 0 0 113977855.8553975 2110431.366115574 2110431.366115574 -3979668.783846442 0 0 0 0 0 99023027.98383246 -12219761.21682908 -12219761.21682908 -8946413.916282961 0 0 0 0 0 97629417.65996681 -12543145.17265853 -12543145.17265853 -8404264.834210474 0 0 0 0 0 100435640.0446217 -11788958.50658897 -11788958.50658897 -9421809.929914605 0 0 0 0 0 101849076.9960324 -11252178.96316054 -11252178.96316054 -9817571.291280938 0 0 0 0 0 103246851.0056942 -10612972.0711752 -10612972.0711752 -10122280.64765063 0 0 0 0 0 104613576.885369 -9876391.968409093 -9876391.968409093 -10324366.13048358 0 0 0 0 0 105930122.0817683 -9053474.296569897 -9053474.296569897 -10416984.21318286 0 0 0 0 0 107182043.3829385 -8153222.956453964 -8153222.956453964 -10391853.20248991 0 0 0 0 0 108355168.8474739 -7187650.04850978 -7187650.04850978 -10243964.12352097 0 0 0 0 0 109433646.4402168 -6172748.186272988 -6172748.186272988 -9971904.067131503 0 0 0 0 0 110406062.9207218 -5123904.518881896 -5123904.518881896 -9576189.727625573 0 0 0 0 0 111262994.3796884 -4057154.122920688 -4057154.122920688 -9059173.601661669 0 0 0 0 0 111997710.8526857 -2988896.726295713 -2988896.726295713 -8427726.855819432 0 0 0 0 0 112605772.5033991 -1934316.442344836 -1934316.442344836 -7688722.353844824 0 0 0 0 0 113084697.240384 -909448.4179012686 -909448.4179012686 -6852858.568889496 0 0 0 0 0 113434946.1341604 70470.57211170142 70470.57211170142 -5931949.526711902 0 0 0 0 0 113659832.2090985 992183.0314383936 992183.0314383936 -4940377.86660999 0 0 0 0 0 113765016.0990578 1843653.951473982 1843653.951473982 -3892346.905013788 0 0 0 0 0 97674782.26839897 -12137259.02681155 -12137259.02681155 -7071779.111997494 0 0 0 0 0 96212458.3121735 -12286054.18539627 -12286054.18539627 -7372268.689475422 0 0 0 0 0 96311977.67358823 -11800358.71885094 -11800358.71885094 -6112325.444970645 0 0 0 0 0 93148048.31018808 -11305893.69593537 -11305893.69593537 -4815625.652514045 0 0 0 0 0 95023384.73863907 -11878829.04727238 -11878829.04727238 -6407980.463987553 0 0 0 0 0 93952062.09219795 -11488422.78495131 -11488422.78495131 -5511888.193736424 0 0 0 0 0 95161358.92037433 -11348256.75589345 -11348256.75589345 -5165827.808671158 0 0 0 0 0 117755969.979905 3603204.771947281 3603204.771947281 23512948.32335967 0 0 0 0 0 118000898.6440037 2510104.504236875 2510104.504236875 24396766.68200852 0 0 0 0 0 117442900.534145 4579800.35099813 4579800.35099813 22301418.8618077 0 0 0 0 0 117185280.1098927 5386522.318083243 5386522.318083243 20858311.77999919 0 0 0 0 0 117586899.4857849 1189178.485055584 1189178.485055584 24989597.72602546 0 0 0 0 0 117601512.8512104 732180.5581692134 732180.5581692134 25082294.07291692 0 0 0 0 0 116972553.142162 6041215.955861446 6041215.955861446 19275851.24159485 0 0 0 0 0 116788103.2118054 6543182.111729266 6543182.111729266 17600052.13787252 0 0 0 0 0 116627645.52565 6897952.018796803 6897952.018796803 15861192.6348146 0 0 0 0 0 116472259.7527376 7111470.582945024 7111470.582945024 14103358.04255485 0 0 0 0 0 116311574.0808393 7193937.740815989 7193937.740815989 12364835.32361034 0 0 0 0 0 116132721.73804 7161044.918544329 7161044.918544329 10683337.8849524 0 0 0 0 0 115913686.7569137 7018363.456951641 7018363.456951641 9070371.363452308 0 0 0 0 0 115706155.7316497 6801109.820556104 6801109.820556104 7524315.255392209 0 0 0 0 0 115459957.710007 6502332.604556022 6502332.604556022 6056048.781671622 0 0 0 0 0 115181291.5243233 6143045.517880815 6143045.517880815 4686129.37827138 0 0 0 0 0 114884689.6642847 5742461.142918076 5742461.142918076 3423393.320821272 0 0 0 0 0 114556617.2819687 5304333.131639472 5304333.131639472 2262059.417743754 0 0 0 0 0 114342336.0147128 4392883.514847024 4392883.514847024 -127732.5869132109 0 0 0 0 0 114538472.5712217 4317741.489854207 4317741.489854207 -37269.5111273575 0 0 0 0 0 114101294.8652829 3809621.451538194 3809621.451538194 -910517.2650665413 0 0 0 0 0 113832694.4932468 2829858.111990004 2829858.111990004 -2896281.57082528 0 0 0 0 0 113757355.619028 2615906.841654829 2615906.841654829 -2802857.180271931 0 0 0 0 0 100395279.8810174 -11602499.02738994 -11602499.02738994 -8172122.548830085 0 0 0 0 0 99025699.72615269 -11920561.32795233 -11920561.32795233 -7642278.608213419 0 0 0 0 0 101764682.7412694 -11186652.7389919 -11186652.7389919 -8650583.621940156 0 0 0 0 0 103118727.6150867 -10673120.5538183 -10673120.5538183 -9063593.562064692 0 0 0 0 0 104442107.2074686 -10065183.25981257 -10065183.25981257 -9400073.427953169 0 0 0 0 0 105718437.9673983 -9368581.472461004 -9368581.472461004 -9650058.855820403 0 0 0 0 0 106933795.175982 -8592139.661425939 -8592139.661425939 -9804520.698910678 0 0 0 0 0 108072684.6969318 -7745346.383795858 -7745346.383795858 -9855881.466471151 0 0 0 0 0 109122630.7805752 -6840048.286448 -6840048.286448 -9798539.758888194 0 0 0 0 0 110072481.9567482 -5888810.439011043 -5888810.439011043 -9627811.346125629 0 0 0 0 0 110912434.1479604 -4907196.984438121 -4907196.984438121 -9343442.122275285 0 0 0 0 0 111636110.2040033 -3909862.080720783 -3909862.080720783 -8946090.283701215 0 0 0 0 0 112238563.8879694 -2911664.049341914 -2911664.049341914 -8438363.595634686 0 0 0 0 0 112718602.0461591 -1925995.35424929 -1925995.35424929 -7824412.911035799 0 0 0 0 0 113077136.6983883 -966811.5259367112 -966811.5259367112 -7111840.126019629 0 0 0 0 0 113316042.6594274 -49100.18774888546 -49100.18774888546 -6311069.973578176 0 0 0 0 0 113440979.2766296 815908.3434045404 815908.3434045404 -5432349.108759144 0 0 0 0 0 113457517.8168487 1615942.149742565 1615942.149742565 -4489725.918414109 0 0 0 0 0 97477384.60802887 -12107985.33525679 -12107985.33525679 -7944472.655296952 0 0 0 0 0 97530015.87118454 -11706577.68258478 -11706577.68258478 -6681779.880304152 0 0 0 0 0 96186435.35623208 -11834895.80012863 -11834895.80012863 -6956714.961866815 0 0 0 0 0 93964502.28468296 -10833975.71164248 -10833975.71164248 -4474011.154960819 0 0 0 0 0 96321258.96526144 -11363832.97148389 -11363832.97148389 -5802299.053706908 0 0 0 0 0 94972429.32961582 -10991923.66335013 -10991923.66335013 -5000348.579086266 0 0 0 0 0 94984500.89754324 -11485343.30711697 -11485343.30711697 -6028800.690114709 0 0 0 0 0 116784203.3202768 3156033.710663773 3156033.710663773 22897598.37624314 0 0 0 0 0 117115064.838106 2198449.563762214 2198449.563762214 24130901.49035199 0 0 0 0 0 116471229.8623615 4063198.71751976 4063198.71751976 21378214.81124477 0 0 0 0 0 116213382.208955 4825134.822384056 4825134.822384056 19724007.10895434 0 0 0 0 0 116893311.7035849 1670580.17473248 1670580.17473248 24236251.12354406 0 0 0 0 0 116673115.5707539 261383.974366062 261383.974366062 24474694.40321987 0 0 0 0 0 116000079.4456108 5443878.228061119 5443878.228061119 17972234.15824956 0 0 0 0 0 115815516.1162699 5919642.912136851 5919642.912136851 16174104.76159669 0 0 0 0 0 115659312.4542635 6258485.581661755 6258485.581661755 14353066.7816893 0 0 0 0 0 115514336.2886646 6465642.708257674 6465642.708257674 12547637.22681545 0 0 0 0 0 115372177.9985711 6550570.092222249 6550570.092222249 10788708.33332939 0 0 0 0 0 115215367.8244364 6525667.598386974 6525667.598386974 9129650.386196107 0 0 0 0 0 115039107.7932964 6407818.336651098 6407818.336651098 7556099.767110058 0 0 0 0 0 114851032.4220629 6207601.821578257 6207601.821578257 6052160.296929922 0 0 0 0 0 114645949.0357086 5937561.169903722 5937561.169903722 4654273.48248341 0 0 0 0 0 114416995.3985289 5612138.222528503 5612138.222528503 3371670.570693151 0 0 0 0 0 114164477.0814858 5244057.684790094 5244057.684790094 2191559.605836457 0 0 0 0 0 113891082.5599882 4845428.859159593 4845428.859159593 1127689.188761036 0 0 0 0 0 114197463.2974859 4841475.913962559 4841475.913962559 1210544.973693545 0 0 0 0 0 113973702.1550138 3926082.999801605 3926082.999801605 -1006122.775782555 0 0 0 0 0 113590871.8268247 3455613.200265084 3455613.200265084 -1785899.334374974 0 0 0 0 0 113644636.0920262 3301674.216555319 3301674.216555319 -1690259.544881963 0 0 0 0 0 113374652.2353855 2343518.863400518 2343518.863400518 -3493761.06383369 0 0 0 0 0 100105548.7223671 -11447271.55384732 -11447271.55384732 -8942319.003489172 0 0 0 0 0 98778940.66005138 -11826639.29186312 -11826639.29186312 -8472341.719687805 0 0 0 0 0 101435347.0154988 -10969815.3604014 -10969815.3604014 -9342162.463650795 0 0 0 0 0 102754345.2675628 -10396423.41354579 -10396423.41354579 -9661228.253584724 0 0 0 0 0 104048213.9999751 -9731639.131463427 -9731639.131463427 -9889444.303945003 0 0 0 0 0 105301765.7649527 -8983132.2869059 -8983132.2869059 -10018794.11984346 0 0 0 0 0 106500616.4631221 -8159803.860399035 -8159803.860399035 -10042051.17366322 0 0 0 0 0 107630339.7638764 -7272691.892809628 -7272691.892809628 -9954145.602115963 0 0 0 0 0 108679092.1041077 -6333072.458924568 -6333072.458924568 -9751390.511610106 0 0 0 0 0 109634103.7697206 -5356007.078270829 -5356007.078270829 -9433914.401708238 0 0 0 0 0 110485978.4332174 -4355708.519324671 -4355708.519324671 -9003380.370497704 0 0 0 0 0 111226696.0809689 -3347697.681096833 -3347697.681096833 -8464320.107671237 0 0 0 0 0 111851816.3270744 -2345280.778365834 -2345280.778365834 -7822952.201535512 0 0 0 0 0 112360467.4729663 -1362264.153684031 -1362264.153684031 -7084909.193643206 0 0 0 0 0 112749625.1458436 -413158.044169707 -413158.044169707 -6262248.558970599 0 0 0 0 0 113021387.547353 488550.6746550025 488550.6746550025 -5365711.59995838 0 0 0 0 0 113178506.0497262 1331627.680113749 1331627.680113749 -4410615.895065591 0 0 0 0 0 113227872.7587313 2106438.000738178 2106438.000738178 -3407873.163305525 0 0 0 0 0 98789587.7896473 -11522259.3437889 -11522259.3437889 -7226515.929450771 0 0 0 0 0 97349074.86327158 -11686485.44947979 -11686485.44947979 -7513220.329871983 0 0 0 0 0 97416687.89056405 -11303741.41646981 -11303741.41646981 -6309742.462405048 0 0 0 0 0 94306410.28577131 -11039861.16476748 -11039861.16476748 -5195864.292361307 0 0 0 0 0 96272767.06077977 -11399944.25996513 -11399944.25996513 -6574724.727084771 0 0 0 0 0 95043121.75855529 -11119907.51405117 -11119907.51405117 -5719193.733605159 0 0 0 0 0 96168302.34409879 -11079433.25593046 -11079433.25593046 -5459840.192423525 0 0 0 0 0 116237139.0913048 3632530.025427552 3632530.025427552 22278713.02234904 0 0 0 0 0 116539644.5270746 2661688.761958276 2661688.761958276 23296995.26932193 0 0 0 0 0 116004953.4137418 4524330.910915004 4524330.910915004 21115376.87467562 0 0 0 0 0 115816427.5977385 5272553.553400094 5272553.553400094 19761138.05773356 0 0 0 0 0 116063654.8339107 1277299.746437542 1277299.746437542 23762081.18085899 0 0 0 0 0 115957934.5183028 727031.2915669807 727031.2915669807 23809056.02785669 0 0 0 0 0 115663167.6259103 5877801.211235313 5877801.211235313 18284123.88487265 0 0 0 0 0 115541081.2602508 6344616.198812881 6344616.198812881 16715894.99343308 0 0 0 0 0 115432966.2294183 6676470.503915003 6676470.503915003 15102963.0277259 0 0 0 0 0 115328643.3651326 6879725.861948133 6879725.861948133 13476843.30654251 0 0 0 0 0 115202495.4559649 6958326.092367826 6958326.092367826 11887622.37653301 0 0 0 0 0 115070018.8655309 6934633.652732528 6934633.652732528 10322484.40674753 0 0 0 0 0 114906294.3275772 6810626.270074469 6810626.270074469 8811998.099333778 0 0 0 0 0 114742518.9816514 6616341.600215121 6616341.600215121 7367163.759089994 0 0 0 0 0 114542955.7693179 6347088.618800678 6347088.618800678 5992658.717540254 0 0 0 0 0 114313030.0981246 6020365.076749377 6020365.076749377 4709341.032991495 0 0 0 0 0 114061039.4993058 5653110.600793515 5653110.600793515 3523709.45117502 0 0 0 0 0 113781267.6834887 5253612.320268827 5253612.320268827 2428342.313963113 0 0 0 0 0 113592636.3738068 4424635.133097806 4424635.133097806 184181.337444159 0 0 0 0 0 113825563.0440857 4369169.829121562 4369169.829121562 274846.8619103689 0 0 0 0 0 113438174.5720365 3892406.70629481 3892406.70629481 -565735.7982752704 0 0 0 0 0 113203456.6491157 2993630.324947245 2993630.324947245 -2457823.059966851 0 0 0 0 0 113174378.0439413 2804812.489144911 2804812.489144911 -2368599.148478916 0 0 0 0 0 101366821.550925 -10875265.26450067 -10875265.26450067 -8208832.688904496 0 0 0 0 0 100077481.7865764 -11242314.50913998 -11242314.50913998 -7738810.582999051 0 0 0 0 0 102644996.9327686 -10417464.64316686 -10417464.64316686 -8620886.313500786 0 0 0 0 0 103898419.2750537 -9870936.139682101 -9870936.139682101 -8964860.528013956 0 0 0 0 0 105113971.7878418 -9240217.935285483 -9240217.935285483 -9231498.382804642 0 0 0 0 0 106277346.9591462 -8532561.417002421 -8532561.417002421 -9413281.663817124 0 0 0 0 0 107375298.3244692 -7756471.305838658 -7756471.305838658 -9502200.600072794 0 0 0 0 0 108395802.3208352 -6922023.792662302 -6922023.792662302 -9492370.103514245 0 0 0 0 0 109327412.3050269 -6040106.852294475 -6040106.852294475 -9379530.664083058 0 0 0 0 0 110161999.5711059 -5123653.819668983 -5123653.819668983 -9160932.409066502 0 0 0 0 0 110891363.2201899 -4186374.256467706 -4186374.256467706 -8836789.914808517 0 0 0 0 0 111509991.7040745 -3242654.360080833 -3242654.360080833 -8409613.049723927 0 0 0 0 0 112016763.1264679 -2303056.819323116 -2303056.819323116 -7880765.502783866 0 0 0 0 0 112408117.4783147 -1383768.958047761 -1383768.958047761 -7260037.641130716 0 0 0 0 0 112689837.3091521 -493969.7834989986 -493969.7834989986 -6550862.155943753 0 0 0 0 0 112861434.2315691 351038.3277751603 351038.3277751603 -5765274.984881415 0 0 0 0 0 112933348.384454 1145382.354097322 1145382.354097322 -4909591.948081496 0 0 0 0 0 112905102.0561194 1874757.162944895 1874757.162944895 -3999524.133417131 0 0 0 0 0 98560941.00537573 -11441983.70238342 -11441983.70238342 -8026283.49399814 0 0 0 0 0 98579651.10855441 -11138213.39615508 -11138213.39615508 -6850078.925625788 0 0 0 0 0 97231829.53664908 -11260054.50813203 -11260054.50813203 -7131413.276689244 0 0 0 0 0 95151440.78118509 -10549609.00657883 -10549609.00657883 -4807832.771341993 0 0 0 0 0 97335791.99304931 -10900019.94893884 -10900019.94893884 -6142549.472047677 0 0 0 0 0 95978438.26769981 -10675440.83649111 -10675440.83649111 -5284777.717216818 0 0 0 0 0 96063526.14592433 -10850499.82983881 -10850499.82983881 -5871150.134027215 0 0 0 0 0 115390941.8599458 3223427.386240514 3223427.386240514 21652253.95658861 0 0 0 0 0 115700725.9073123 2286937.636837068 2286937.636837068 22848218.79376661 0 0 0 0 0 115149928.7140563 4055650.575628319 4055650.575628319 20236560.96028698 0 0 0 0 0 114950012.88846 4759778.238659746 4759778.238659746 18691737.35904233 0 0 0 0 0 115468932.4690538 1736057.343668933 1736057.343668933 23031242.26646735 0 0 0 0 0 115217009.9237265 318474.3165044531 318474.3165044531 23246542.0475506 0 0 0 0 0 114789122.4395551 5331003.552962428 5331003.552962428 17065086.44505623 0 0 0 0 0 114660385.302021 5772649.883454577 5772649.883454577 15388869.83418385 0 0 0 0 0 114550236.2870173 6087376.709365718 6087376.709365718 13698201.35781858 0 0 0 0 0 114452269.1797923 6283361.285401348 6283361.285401348 12026645.1636942 0 0 0 0 0 114338827.8719208 6363204.690921024 6363204.690921024 10416946.34476076 0 0 0 0 0 114221040.9897713 6345482.891174786 6345482.891174786 8868192.403555838 0 0 0 0 0 114085213.9361808 6238974.638115479 6238974.638115479 7399136.792204147 0 0 0 0 0 113942540.8407836 6060688.796660221 6060688.796660221 5990615.731115252 0 0 0 0 0 113778953.8251226 5816816.594898829 5816816.594898829 4679197.206181133 0 0 0 0 0 113590220.8534498 5519765.83653493 5519765.83653493 3472782.134513919 0 0 0 0 0 113377629.224222 5181229.562022256 5181229.562022256 2361859.666093349 0 0 0 0 0 113146724.1494854 4816691.356910728 4816691.356910728 1355269.927293901 0 0 0 0 0 113473823.1309375 4829646.738478461 4829646.738478461 1433796.342168365 0 0 0 0 0 113270669.6513527 3987458.696620239 3987458.696620239 -660289.0832326015 0 0 0 0 0 112940652.1464115 3549111.47809886 3549111.47809886 -1407616.915069563 0 0 0 0 0 113026310.0278816 3418362.626715418 3418362.626715418 -1316319.595794172 0 0 0 0 0 112785141.5590979 2533117.386022683 2533117.386022683 -3045902.085465524 0 0 0 0 0 101064013.3111579 -10685438.52153248 -10685438.52153248 -8888308.530943042 0 0 0 0 0 99811846.23310015 -11109385.02493101 -11109385.02493101 -8487749.979958739 0 0 0 0 0 102308722.9163856 -10171792.41720097 -10171792.41720097 -9216781.116685422 0 0 0 0 0 103533101.0003469 -9571792.023076532 -9571792.023076532 -9464785.540044902 0 0 0 0 0 104725629.7133943 -8891519.721181823 -8891519.721181823 -9623955.563908806 0 0 0 0 0 105872092.5413644 -8139151.814796631 -8139151.814796631 -9687412.095982289 0 0 0 0 0 106959512.868269 -7323688.287257612 -7323688.287257612 -9649915.229258148 0 0 0 0 0 107975857.4202438 -6455631.59743693 -6455631.59743693 -9507733.074321449 0 0 0 0 0 108909983.5163349 -5546882.843546356 -5546882.843546356 -9259297.993781472 0 0 0 0 0 109751822.6672446 -4610942.07306139 -4610942.07306139 -8905484.091196626 0 0 0 0 0 110493559.9320259 -3661410.510375747 -3661410.510375747 -8448894.760736052 0 0 0 0 0 111130863.8195957 -2711157.130629473 -2711157.130629473 -7894502.303069689 0 0 0 0 0 111660191.8879806 -1772177.460637073 -1772177.460637073 -7247903.9933357 0 0 0 0 0 112083283.7421137 -857630.5583161039 -857630.5583161039 -6515669.760888983 0 0 0 0 0 112394278.0465656 19758.25475269989 19758.25475269989 -5709348.450758407 0 0 0 0 0 112598372.00272 848243.8456619553 848243.8456619553 -4839624.247473642 0 0 0 0 0 112697528.6417674 1619432.490269511 1619432.490269511 -3919949.366303087 0 0 0 0 0 112703041.1278622 2325122.619519396 2325122.619519396 -2958140.741912534 0 0 0 0 0 99794076.62489539 -10887264.00903653 -10887264.00903653 -7330550.388841468 0 0 0 0 0 98368585.3874567 -11064916.66584413 -11064916.66584413 -7600980.725617127 0 0 0 0 0 98426717.13480496 -10778091.47272731 -10778091.47272731 -6579364.907868559 0 0 0 0 0 95460658.39549106 -10700236.70226344 -10700236.70226344 -5439783.830491174 0 0 0 0 0 97271110.11413696 -10861798.44611098 -10861798.44611098 -6819907.421058122 0 0 0 0 0 97007187.98619634 -10934222.6423284 -10934222.6423284 -6245318.608649054 0 0 0 0 0 96324346.84461577 -10746479.53230808 -10746479.53230808 -5751120.585281301 0 0 0 0 0 114923129.4142119 3635846.660630537 3635846.660630537 21125436.23760957 0 0 0 0 0 115161826.6749753 2710198.374506178 2710198.374506178 22081859.33642313 0 0 0 0 0 114744517.0660263 4454403.427097736 4454403.427097736 20003211.34698445 0 0 0 0 0 114608404.6981749 5144099.52611877 5144099.52611877 18734483.07021203 0 0 0 0 0 114670834.2458011 1355394.8630761 1355394.8630761 22634932.60245518 0 0 0 0 0 114628548.2685381 723870.9821337052 723870.9821337052 22590166.45031098 0 0 0 0 0 114505450.0819458 5705215.066694022 5705215.066694022 17350346.98484723 0 0 0 0 0 114428983.2610306 6141106.78831924 6141106.78831924 15890754.9409275 0 0 0 0 0 114363302.0305482 6451585.287306201 6451585.287306201 14393199.97458672 0 0 0 0 0 114291363.5082669 6639977.854793914 6639977.854793914 12904626.77488348 0 0 0 0 0 114199017.8879017 6717892.405990052 6717892.405990052 11421877.03625504 0 0 0 0 0 114100304.092083 6701911.043029588 6701911.043029588 9967026.558109136 0 0 0 0 0 113991871.262173 6598825.409919867 6598825.409919867 8552363.795118725 0 0 0 0 0 113856594.1494639 6421078.836018041 6421078.836018041 7200373.320090226 0 0 0 0 0 113696086.250678 6179702.562888614 6179702.562888614 5915114.484436509 0 0 0 0 0 113506741.0035708 5884903.436253023 5884903.436253023 4714294.549589584 0 0 0 0 0 113293904.6079246 5545869.176131314 5545869.176131314 3602970.10988712 0 0 0 0 0 113056723.7555306 5181496.205708452 5181496.205708452 2559514.172014343 0 0 0 0 0 112892693.2411524 4431783.20985703 4431783.20985703 461744.3995543552 0 0 0 0 0 113147178.2507391 4388516.954984306 4388516.954984306 551514.9027652136 0 0 0 0 0 112800725.2183098 3943041.366871895 3943041.366871895 -255611.4339205864 0 0 0 0 0 112590241.0183329 3115768.707161217 3115768.707161217 -2062411.960898381 0 0 0 0 0 112618221.0555801 2956918.506623641 2956918.506623641 -1970231.699530826 0 0 0 0 0 102214738.6464123 -10159478.70906425 -10159478.70906425 -8199833.952676439 0 0 0 0 0 101008540.0309808 -10566035.20171227 -10566035.20171227 -7790250.279522175 0 0 0 0 0 103401674.6986384 -9669125.18973963 -9669125.18973963 -8547822.138005562 0 0 0 0 0 104558636.1487124 -9097547.045776805 -9097547.045776805 -8826344.630848886 0 0 0 0 0 105671776.4198093 -8453110.096689899 -8453110.096689899 -9029461.432332991 0 0 0 0 0 106728546.3810067 -7742073.447455196 -7742073.447455196 -9148738.664164104 0 0 0 0 0 107717269.9036392 -6973668.529593139 -6973668.529593139 -9179214.226180224 0 0 0 0 0 108627896.922493 -6157097.385441336 -6157097.385441336 -9115501.231168069 0 0 0 0 0 109451884.8735737 -5303258.432755541 -5303258.432755541 -8954742.806714181 0 0 0 0 0 110182095.4355579 -4424307.033455557 -4424307.033455557 -8695791.723872466 0 0 0 0 0 110812775.7168659 -3532754.244387948 -3532754.244387948 -8339689.098973398 0 0 0 0 0 111340379.3067053 -2640585.780419687 -2640585.780419687 -7888300.222754484 0 0 0 0 0 111765724.0706979 -1757524.755571902 -1757524.755571902 -7344395.796373705 0 0 0 0 0 112079453.0356795 -902633.4997067458 -902633.4997067458 -6721786.970838961 0 0 0 0 0 112293261.471892 -79870.64810654675 -79870.64810654675 -6021077.896340232 0 0 0 0 0 112406841.8041679 697427.1688185342 697427.1688185342 -5253158.410390032 0 0 0 0 0 112434205.5425882 1426493.899993511 1426493.899993511 -4421768.83175349 0 0 0 0 0 112369821.3402956 2090648.397245825 2090648.397245825 -3546702.774752825 0 0 0 0 0 99551675.21713875 -10774381.51722035 -10774381.51722035 -8056439.005654701 0 0 0 0 0 99551048.42573754 -10536120.51559344 -10536120.51559344 -6953747.096330185 0 0 0 0 0 98244302.14192504 -10700175.98489201 -10700175.98489201 -7219946.605232039 0 0 0 0 0 96253833.80236377 -10241471.87805296 -10241471.87805296 -5107077.727728908 0 0 0 0 0 98359970.85051113 -10497818.50079087 -10497818.50079087 -6302571.40805746 0 0 0 0 0 97245232.00313272 -10489293.79777014 -10489293.79777014 -6204835.679255301 0 0 0 0 0 96811572.19716127 -10339082.97503086 -10339082.97503086 -5615833.950298656 0 0 0 0 0 114181046.3026604 3258535.043458536 3258535.043458536 20501370.18518757 0 0 0 0 0 114440064.2734952 2377288.531083993 2377288.531083993 21657008.88360883 0 0 0 0 0 113982632.3382029 4026051.210115704 4026051.210115704 19169384.04199954 0 0 0 0 0 113831508.915003 4673561.031994825 4673561.031994825 17725106.8412655 0 0 0 0 0 114167214.8825788 1769454.275646473 1769454.275646473 21962877.34662833 0 0 0 0 0 113891474.8583507 289740.347299083 289740.347299083 21882922.98045694 0 0 0 0 0 113716786.2560009 5203150.754197049 5203150.754197049 16209959.36528596 0 0 0 0 0 113629366.9396592 5614644.055246647 5614644.055246647 14652667.86422504 0 0 0 0 0 113552709.6293771 5905578.537511976 5905578.537511976 13082857.24333634 0 0 0 0 0 113488545.9973057 6088767.189860799 6088767.189860799 11548075.35707217 0 0 0 0 0 113402442.4641948 6165788.570300969 6165788.570300969 10054515.8247316 0 0 0 0 0 113313501.8438328 6155148.311516846 6155148.311516846 8612393.307787506 0 0 0 0 0 113222108.692117 6064116.426562463 6064116.426562463 7227118.588347074 0 0 0 0 0 113110225.7412562 5901825.403700172 5901825.403700172 5912142.377590844 0 0 0 0 0 112981186.5127999 5683320.419103147 5683320.419103147 4685899.719217208 0 0 0 0 0 112822637.1577358 5412793.229782738 5412793.229782738 3551856.280888483 0 0 0 0 0 112641705.0833185 5096338.985320277 5096338.985320277 2497152.798162773 0 0 0 0 0 112453988.8522189 4768769.340506669 4768769.340506669 1550948.155012024 0 0 0 0 0 112790694.7710663 4794245.436364598 4794245.436364598 1625110.893373047 0 0 0 0 0 112610347.1847287 4020444.755211301 4020444.755211301 -346347.4302177974 0 0 0 0 0 112317363.5227197 3610100.309533518 3610100.309533518 -1071427.356923114 0 0 0 0 0 112443126.0423244 3504937.893616962 3504937.893616962 -983245.4306164974 0 0 0 0 0 112221659.8727303 2684285.972989879 2684285.972989879 -2638869.066770984 0 0 0 0 0 101905315.6233686 -9942174.57660524 -9942174.57660524 -8789667.428737907 0 0 0 0 0 100730214.7548192 -10400540.23861178 -10400540.23861178 -8455429.39670109 0 0 0 0 0 103063464.3633941 -9400214.799662337 -9400214.799662337 -9052327.02955438 0 0 0 0 0 104197821.8206899 -8782450.101774925 -8782450.101774925 -9235330.286826456 0 0 0 0 0 105293527.8135958 -8095140.043185823 -8095140.043185823 -9332394.202404231 0 0 0 0 0 106338084.0032649 -7346159.138180145 -7346159.138180145 -9337322.941834887 0 0 0 0 0 107320976.0527319 -6544711.480718672 -6544711.480718672 -9246636.849015702 0 0 0 0 0 108231663.8873128 -5700991.811477101 -5700991.811477101 -9058231.566144016 0 0 0 0 0 109061200.3691886 -4826290.448548475 -4826290.448548475 -8771535.450350264 0 0 0 0 0 109801303.2599751 -3932692.147083013 -3932692.147083013 -8387914.07850428 0 0 0 0 0 110445108.2908202 -3033502.113848943 -3033502.113848943 -7912287.200132675 0 0 0 0 0 110991290.4472847 -2138587.433024681 -2138587.433024681 -7347333.991442564 0 0 0 0 0 111433812.2165473 -1262724.951331526 -1262724.951331526 -6700231.010851372 0 0 0 0 0 111779704.0997764 -413155.8649183661 -413155.8649183661 -5978160.507020607 0 0 0 0 0 112023837.2405608 395547.1357537165 395547.1357537165 -5191480.836162785 0 0 0 0 0 112171757.214736 1158104.161064656 1158104.161064656 -4350530.859009775 0 0 0 0 0 112223831.8048241 1862910.388644516 1862910.388644516 -3466196.703976337 0 0 0 0 0 112190422.2654979 2501513.11440881 2501513.11440881 -2550225.904898173 0 0 0 0 0 100688841.6446926 -10254228.24860289 -10254228.24860289 -7400717.849315586 0 0 0 0 0 99337383.70796408 -10445448.38332671 -10445448.38332671 -7650969.25790653 0 0 0 0 0 99370081.71357401 -10187642.93376756 -10187642.93376756 -6570232.799281266 0 0 0 0 0 96508091.35155739 -10356806.74640359 -10356806.74640359 -5708430.709354955 0 0 0 0 0 98122235.81992471 -10317873.17046122 -10317873.17046122 -6807097.308313903 0 0 0 0 0 97417845.37890184 -10432264.22177748 -10432264.22177748 -6126903.498762489 0 0 0 0 0 113763929.2082382 3628791.524749909 3628791.524749909 20064451.36268478 0 0 0 0 0 113953942.8660865 2780705.180795885 2780705.180795885 21022502.55108054 0 0 0 0 0 113631314.0990914 4371614.873916573 4371614.873916573 18982001.67945777 0 0 0 0 0 113537141.1420614 5006985.420011633 5006985.420011633 17773720.71089948 0 0 0 0 0 113470850.1340187 1402797.17298243 1402797.17298243 21455351.23629217 0 0 0 0 0 113321381.900806 639795.8584383858 639795.8584383858 21548450.2140341 0 0 0 0 0 113475638.6861479 5528664.270065042 5528664.270065042 16477134.6672864 0 0 0 0 0 113435972.3293884 5934493.379070862 5934493.379070862 15119933.88048967 0 0 0 0 0 113396716.6255092 6223521.205143948 6223521.205143948 13747518.93155308 0 0 0 0 0 113342562.3948639 6398491.37733141 6398491.37733141 12360757.4680738 0 0 0 0 0 113289430.857865 6478130.36830599 6478130.36830599 10978665.97647626 0 0 0 0 0 113229519.4609113 6471593.391843478 6471593.391843478 9611569.133749889 0 0 0 0 0 113146034.5615469 6381631.316387553 6381631.316387553 8295865.661305707 0 0 0 0 0 113043327.438443 6221470.11422466 6221470.11422466 7032829.535547226 0 0 0 0 0 112913053.3183136 6008034.165727068 6008034.165727068 5822531.3404191 0 0 0 0 0 112755704.3364899 5740561.776703325 5740561.776703325 4706148.949171454 0 0 0 0 0 112576493.4184883 5424319.300750989 5424319.300750989 3669178.572205836 0 0 0 0 0 112384324.7609203 5089197.473766573 5089197.473766573 2658839.048116689 0 0 0 0 0 112249502.2902489 4422813.993389782 4422813.993389782 717032.9562065724 0 0 0 0 0 112501410.3492497 4382928.612123294 4382928.612123294 804270.5267793617 0 0 0 0 0 112198039.073314 3974659.301031291 3974659.301031291 18624.43291188622 0 0 0 0 0 112009647.3000518 3209435.599054068 3209435.599054068 -1702534.757287852 0 0 0 0 0 112076491.8346802 3069546.77524417 3069546.77524417 -1610532.251637869 0 0 0 0 0 102947319.7139723 -9462012.258400209 -9462012.258400209 -8150110.905433713 0 0 0 0 0 101826026.9885783 -9898868.140889393 -9898868.140889393 -7801316.108351144 0 0 0 0 0 104048775.4255206 -8944097.8348451 -8944097.8348451 -8435527.128970133 0 0 0 0 0 105113201.2252753 -8357105.684184768 -8357105.684184768 -8654731.311808618 0 0 0 0 0 106128589.0237542 -7706488.73805044 -7706488.73805044 -8799435.281737469 0 0 0 0 0 107085277.0811052 -6998912.696646088 -6998912.696646088 -8862800.980337813 0 0 0 0 0 107972560.429683 -6243526.500060355 -6243526.500060355 -8840929.376293337 0 0 0 0 0 108782936.1093923 -5449297.783931877 -5449297.783931877 -8730055.882288745 0 0 0 0 0 109508878.7520045 -4626876.009324295 -4626876.009324295 -8528790.158202332 0 0 0 0 0 110144598.5861572 -3787265.910603934 -3787265.910603934 -8236592.71914921 0 0 0 0 0 110686705.5302108 -2941336.297202752 -2941336.297202752 -7854283.207019213 0 0 0 0 0 111131448.0528593 -2100429.262349069 -2100429.262349069 -7386312.927492937 0 0 0 0 0 111481868.4409615 -1275706.862007474 -1275706.862007474 -6837159.729944123 0 0 0 0 0 111733757.1260083 -478132.764649739 -478132.764649739 -6212765.169806762 0 0 0 0 0 111889245.5289744 280382.7505732678 280382.7505732678 -5523959.603650481 0 0 0 0 0 111957129.425589 998280.5823251036 998280.5823251036 -4771781.255981776 0 0 0 0 0 111942582.2035688 1663372.838015618 1663372.838015618 -3970495.789094566 0 0 0 0 0 111849248.8463894 2264991.781859314 2264991.781859314 -3135133.685709179 0 0 0 0 0 100440499.542924 -10116964.54350887 -10116964.54350887 -8043121.572941369 0 0 0 0 0 100424250.264202 -9951147.773721568 -9951147.773721568 -7015458.409917396 0 0 0 0 0 99177314.85283525 -10119465.7618816 -10119465.7618816 -7261694.479971614 0 0 0 0 0 97253371.4143355 -9902473.331131538 -9902473.331131538 -5375712.190965726 0 0 0 0 0 99159956.77302498 -9867059.790578987 -9867059.790578987 -6263274.470959462 0 0 0 0 0 97981325.07267398 -9910629.065009024 -9910629.065009024 -5871127.115932819 0 0 0 0 0 113251685.660803 2441437.607062937 2441437.607062937 20541646.97779899 0 0 0 0 0 113068627.2518868 3264291.256121685 3264291.256121685 19428404.63464991 0 0 0 0 0 112943069.7655216 3971925.625529037 3971925.625529037 18168574.28838495 0 0 0 0 0 112836724.1359453 4573458.747394704 4573458.747394704 16820750.45243914 0 0 0 0 0 113021422.9989312 1678731.572385632 1678731.572385632 20310669.11654276 0 0 0 0 0 112779639.2650715 292893.6728905747 292893.6728905747 20682362.27356491 0 0 0 0 0 112758898.9250599 5065502.100040877 5065502.100040877 15408654.26549873 0 0 0 0 0 112702230.6491717 5445002.528867189 5445002.528867189 13950605.0065675 0 0 0 0 0 112650788.3607016 5714321.539271389 5714321.539271389 12517399.33459585 0 0 0 0 0 112602612.8787261 5886677.705748676 5886677.705748676 11095376.74954087 0 0 0 0 0 112550998.5522067 5965919.855132899 5965919.855132899 9703424.53273057 0 0 0 0 0 112499102.6835991 5963687.91451853 5963687.91451853 8351701.980599069 0 0 0 0 0 112429134.262063 5882275.250258956 5882275.250258956 7055455.348953219 0 0 0 0 0 112347021.8133924 5735164.847911431 5735164.847911431 5822201.217651507 0 0 0 0 0 112243837.0257349 5544671.273919639 5544671.273919639 4678373.705474173 0 0 0 0 0 112113683.9365364 5297901.286943159 5297901.286943159 3617039.36813806 0 0 0 0 0 111929629.7502154 4984537.782366653 4984537.782366653 2599850.799369544 0 0 0 0 0 111829922.3947842 4708215.733443088 4708215.733443088 1715458.756912698 0 0 0 0 0 112147808.9844311 4738027.797903586 4738027.797903586 1781453.712836017 0 0 0 0 0 111987456.1538818 4027822.898571176 4027822.898571176 -63546.39796758062 0 0 0 0 0 111717168.5989846 3648272.496285604 3648272.496285604 -764003.1083648165 0 0 0 0 0 111886753.8000169 3569231.614450254 3569231.614450254 -677518.5005388454 0 0 0 0 0 111676508.8507519 2798022.303934093 2798022.303934093 -2271746.106439165 0 0 0 0 0 102633700.4697765 -9220284.681364842 -9220284.681364842 -8653708.253044417 0 0 0 0 0 101542760.2976537 -9709220.417610606 -9709220.417610606 -8380993.746932614 0 0 0 0 0 103713088.3205196 -8659041.020869346 -8659041.020869346 -8855730.635479787 0 0 0 0 0 104759600.5529144 -8031640.214527635 -8031640.214527635 -8979823.963949004 0 0 0 0 0 105762365.0406045 -7343836.948419141 -7343836.948419141 -9020431.645662295 0 0 0 0 0 106711396.1868955 -6604396.979104264 -6604396.979104264 -8974101.620526258 0 0 0 0 0 107596874.4351529 -5821982.487359261 -5821982.487359261 -8837813.99502844 0 0 0 0 0 108410676.3870006 -5006246.343482208 -5006246.343482208 -8610136.628730251 0 0 0 0 0 109144980.3613366 -4167790.868144349 -4167790.868144349 -8291601.766637027 0 0 0 0 0 109793116.0012862 -3318079.300347277 -3318079.300347277 -7885178.579816674 0 0 0 0 0 110351096.0083843 -2467865.348594553 -2467865.348594553 -7393670.125332386 0 0 0 0 0 110818271.957381 -1626384.373396041 -1626384.373396041 -6820955.160295799 0 0 0 0 0 111186098.243128 -810491.1493304526 -810491.1493304526 -6180347.196495892 0 0 0 0 0 111462478.4190487 -23786.7977258951 -23786.7977258951 -5471665.822201718 0 0 0 0 0 111646632.272339 720672.7854416483 720672.7854416483 -4708730.156059486 0 0 0 0 0 111748384.2732686 1423160.898946806 1423160.898946806 -3893709.842566986 0 0 0 0 0 111762483.7738627 2065933.083466964 2065933.083466964 -3050569.528581292 0 0 0 0 0 111699808.5821145 2640111.989108824 2640111.989108824 -2184554.564672709 0 0 0 0 0 101481503.2516297 -9634372.2099161 -9634372.2099161 -7419332.599486984 0 0 0 0 0 100191887.49985 -9831182.206761407 -9831182.206761407 -7658793.973011912 0 0 0 0 0 100180680.408275 -9651995.775444178 -9651995.775444178 -6674897.282171567 0 0 0 0 0 97426589.21253479 -9991460.246923408 -9991460.246923408 -6040632.27851164 0 0 0 0 0 98204329.99512178 -9990546.825585924 -9990546.825585924 -6505190.339039629 0 0 0 0 0 99013679.4617151 -9808488.812957732 -9808488.812957732 -6932006.905329781 0 0 0 0 0 112852784.5949015 2739356.082073959 2739356.082073959 19820207.25475658 0 0 0 0 0 112728659.4332644 3559854.313274314 3559854.313274314 19023977.37889149 0 0 0 0 0 112638697.9946478 4269000.394418522 4269000.394418522 18010099.29088234 0 0 0 0 0 112583596.7782307 4864515.724004777 4864515.724004777 16873344.58462443 0 0 0 0 0 112521553.8961465 995811.4324972314 995811.4324972314 21231496.5129475 0 0 0 0 0 112515682.9262797 1646662.37248543 1646662.37248543 20541322.65175219 0 0 0 0 0 112284945.7867987 495636.6763655148 495636.6763655148 20527859.11078835 0 0 0 0 0 112555559.6706961 5350655.943931877 5350655.943931877 15662568.80662421 0 0 0 0 0 112531493.1716548 5723561.454791403 5723561.454791403 14422183.19273087 0 0 0 0 0 112515180.6272006 5992385.006244496 5992385.006244496 13130904.29369984 0 0 0 0 0 112487572.9110597 6159069.201603549 6159069.201603549 11833571.01316934 0 0 0 0 0 112466674.7015927 6242023.679108617 6242023.679108617 10536815.40997424 0 0 0 0 0 112428265.9234419 6242683.68958217 6242683.68958217 9266753.946060292 0 0 0 0 0 112372147.2729722 6162664.85184599 6162664.85184599 8048175.661380607 0 0 0 0 0 112292322.5339625 6023230.195118468 6023230.195118468 6860105.634271982 0 0 0 0 0 112188977.1345274 5833768.268612458 5833768.268612458 5718092.660188377 0 0 0 0 0 112073205.8988658 5584645.189886435 5584645.189886435 4709205.183733768 0 0 0 0 0 111884130.3300039 5306299.388446287 5306299.388446287 3738312.863401808 0 0 0 0 0 111765777.4929672 5013937.319455041 5013937.319455041 2734781.834077125 0 0 0 0 0 111712600.4822254 4428568.090410192 4428568.090410192 974059.4802218066 0 0 0 0 0 111865099.6389904 4365594.799024003 4365594.799024003 1042670.790453711 0 0 0 0 0 111643479.2323066 4005898.616692713 4005898.616692713 275299.7948746841 0 0 0 0 0 111450805.4970618 3278291.936978717 3278291.936978717 -1371643.628584545 0 0 0 0 0 111570194.0442767 3151496.994043718 3151496.994043718 -1275029.052803318 0 0 0 0 0 103580953.0419708 -8781376.417283066 -8781376.417283066 -8058907.38963381 0 0 0 0 0 102533760.8829465 -9250910.263058593 -9250910.263058593 -7772483.043562972 0 0 0 0 0 104597845.8273814 -8247319.669977574 -8247319.669977574 -8291000.430846245 0 0 0 0 0 105572957.5720128 -7652053.451462159 -7652053.451462159 -8455524.024558496 0 0 0 0 0 106496591.3477359 -7000974.885482402 -7000974.885482402 -8546388.90880271 0 0 0 0 0 107359643.1287389 -6302595.788038338 -6302595.788038338 -8560076.874460859 0 0 0 0 0 108154037.5251303 -5564669.741565689 -5564669.741565689 -8492086.279317887 0 0 0 0 0 108872610.4598423 -4796559.191204224 -4796559.191204224 -8340893.279638671 0 0 0 0 0 109509616.752388 -4007816.541137172 -4007816.541137172 -8105327.286572713 0 0 0 0 0 110060985.190245 -3208503.210391896 -3208503.210391896 -7785849.522501345 0 0 0 0 0 110523892.2643284 -2408814.86536542 -2408814.86536542 -7384572.566024022 0 0 0 0 0 110896097.5260109 -1618563.120097572 -1618563.120097572 -6905605.629642488 0 0 0 0 0 111180037.4373455 -848922.4164515736 -848922.4164515736 -6352567.001313622 0 0 0 0 0 111374927.1984596 -108816.0296574335 -108816.0296574335 -5734758.477721869 0 0 0 0 0 111484569.3468358 593974.4724490581 593974.4724490581 -5055448.314044381 0 0 0 0 0 111512622.5507102 1253879.817588281 1253879.817588281 -4326077.440877828 0 0 0 0 0 111467466.6409577 1861618.267559825 1861618.267559825 -3555331.755479003 0 0 0 0 0 111362442.4743138 2410608.595138024 2410608.595138024 -2757475.074361227 0 0 0 0 0 101225066.8670461 -9474155.77746704 -9474155.77746704 -7991930.179738161 0 0 0 0 0 101178142.5159261 -9381669.526760696 -9381669.526760696 -7061984.150855461 0 0 0 0 0 99979579.35943379 -9547603.577586154 -9547603.577586154 -7291376.610679902 0 0 0 0 0 98172222.39016065 -9510505.569549279 -9510505.569549279 -5606608.884241039 0 0 0 0 0 99085035.44187248 -9472057.842461308 -9472057.842461308 -6028027.7392518 0 0 0 0 0 100034957.2695498 -9335423.341973385 -9335423.341973385 -6389319.866033143 0 0 0 0 0 112298865.4395302 2490376.233356593 2490376.233356593 19490331.98823018 0 0 0 0 0 112149458.6317926 3238341.222815642 3238341.222815642 18409496.07045098 0 0 0 0 0 112029348.6445819 3903583.858292467 3903583.858292467 17234824.08018384 0 0 0 0 0 111951566.7397662 4465980.571105821 4465980.571105821 15977364.78223992 0 0 0 0 0 112042009.3467154 1032785.822655034 1032785.822655034 19637408.89997104 0 0 0 0 0 112056700.7364959 1898205.334731267 1898205.334731267 19318770.60755787 0 0 0 0 0 111796552.9817061 264454.0858554476 264454.0858554476 20217126.34134291 0 0 0 0 0 111900381.0261279 4920363.894965063 4920363.894965063 14652156.9020598 0 0 0 0 0 111860388.1890868 5269826.497895689 5269826.497895689 13319888.98721042 0 0 0 0 0 111831262.9003752 5522632.38645047 5522632.38645047 11983838.24420042 0 0 0 0 0 111804516.9079358 5684165.431965909 5684165.431965909 10664401.49596097 0 0 0 0 0 111784231.1454608 5766553.784419617 5766553.784419617 9355229.954207478 0 0 0 0 0 111752501.1828312 5771895.348596441 5771895.348596441 8097058.148082515 0 0 0 0 0 111714168.1920363 5698940.356237903 5698940.356237903 6884283.188275879 0 0 0 0 0 111626357.7157498 5561559.203999088 5561559.203999088 5718790.442159688 0 0 0 0 0 111542673.6339627 5393129.004697819 5393129.004697819 4646619.961061734 0 0 0 0 0 111506922.7273906 5193201.722641613 5193201.722641613 3673807.535110143 0 0 0 0 0 111271520.7787575 4875882.731985195 4875882.731985195 2750055.829234434 0 0 0 0 0 111191823.873539 4618384.642143563 4618384.642143563 1833922.782952103 0 0 0 0 0 111493869.7481774 4649441.352542675 4649441.352542675 1879143.200132713 0 0 0 0 0 111332278.0785202 3998894.324441859 3998894.324441859 192067.4294289387 0 0 0 0 0 111139747.8139791 3682440.474601093 3682440.474601093 -473315.4811200956 0 0 0 0 0 111369275.9086998 3604898.1714621 3604898.1714621 -371597.473033197 0 0 0 0 0 111150311.7168837 2870727.656300281 2870727.656300281 -1949049.259578125 0 0 0 0 0 103267898.4293657 -8524004.942887092 -8524004.942887092 -8486672.995574174 0 0 0 0 0 102242176.6529678 -9033679.955455393 -9033679.955455393 -8270243.103061464 0 0 0 0 0 104267835.1647325 -7951367.045076984 -7951367.045076984 -8632736.987846853 0 0 0 0 0 105229177.1043774 -7320316.087967603 -7320316.087967603 -8703639.353509845 0 0 0 0 0 106144321.1771895 -6638247.642583741 -6638247.642583741 -8694722.221430762 0 0 0 0 0 107003666.0509302 -5913223.689269336 -5913223.689269336 -8603572.575030258 0 0 0 0 0 107799366.715301 -5153535.294648734 -5153535.294648734 -8427841.117548777 0 0 0 0 0 108524082.6530385 -4368527.428936673 -4368527.428936673 -8167374.08055446 0 0 0 0 0 109171707.637662 -3568062.296300383 -3568062.296300383 -7823488.89634821 0 0 0 0 0 109737678.8253516 -2762001.947548231 -2762001.947548231 -7398762.338869699 0 0 0 0 0 110218535.9484727 -1960605.868894679 -1960605.868894679 -6897563.294938386 0 0 0 0 0 110612189.48311 -1174021.472189665 -1174021.472189665 -6325303.501309511 0 0 0 0 0 110918466.8543469 -412010.7614539366 -412010.7614539366 -5689643.520006649 0 0 0 0 0 111135782.0169491 314512.4742249089 314512.4742249089 -4999707.565126531 0 0 0 0 0 111272793.3672924 1002611.673302426 1002611.673302426 -4255429.732899331 0 0 0 0 0 111329262.1234052 1644704.74072226 1644704.74072226 -3474555.355949509 0 0 0 0 0 111310283.2417873 2230237.849013332 2230237.849013332 -2673586.957100232 0 0 0 0 0 111227062.5810816 2742217.878483367 2742217.878483367 -1850893.022302195 0 0 0 0 0 102159645.2880598 -9039052.702670185 -9039052.702670185 -7410630.227616195 0 0 0 0 0 100928501.7033149 -9226990.64413406 -9226990.64413406 -7620319.945512609 0 0 0 0 0 100933642.7140191 -9102181.503220575 -9102181.503220575 -6752796.91911011 0 0 0 0 0 98302319.94496764 -9563713.887966545 -9563713.887966545 -6258131.848260368 0 0 0 0 0 99087195.13737641 -9455788.872519275 -9455788.872519275 -6631235.893010343 0 0 0 0 0 99881968.60342108 -9259125.919994608 -9259125.919994608 -6958816.760865045 0 0 0 0 0 111927602.4741515 2772525.660123284 2772525.660123284 18921597.49343923 0 0 0 0 0 111827891.8302519 3516931.330678573 3516931.330678573 18053782.36770972 0 0 0 0 0 111762837.9703634 4168205.3486294 4168205.3486294 17090383.14650512 0 0 0 0 0 111734778.4841959 4721314.129532765 4721314.129532765 16030699.75499001 0 0 0 0 0 111649722.494102 1292401.548390863 1292401.548390863 20032190.4992589 0 0 0 0 0 111614745.438984 1803338.610496767 1803338.610496767 19327543.23965632 0 0 0 0 0 111340785.2196003 557454.5098493655 557454.5098493655 19511881.98904802 0 0 0 0 0 111720710.3232643 5169734.747935367 5169734.747935367 14918764.67877492 0 0 0 0 0 111712833.3425786 5514191.279411583 5514191.279411583 13748955.62232251 0 0 0 0 0 111714279.0887248 5765692.404918683 5765692.404918683 12550925.65056926 0 0 0 0 0 111718016.7054254 5927195.392986741 5927195.392986741 11333516.46469859 0 0 0 0 0 111714675.5854877 6010836.002258137 6010836.002258137 10119032.66683566 0 0 0 0 0 111698602.9006409 6015356.816363609 6015356.816363609 8936856.355648976 0 0 0 0 0 111658843.4643512 5959771.894317155 5959771.894317155 7795698.284308559 0 0 0 0 0 111578277.9982331 5827675.396234784 5827675.396234784 6688277.489180406 0 0 0 0 0 111501783.1473624 5670155.029139919 5670155.029139919 5633690.525496989 0 0 0 0 0 111284669.3039182 5414114.72988076 5414114.72988076 4758540.860975499 0 0 0 0 0 111360908.2865717 5173074.602606203 5173074.602606203 3451450.859602265 0 0 0 0 0 111294522.9134962 4866396.84833665 4866396.84833665 2517737.664172728 0 0 0 0 0 111245095.7050513 4499451.504822655 4499451.504822655 1256084.088551212 0 0 0 0 0 111312441.6690013 4349580.607749955 4349580.607749955 1264323.649688007 0 0 0 0 0 111124845.1653051 4011739.328318505 4011739.328318505 565773.4821655271 0 0 0 0 0 110968643.4642328 3320280.126561975 3320280.126561975 -1070201.487677063 0 0 0 0 0 111063857.5820141 3224611.153204563 3224611.153204563 -990161.9803986637 0 0 0 0 0 104125411.3305166 -8124391.42776474 -8124391.42776474 -7937373.218067379 0 0 0 0 0 103154532.7096124 -8610085.913245637 -8610085.913245637 -7694382.623485968 0 0 0 0 0 105058643.9611973 -7581355.800643438 -7581355.800643438 -8119111.0650287 0 0 0 0 0 105949374.2782337 -6982822.041697959 -6982822.041697959 -8232809.112902349 0 0 0 0 0 106786851.9166418 -6337395.927173471 -6337395.927173471 -8276201.883127941 0 0 0 0 0 107563427.5689919 -5652444.439757582 -5652444.439757582 -8245300.724592104 0 0 0 0 0 108272010.7367682 -4935899.130461647 -4935899.130461647 -8137684.595112837 0 0 0 0 0 108907027.0505977 -4196337.309123581 -4196337.309123581 -7951890.078170261 0 0 0 0 0 109464068.4078808 -3442682.091179473 -3442682.091179473 -7687710.924381752 0 0 0 0 0 109939898.4227368 -2684087.904095874 -2684087.904095874 -7346453.108038336 0 0 0 0 0 110332563.3121821 -1929945.386669483 -1929945.386669483 -6930778.947701626 0 0 0 0 0 110642096.8780376 -1189367.191791878 -1189367.191791878 -6444590.008153534 0 0 0 0 0 110868999.5006744 -471494.0715906872 -471494.0715906872 -5893132.721376144 0 0 0 0 0 111015804.7112244 215057.2856948233 215057.2856948233 -5282179.287181074 0 0 0 0 0 111082301.6863335 862228.0770702153 862228.0770702153 -4621511.200539486 0 0 0 0 0 111076496.4902915 1468585.741941441 1468585.741941441 -3912028.046680708 0 0 0 0 0 111001229.8141813 2021645.666620519 2021645.666620519 -3176376.24262806 0 0 0 0 0 110865295.1591972 2497638.978459355 2497638.978459355 -2458435.308511251 0 0 0 0 0 101884316.2987518 -8838327.264930712 -8838327.264930712 -7901351.613899753 0 0 0 0 0 101821704.5080751 -8812437.392030995 -8812437.392030995 -7075053.299167127 0 0 0 0 0 100729563.7248405 -8981033.54436389 -8981033.54436389 -7250253.827343117 0 0 0 0 0 99093051.92009048 -9080731.305532355 -9080731.305532355 -5775416.912727468 0 0 0 0 0 99880168.26182057 -9020134.902063292 -9020134.902063292 -6183505.294113378 0 0 0 0 0 100751108.8057014 -8871948.774029365 -8871948.774029365 -6474072.463732393 0 0 0 0 0 111442551.3707641 2518921.38934905 2518921.38934905 18479721.84070648 0 0 0 0 0 111299577.8792449 3219256.54930653 3219256.54930653 17472570.09729677 0 0 0 0 0 111209863.2924465 3832357.715084897 3832357.715084897 16367112.19079681 0 0 0 0 0 111157203.8431644 4349743.034581768 4349743.034581768 15177158.93969155 0 0 0 0 0 111246894.9876197 1180905.915132893 1180905.915132893 18749419.40627423 0 0 0 0 0 111215956.8559086 2075901.120639688 2075901.120639688 18862444.23967855 0 0 0 0 0 110862223.9977604 259808.8552908798 259808.8552908798 18868424.18619687 0 0 0 0 0 111118316.7177787 4767326.163826208 4767326.163826208 13965536.5296687 0 0 0 0 0 111093063.4398595 5091405.995779447 5091405.995779447 12722350.03228046 0 0 0 0 0 111086151.9265787 5332085.110688935 5332085.110688935 11479931.61400279 0 0 0 0 0 111084566.8323602 5486002.153526962 5486002.153526962 10237342.3174115 0 0 0 0 0 111074138.8661974 5565844.063126946 5565844.063126946 9016250.058580173 0 0 0 0 0 111123848.5177916 5599341.741514655 5599341.741514655 7868170.00320596 0 0 0 0 0 111040520.8428057 5530851.004831295 5530851.004831295 6710649.77378244 0 0 0 0 0 110948594.4847099 5395284.108038564 5395284.108038564 5624953.033320467 0 0 0 0 0 110957835.1531082 5288778.634297892 5288778.634297892 4683693.173223801 0 0 0 0 0 111135166.2370591 5342886.420794154 5342886.420794154 4300575.258520644 0 0 0 0 0 110671926.9770361 4978097.389211894 4978097.389211894 3806682.976171018 0 0 0 0 0 110738984.5224484 4747972.699787769 4747972.699787769 2687751.450354119 0 0 0 0 0 110739948.8373495 4487786.119430719 4487786.119430719 1900746.115348277 0 0 0 0 0 110805337.3834723 4027477.510287843 4027477.510287843 475601.3273817466 0 0 0 0 0 110692431.5018852 3713329.691018275 3713329.691018275 -198379.185740198 0 0 0 0 0 110731093.9458103 3595942.037054568 3595942.037054568 -151086.7964479737 0 0 0 0 0 110562964.5178674 2888583.925351559 2888583.925351559 -1688486.520203347 0 0 0 0 0 102861246.6487814 -8377399.754064458 -8377399.754064458 -8130221.413900765 0 0 0 0 0 103816481.1055421 -7856867.420508981 -7856867.420508981 -8294191.929423867 0 0 0 0 0 104735050.4859246 -7278186.297060003 -7278186.297060003 -8389390.60493328 0 0 0 0 0 105616910.1131721 -6649318.436931882 -6649318.436931882 -8412184.386452133 0 0 0 0 0 106449552.9869132 -5977965.089933805 -5977965.089933805 -8359804.695166841 0 0 0 0 0 107225792.8768858 -5271062.593478945 -5271062.593478945 -8229388.340596989 0 0 0 0 0 107938510.8565354 -4537097.726822806 -4537097.726822806 -8020335.080754097 0 0 0 0 0 108581893.5738671 -3784724.103569042 -3784724.103569042 -7733057.775161306 0 0 0 0 0 109151104.5586313 -3022814.184816542 -3022814.184816542 -7369205.120179567 0 0 0 0 0 109642553.0614449 -2260636.761859008 -2260636.761859008 -6931903.171976544 0 0 0 0 0 110053775.1396797 -1507544.48639985 -1507544.48639985 -6426127.552503738 0 0 0 0 0 110384220.9746271 -772292.5898611478 -772292.5898611478 -5857039.533186041 0 0 0 0 0 110633445.8772198 -64083.3705841125 -64083.3705841125 -5231804.472420543 0 0 0 0 0 110804248.1989829 609315.8431386258 609315.8431386258 -4558097.328475777 0 0 0 0 0 110899196.5634541 1239295.025401299 1239295.025401299 -3834433.062015088 0 0 0 0 0 110921702.6215473 1824204.507030573 1824204.507030573 -3076608.897450774 0 0 0 0 0 110893702.881595 2355519.249960417 2355519.249960417 -2340038.66311427 0 0 0 0 0 110823602.5304381 2823261.492847678 2823261.492847678 -1578649.157845354 0 0 0 0 0 102763116.8827557 -8431340.539946519 -8431340.539946519 -7351069.358122276 0 0 0 0 0 101552914.8668982 -8625492.229473807 -8625492.229473807 -7561417.95432808 0 0 0 0 0 101542099.273186 -8609332.186541446 -8609332.186541446 -6825189.097514626 0 0 0 0 0 99154531.61570917 -9102319.096044626 -9102319.096044626 -6394479.58051691 0 0 0 0 0 99873096.83795699 -8995811.14406083 -8995811.14406083 -6702436.144132303 0 0 0 0 0 100536113.2493319 -8728527.148598023 -8728527.148598023 -6938306.897388984 0 0 0 0 0 111094525.2219125 2789241.114506064 2789241.114506064 17982189.56409771 0 0 0 0 0 111013748.3094403 3468182.420257404 3468182.420257404 17159322.82841254 0 0 0 0 0 110976246.2442072 4067017.702062239 4067017.702062239 16240007.18596179 0 0 0 0 0 110960705.3818104 4574649.153715545 4574649.153715545 15258996.41201712 0 0 0 0 0 110803909.4738583 1208514.909977298 1208514.909977298 19052188.08132705 0 0 0 0 0 110769430.66794 1817922.206226851 1817922.206226851 18351675.70095424 0 0 0 0 0 110466079.2693968 472851.7330534083 472851.7330534083 18628593.43650864 0 0 0 0 0 110959611.911364 4987000.480549029 4987000.480549029 14206315.36661563 0 0 0 0 0 110971127.8095822 5307026.528561887 5307026.528561887 13121771.48631991 0 0 0 0 0 110994918.9503233 5546594.12475575 5546594.12475575 11987139.59271035 0 0 0 0 0 111013321.9693803 5700992.237425022 5700992.237425022 10858729.34525957 0 0 0 0 0 110982575.4232013 5795798.056842904 5795798.056842904 9601429.132732907 0 0 0 0 0 111088479.7293177 5811729.319153318 5811729.319153318 8504949.55154389 0 0 0 0 0 111020584.4090029 5711815.737627562 5711815.737627562 7586579.87599392 0 0 0 0 0 110971000.9255122 5628019.070697817 5628019.070697817 6599131.753294734 0 0 0 0 0 111074676.0139979 5541440.92476231 5541440.92476231 5562211.983729432 0 0 0 0 0 110455677.3743093 5143540.169960428 5143540.169960428 4841046.534502651 0 0 0 0 0 110764982.8801674 5151855.877524754 5151855.877524754 4037281.709980953 0 0 0 0 0 110849827.5604936 4947676.578362253 4947676.578362253 3123140.443571992 0 0 0 0 0 110854253.4591341 4660326.728352127 4660326.728352127 2185017.004348551 0 0 0 0 0 110868782.4298333 4347629.43346578 4347629.43346578 1384219.308460855 0 0 0 0 0 110554795.5042592 3955531.348608312 3955531.348608312 665465.906148885 0 0 0 0 0 110597324.6509479 3495823.958899799 3495823.958899799 -525770.0373457957 0 0 0 0 0 110742244.1448816 3221482.339578177 3221482.339578177 -935632.4019451399 0 0 0 0 0 103692637.1352626 -7990020.797259937 -7990020.797259937 -7598084.120450936 0 0 0 0 0 104583259.8927776 -7497579.775119008 -7497579.775119008 -7793717.539973752 0 0 0 0 0 105441208.2154029 -6946281.11719259 -6946281.11719259 -7923691.94684968 0 0 0 0 0 106251923.0377973 -6350749.364643175 -6350749.364643175 -7992700.442152503 0 0 0 0 0 107009186.6021519 -5715497.483615099 -5715497.483615099 -7993444.373318724 0 0 0 0 0 107705769.9947338 -5047704.439493488 -5047704.439493488 -7923591.225766661 0 0 0 0 0 108336077.8404226 -4355074.67279947 -4355074.67279947 -7781267.003116082 0 0 0 0 0 108895320.2029322 -3645792.958368959 -3645792.958368959 -7566195.377612874 0 0 0 0 0 109380269.004737 -2927878.710372325 -2927878.710372325 -7278520.447286434 0 0 0 0 0 109788461.4312814 -2210000.120114722 -2210000.120114722 -6920359.194540326 0 0 0 0 0 110119585.5978713 -1500248.087325388 -1500248.087325388 -6494410.819411672 0 0 0 0 0 110373744.8095172 -807095.8069600846 -807095.8069600846 -6005120.347773194 0 0 0 0 0 110552373.5112847 -138717.3079242232 -138717.3079242232 -5457726.22214464 0 0 0 0 0 110658798.4923712 497524.8319894197 497524.8319894197 -4859054.695549497 0 0 0 0 0 110692435.9615442 1089470.111733622 1089470.111733622 -4219387.308068063 0 0 0 0 0 110665006.4007772 1641845.642422272 1641845.642422272 -3532926.547428148 0 0 0 0 0 110600650.5788765 2156771.040502002 2156771.040502002 -2830461.548581353 0 0 0 0 0 110405463.438401 2551291.775265055 2551291.775265055 -2217019.250225245 0 0 0 0 0 102490424.3970527 -8221566.470015005 -8221566.470015005 -7786388.476746407 0 0 0 0 0 102401458.6894173 -8233256.406883395 -8233256.406883395 -7064346.28581792 0 0 0 0 0 101313178.6258766 -8397428.139731074 -8397428.139731074 -7096001.348971459 0 0 0 0 0 99903929.38036458 -8641313.293458408 -8641313.293458408 -5916960.265204177 0 0 0 0 0 100476212.5582599 -8578674.040663121 -8578674.040663121 -6302142.75621355 0 0 0 0 0 100988730.1037828 -8547391.206953837 -8547391.206953837 -6655708.115399139 0 0 0 0 0 110615632.4160274 2538472.761837788 2538472.761837788 17545531.24255307 0 0 0 0 0 110524842.8819894 3187546.350287852 3187546.350287852 16597089.4722214 0 0 0 0 0 110469895.5124445 3752847.433674785 3752847.433674785 15548438.31823059 0 0 0 0 0 110433837.6407713 4229804.589453459 4229804.589453459 14451674.19904489 0 0 0 0 0 110403627.0313881 1024459.987552242 1024459.987552242 17903349.46607764 0 0 0 0 0 110435877.2569846 2045343.488067731 2045343.488067731 17751746.04426617 0 0 0 0 0 110099274.8727075 241059.0691460272 241059.0691460272 18103794.33140309 0 0 0 0 0 110410464.7080664 4617632.557655946 4617632.557655946 13317736.52199567 0 0 0 0 0 110402029.6525965 4916853.695201454 4916853.695201454 12167428.58810977 0 0 0 0 0 110423881.1228226 5149492.380591695 5149492.380591695 11001855.58211868 0 0 0 0 0 110438145.818146 5291460.842719126 5291460.842719126 9821293.423827644 0 0 0 0 0 110494632.7602719 5419035.078160153 5419035.078160153 8820140.496760299 0 0 0 0 0 110513636.7122417 5433338.776296482 5433338.776296482 7519837.671320568 0 0 0 0 0 110505766.2133509 5370892.440496505 5370892.440496505 6532670.283352298 0 0 0 0 0 110402641.8708519 5228030.524474622 5228030.524474622 5625027.035496258 0 0 0 0 0 110525713.0524302 5289713.794852732 5289713.794852732 4970020.9237332 0 0 0 0 0 110107250.7290233 4969308.617482058 4969308.617482058 4442198.332213621 0 0 0 0 0 110223842.2628782 4783297.076619212 4783297.076619212 3454366.990697043 0 0 0 0 0 110272137.2473648 4542825.388875308 4542825.388875308 2472712.419863685 0 0 0 0 0 110308777.4833074 4250659.804872476 4250659.804872476 1495212.946921279 0 0 0 0 0 110354182.025159 4003975.409029107 4003975.409029107 587549.6781770907 0 0 0 0 0 110404576.7360772 3855425.946206612 3855425.946206612 301595.4752909245 0 0 0 0 0 110127372.6869958 3197215.652459146 3197215.652459146 -805500.8252727835 0 0 0 0 0 110165972.7793249 3637562.450640934 3637562.450640934 177570.7790409687 0 0 0 0 0 110118716.5065174 2847296.937708927 2847296.937708927 -1556132.758811555 0 0 0 0 0 103407327.3705584 -7750866.793521081 -7750866.793521081 -7963462.469231031 0 0 0 0 0 104278640.1004029 -7219217.54989523 -7219217.54989523 -8079295.66511542 0 0 0 0 0 105127581.4400524 -6640315.945824354 -6640315.945824354 -8129304.410079443 0 0 0 0 0 105932763.0748233 -6019041.884432162 -6019041.884432162 -8109961.176683021 0 0 0 0 0 106688413.3511523 -5361897.914763757 -5361897.914763757 -8019018.642369845 0 0 0 0 0 107387199.0968932 -4676380.02454757 -4676380.02454757 -7855334.820718999 0 0 0 0 0 108023446.2279251 -3970204.001620863 -3970204.001620863 -7618426.714837218 0 0 0 0 0 108592607.4014423 -3251476.068433768 -3251476.068433768 -7309324.887101134 0 0 0 0 0 109090807.105047 -2528376.890359176 -2528376.890359176 -6930190.087917205 0 0 0 0 0 109515497.3759233 -1809380.367029283 -1809380.367029283 -6484760.549463633 0 0 0 0 0 109865278.371703 -1102718.05647011 -1102718.05647011 -5978264.564544196 0 0 0 0 0 110140143.4528348 -416325.7847374447 -416325.7847374447 -5415227.00186919 0 0 0 0 0 110340366.1194243 241760.2027901073 241760.2027901073 -4803507.996479404 0 0 0 0 0 110469882.9589948 865814.7674082823 865814.7674082823 -4156561.634573739 0 0 0 0 0 110528339.2539917 1439377.96073966 1439377.96073966 -3459209.727343459 0 0 0 0 0 110511838.654157 1953252.139979679 1953252.139979679 -2746733.734167701 0 0 0 0 0 110423733.5152414 2431936.747254016 2431936.747254016 -2133088.184010412 0 0 0 0 0 110469123.2528468 2805118.187400511 2805118.187400511 -1491459.774896484 0 0 0 0 0 103296979.4833311 -7841775.097437068 -7841775.097437068 -7250860.79583551 0 0 0 0 0 102173388.6583221 -8063234.855986258 -8063234.855986258 -7412789.965888505 0 0 0 0 0 101820477.6965652 -8212146.597430917 -8212146.597430917 -6825954.681903015 0 0 0 0 0 99992135.25951366 -8658845.389407147 -8658845.389407147 -6468418.466570111 0 0 0 0 0 100944933.8971836 -8253399.580256507 -8253399.580256507 -6730936.165476223 0 0 0 0 0 110325506.2161227 2759904.569627132 2759904.569627132 17074748.62873354 0 0 0 0 0 110278986.2317832 3399480.314084704 3399480.314084704 16308934.71832613 0 0 0 0 0 110263766.9953698 3957501.913958032 3957501.913958032 15451544.68591246 0 0 0 0 0 110260509.3833622 4428015.740199394 4428015.740199394 14514935.43317624 0 0 0 0 0 110202387.0536714 1240701.013144574 1240701.013144574 18249838.17008556 0 0 0 0 0 110193915.8026077 1078732.751199771 1078732.751199771 18108403.48697953 0 0 0 0 0 110043811.9277995 1862763.626169938 1862763.626169938 17485883.51524197 0 0 0 0 0 109762403.9167736 445115.8126123454 445115.8126123454 17735033.02100943 0 0 0 0 0 110271940.2420826 4810035.925217861 4810035.925217861 13542251.49871403 0 0 0 0 0 110297151.5638234 5113113.077440497 5113113.077440497 12520640.37458633 0 0 0 0 0 110343715.7772273 5336663.368169007 5336663.368169007 11450383.63005614 0 0 0 0 0 110284495.0587813 5474818.844075888 5474818.844075888 10379904.28819655 0 0 0 0 0 110391491.4389036 5466028.341271533 5466028.341271533 8470512.074181046 0 0 0 0 0 110419796.2974636 5527968.31512825 5527968.31512825 8505318.602824768 0 0 0 0 0 110339190.4423514 5509079.549976188 5509079.549976188 7608162.903328194 0 0 0 0 0 110449504.5662903 5427958.319805906 5427958.319805906 6030104.202557534 0 0 0 0 0 109967852.7795957 5096660.042365383 5096660.042365383 5451457.554065167 0 0 0 0 0 110175882.1081585 5127927.674683567 5127927.674683567 4632511.863843136 0 0 0 0 0 110309196.8892345 4977671.07056038 4977671.07056038 3740658.502005444 0 0 0 0 0 110383769.8365923 4761145.033051807 4761145.033051807 2856752.095138601 0 0 0 0 0 110479216.7936015 4482409.0858629 4482409.0858629 2048688.643712543 0 0 0 0 0 110445101.9147637 4197973.738670857 4197973.738670857 1265814.293616987 0 0 0 0 0 109921975.6612158 3827290.92327294 3827290.92327294 708668.5408488017 0 0 0 0 0 110430468.7388714 3465544.889457405 3465544.889457405 -232613.761447182 0 0 0 0 0 109808152.460103 3413960.078145225 3413960.078145225 -309950.5236825299 0 0 0 0 0 110284290.4576633 3119794.171107563 3119794.171107563 -876617.1838912552 0 0 0 0 0 104140959.2745042 -7405156.724104078 -7405156.724104078 -7475690.195358844 0 0 0 0 0 104969388.3043043 -6893706.762840506 -6893706.762840506 -7619829.087943011 0 0 0 0 0 105753164.6124901 -6345225.598598879 -6345225.598598879 -7711796.076205344 0 0 0 0 0 106489771.1174072 -5756509.602760027 -5756509.602760027 -7739262.454218066 0 0 0 0 0 107172230.5482259 -5134922.260346887 -5134922.260346887 -7702118.813241649 0 0 0 0 0 107795303.5628759 -4487019.499023133 -4487019.499023133 -7598026.379941925 0 0 0 0 0 108354180.7939488 -3820159.082210211 -3820159.082210211 -7426022.472110657 0 0 0 0 0 108844909.9788129 -3142016.223462158 -3142016.223462158 -7186255.135422557 0 0 0 0 0 109265226.6509105 -2460062.458870146 -2460062.458870146 -6879738.867355496 0 0 0 0 0 109613596.137951 -1782054.461409369 -1782054.461409369 -6508615.923992665 0 0 0 0 0 109890910.3485314 -1114824.198495681 -1114824.198495681 -6075759.577505898 0 0 0 0 0 110096439.7530636 -467156.9160078629 -467156.9160078629 -5586902.042934132 0 0 0 0 0 110231866.4364065 154584.5470831178 154584.5470831178 -5046432.252445405 0 0 0 0 0 110299979.0740867 744768.7858743577 744768.7858743577 -4462342.001184716 0 0 0 0 0 110271874.7972862 1267771.768155675 1267771.768155675 -3869381.220356081 0 0 0 0 0 110275101.9543815 1781930.713005089 1781930.713005089 -3208396.151547674 0 0 0 0 0 110375721.3466933 2397385.470300288 2397385.470300288 -2344680.30028533 0 0 0 0 0 109913536.1240173 2447463.586038845 2447463.586038845 -2056714.266915411 0 0 0 0 0 103024044.4454564 -7628222.222764766 -7628222.222764766 -7646289.925377279 0 0 0 0 0 102924182.3867274 -7643221.01405016 -7643221.01405016 -6919252.202749367 0 0 0 0 0 101918672.1548394 -7803141.509719276 -7803141.509719276 -6651714.44524343 0 0 0 0 0 100691913.8391562 -8191600.844002469 -8191600.844002469 -6007033.332331793 0 0 0 0 0 101547729.1339658 -7994480.34228219 -7994480.34228219 -6348911.227046678 0 0 0 0 0 109910316.7829247 2538668.781349226 2538668.781349226 16677972.47833516 0 0 0 0 0 109844962.5087294 3141678.795795324 3141678.795795324 15768980.34714373 0 0 0 0 0 109806620.9088894 3666941.452595534 3666941.452595534 14794724.46672102 0 0 0 0 0 109779341.2035774 4110585.161402759 4110585.161402759 13769624.41882658 0 0 0 0 0 109830472.8616348 1484930.22561126 1484930.22561126 17446526.6718945 0 0 0 0 0 109773130.921611 834864.2770589715 834864.2770589715 17617084.34472392 0 0 0 0 0 109720759.4227292 2072452.953927486 2072452.953927486 16810553.95985217 0 0 0 0 0 109410111.3451315 228539.0759581431 228539.0759581431 17281647.91266067 0 0 0 0 0 109781941.5149555 4474716.799655234 4474716.799655234 12725959.4958715 0 0 0 0 0 109779500.6651684 4759362.543317908 4759362.543317908 11657951.08552973 0 0 0 0 0 109864800.9488377 4989463.835513115 4989463.835513115 10531658.99071225 0 0 0 0 0 109810936.1171822 5159058.804344374 5159058.804344374 9350328.752597047 0 0 0 0 0 109895558.8936817 5293982.481010428 5293982.481010428 9417768.591328831 0 0 0 0 0 110023710.9789862 5273153.835793763 5273153.835793763 7519810.065848077 0 0 0 0 0 110060711.3234087 5362552.578108476 5362552.578108476 6853392.353261074 0 0 0 0 0 109836747.4512508 5173231.707348423 5173231.707348423 6582464.859814635 0 0 0 0 0 110000748.6008947 5242062.290113333 5242062.290113333 5564993.392940238 0 0 0 0 0 109696806.0181417 4786994.843497922 4786994.843497922 4081681.576502076 0 0 0 0 0 109569687.8307958 4919424.760448193 4919424.760448193 5030686.55529741 0 0 0 0 0 109790149.0141032 4606592.57711878 4606592.57711878 3143253.366317309 0 0 0 0 0 109855328.1424475 4384446.343242054 4384446.343242054 2249520.865788251 0 0 0 0 0 109900933.4621168 4105124.112512154 4105124.112512154 1440832.64442776 0 0 0 0 0 109790473.2115845 3091754.807418193 3091754.807418193 -843451.9876326737 0 0 0 0 0 109677964.4061975 2725494.386899845 2725494.386899845 -1529711.04803273 0 0 0 0 0 103848511.6534062 -7143404.066224315 -7143404.066224315 -7777263.712910762 0 0 0 0 0 104673825.2146627 -6613026.947861412 -6613026.947861412 -7848533.148726311 0 0 0 0 0 105451264.8621796 -6039227.472438231 -6039227.472438231 -7857322.219594214 0 0 0 0 0 106185261.7589233 -5429085.666054417 -5429085.666054417 -7800506.100424041 0 0 0 0 0 106868530.9912981 -4789394.947832886 -4789394.947832886 -7676370.20821526 0 0 0 0 0 107495934.4710526 -4127216.24515858 -4127216.24515858 -7484244.970508524 0 0 0 0 0 108062166.5329192 -3450133.001425045 -3450133.001425045 -7224515.601963444 0 0 0 0 0 108563899.1537768 -2765412.59381917 -2765412.59381917 -6898055.297639506 0 0 0 0 0 108998037.8675125 -2080916.006676781 -2080916.006676781 -6507931.443846374 0 0 0 0 0 109362999.6613332 -1403903.078651944 -1403903.078651944 -6058142.702466104 0 0 0 0 0 109658659.5943189 -741441.946520896 -741441.946520896 -5553944.609436565 0 0 0 0 0 109884440.7083426 -102330.5257496559 -102330.5257496559 -4998651.869066719 0 0 0 0 0 110043221.3188885 506385.4578904448 506385.4578904448 -4397596.308701974 0 0 0 0 0 110148981.7581794 1078726.096135327 1078726.096135327 -3781565.146212887 0 0 0 0 0 110192958.4380062 1622723.512809761 1622723.512809761 -3106596.035030632 0 0 0 0 0 110065809.2966301 2091747.999111995 2091747.999111995 -2485176.682475715 0 0 0 0 0 110115237.8010861 2702409.293280934 2702409.293280934 -1515453.931983407 0 0 0 0 0 103729892.4802393 -7295205.093995901 -7295205.093995901 -7215501.504337089 0 0 0 0 0 102367893.7754524 -7782696.222090155 -7782696.222090155 -7116671.277191322 0 0 0 0 0 102705911.767205 -7506210.354619303 -7506210.354619303 -7381918.499782573 0 0 0 0 0 101397606.6847683 -7916644.895363996 -7916644.895363996 -6844191.520023338 0 0 0 0 0 100634212.6658174 -8171099.175493575 -8171099.175493575 -6547998.951798296 0 0 0 0 0 109650685.1449493 2734138.340910617 2734138.340910617 16245279.53867374 0 0 0 0 0 109623565.5695342 3331881.600490327 3331881.600490327 15513786.62340967 0 0 0 0 0 109616378.5535427 3850892.543943423 3850892.543943423 14686014.75907505 0 0 0 0 0 109634554.027798 4280333.669901353 4280333.669901353 13855353.86591249 0 0 0 0 0 109520709.260332 1351087.430432664 1351087.430432664 17244296.56916809 0 0 0 0 0 109454780.1397778 1024861.596040402 1024861.596040402 17245348.22284176 0 0 0 0 0 109378441.9430465 1925023.051923678 1925023.051923678 16611156.32516715 0 0 0 0 0 109094152.3365443 423219.8886036173 423219.8886036173 16918630.27922456 0 0 0 0 0 109672992.6319489 4638301.558422495 4638301.558422495 12932731.28124096 0 0 0 0 0 109696171.8942569 4938169.22344129 4938169.22344129 11911393.51421539 0 0 0 0 0 109784147.1754002 5139378.756664057 5139378.756664057 10969241.52439378 0 0 0 0 0 109663221.9848787 5218896.006624565 5218896.006624565 10133393.09195237 0 0 0 0 0 109758653.151867 5320429.58823434 5320429.58823434 8927999.130837627 0 0 0 0 0 109987791.7146537 5428816.085157449 5428816.085157449 8095129.936881606 0 0 0 0 0 109610196.0767227 5179919.883111474 5179919.883111474 7608456.75245918 0 0 0 0 0 109817422.1438353 5268492.426232852 5268492.426232852 6496377.648017164 0 0 0 0 0 109425637.9356118 4986184.595887897 4986184.595887897 6027315.543220631 0 0 0 0 0 104533023.9153358 -6823794.917753072 -6823794.917753072 -7335147.147549698 0 0 0 0 0 105287942.0004463 -6323552.693430725 -6323552.693430725 -7439687.29359348 0 0 0 0 0 106003452.4388706 -5778201.382714509 -5778201.382714509 -7486345.724809634 0 0 0 0 0 106670334.8641638 -5200224.203956278 -5200224.203956278 -7476602.67329869 0 0 0 0 0 107283983.7098997 -4594724.000147621 -4594724.000147621 -7405417.27674386 0 0 0 0 0 107839588.5603731 -3968610.324203719 -3968610.324203719 -7271646.293533789 0 0 0 0 0 108333728.3553619 -3328575.787676557 -3328575.787676557 -7074424.584925914 0 0 0 0 0 108762871.451638 -2681904.949839449 -2681904.949839449 -6814217.770709367 0 0 0 0 0 109125097.0446273 -2035800.907220106 -2035800.907220106 -6492996.255541451 0 0 0 0 0 109421276.9246244 -1395987.674135856 -1395987.674135856 -6111944.068371067 0 0 0 0 0 109651540.2976694 -769468.9100877988 -769468.9100877988 -5675333.798896799 0 0 0 0 0 109814892.9728665 -165827.2412946167 -165827.2412946167 -5190286.077851064 0 0 0 0 0 109906397.4508176 405483.8141761258 405483.8141761258 -4662218.117767576 0 0 0 0 0 109957454.7108428 948324.1864848299 948324.1864848299 -4109532.006554957 0 0 0 0 0 109796973.1916409 1375902.279439004 1375902.279439004 -3603027.48668156 0 0 0 0 0 109928062.0884654 2005417.301495573 2005417.301495573 -2678872.55012304 0 0 0 0 0 109554991.8955756 2348731.886761502 2348731.886761502 -2091292.714214097 0 0 0 0 0 103466135.6732372 -7062558.30260628 -7062558.30260628 -7484561.741436942 0 0 0 0 0 102577786.2214374 -7325246.13068172 -7325246.13068172 -6878847.159190719 0 0 0 0 0 103387575.3198379 -7196670.751101186 -7196670.751101186 -6945968.712770283 0 0 0 0 0 102071131.371024 -7521532.009201996 -7521532.009201996 -6416781.855241059 0 0 0 0 0 101357175.2844484 -7753036.563489654 -7753036.563489654 -6078039.821746664 0 0 0 0 0 109291773.1901055 2533828.83051577 2533828.83051577 15859497.24292373 0 0 0 0 0 109238513.8686309 3098272.62873478 3098272.62873478 15012602.32886533 0 0 0 0 0 109194864.3024838 3585309.688733844 3585309.688733844 14094170.99578967 0 0 0 0 0 109215055.800499 4001292.838188897 4001292.838188897 13160143.59305686 0 0 0 0 0 109216205.1273089 1546074.001750354 1546074.001750354 16700205.22740056 0 0 0 0 0 109098114.26603 820859.8561767259 820859.8561767259 16838608.03865389 0 0 0 0 0 109094158.2784426 2119793.059304911 2119793.059304911 16098824.44983284 0 0 0 0 0 108767146.8515527 218567.0153968714 218567.0153968714 16444360.37634835 0 0 0 0 0 109241288.1929158 4344704.500381077 4344704.500381077 12145689.0133038 0 0 0 0 0 109303433.8833922 4656709.994709852 4656709.994709852 11239417.69884603 0 0 0 0 0 109340492.3128993 4845020.592444685 4845020.592444685 10062615.06144552 0 0 0 0 0 109234101.9017186 4915709.28858656 4915709.28858656 9390598.997336231 0 0 0 0 0 109444296.1533151 5066336.034888203 5066336.034888203 8478106.786708141 0 0 0 0 0 109556324.7463946 5238062.028325822 5238062.028325822 7419274.837147938 0 0 0 0 0 109254198.2864521 5000208.656692124 5000208.656692124 7014071.335284712 0 0 0 0 0 104261253.9236406 -6573573.418304596 -6573573.418304596 -7571935.936009634 0 0 0 0 0 105004858.6994465 -6042202.01865162 -6042202.01865162 -7604000.755628842 0 0 0 0 0 105715605.857201 -5475514.70287713 -5475514.70287713 -7576532.042238772 0 0 0 0 0 106381474.7781774 -4878978.430708844 -4878978.430708844 -7487086.400251797 0 0 0 0 0 106997628.7704426 -4258757.173290626 -4258757.173290626 -7334494.65201417 0 0 0 0 0 107559046.9446641 -3621249.194807914 -3621249.194807914 -7118752.606328425 0 0 0 0 0 108061520.0218633 -2973830.889368847 -2973830.889368847 -6840489.629970853 0 0 0 0 0 108501909.3284399 -2323267.685923889 -2323267.685923889 -6500359.781121949 0 0 0 0 0 108878484.2614767 -1676416.411978815 -1676416.411978815 -6103218.688759632 0 0 0 0 0 109191010.1071712 -1039829.664723366 -1039829.664723366 -5650982.815374384 0 0 0 0 0 109438613.3603322 -419164.4497420653 -419164.4497420653 -5153464.271918885 0 0 0 0 0 109623431.507615 168671.413136885 168671.413136885 -4614213.918531895 0 0 0 0 0 109772286.5818847 727175.7164543919 727175.7164543919 -4022601.977766138 0 0 0 0 0 109855450.0032525 1245812.07790956 1245812.07790956 -3452636.154102063 0 0 0 0 0 109993158.7516905 1656738.50236611 1656738.50236611 -3016323.860191371 0 0 0 0 0 109887033.8364934 2302742.509064041 2302742.509064041 -2014122.036076815 0 0 0 0 0 109619936.3430579 1715572.033134107 1715572.033134107 -2865952.24531447 0 0 0 0 0 104138523.6197324 -6745602.177228658 -6745602.177228658 -7036049.739252051 0 0 0 0 0 102745750.0909266 -7240777.950494713 -7240777.950494713 -6747886.666415997 0 0 0 0 0 103141033.6019343 -6958364.256471599 -6958364.256471599 -7177470.293703536 0 0 0 0 0 101259369.6534883 -7689061.033341444 -7689061.033341444 -6652494.553332113 0 0 0 0 0 101911457.3127054 -7419162.007010983 -7419162.007010983 -6732535.494554892 0 0 0 0 0 109051375.2536312 2714264.148795731 2714264.148795731 15456504.78972936 0 0 0 0 0 109024581.8888486 3274611.3095217 3274611.3095217 14724559.30950343 0 0 0 0 0 109041634.7444818 3741882.688563879 3741882.688563879 13986502.58758595 0 0 0 0 0 109093781.8683755 4154155.737354185 4154155.737354185 13182763.783983 0 0 0 0 0 108883434.9065443 1359896.539477476 1359896.539477476 16340685.36479476 0 0 0 0 0 108808793.8171414 997090.1312839841 997090.1312839841 16512202.66300326 0 0 0 0 0 108791151.1770512 1967413.444326367 1967413.444326367 15847566.46835702 0 0 0 0 0 108492709.2786767 384023.7350278897 384023.7350278897 16156087.23614647 0 0 0 0 0 109121644.0733941 4475657.04663558 4475657.04663558 12390423.52940179 0 0 0 0 0 109174366.2975235 4730094.339999323 4730094.339999323 10857162.03608423 0 0 0 0 0 109118284.8585968 4769321.856295853 4769321.856295853 10896050.00433592 0 0 0 0 0 109171473.1980228 5043254.662727728 5043254.662727728 9337625.493382582 0 0 0 0 0 109408425.1652769 5155643.466683801 5155643.466683801 8400316.858462946 0 0 0 0 0 109072527.2402674 4933412.534657199 4933412.534657199 8022255.168297819 0 0 0 0 0 104855857.509694 -6291126.977719598 -6291126.977719598 -7169924.195588646 0 0 0 0 0 105548308.2461628 -5784293.363285174 -5784293.363285174 -7234054.763062814 0 0 0 0 0 106198561.2289171 -5246531.172194895 -5246531.172194895 -7248647.181815908 0 0 0 0 0 106801159.9558456 -4680840.488184048 -4680840.488184048 -7206207.194633406 0 0 0 0 0 107351083.8206614 -4093528.053105521 -4093528.053105521 -7105869.568852704 0 0 0 0 0 107845074.1443548 -3490252.279192217 -3490252.279192217 -6946633.001514815 0 0 0 0 0 108280038.8067808 -2877954.832975728 -2877954.832975728 -6728902.220625353 0 0 0 0 0 108653367.6543036 -2263245.204827846 -2263245.204827846 -6452917.499829453 0 0 0 0 0 108965464.6352631 -1650959.843720281 -1650959.843720281 -6118941.460591896 0 0 0 0 0 109214583.3525599 -1049214.026369317 -1049214.026369317 -5732305.853882433 0 0 0 0 0 109401711.1321427 -460857.0135722369 -460857.0135722369 -5292939.275865347 0 0 0 0 0 109552229.7295469 106486.8954436591 106486.8954436591 -4815254.947888035 0 0 0 0 0 109634195.0628594 622262.2072404237 622262.2072404237 -4314956.32528457 0 0 0 0 0 109727523.7437257 1156412.672823367 1156412.672823367 -3748227.331358527 0 0 0 0 0 109377450.0369948 1289513.837570872 1289513.837570872 -3445469.66150932 0 0 0 0 0 109398333.4868669 1985934.376721257 1985934.376721257 -2611508.019118109 0 0 0 0 0 109794482.2093665 1905759.09041321 1905759.09041321 -2557365.910117329 0 0 0 0 0 103884080.9571043 -6523574.904200168 -6523574.904200168 -7296498.272236873 0 0 0 0 0 102895533.6873152 -6856225.462906374 -6856225.462906374 -6577636.432153631 0 0 0 0 0 103756950.8730061 -6656881.929828766 -6656881.929828766 -6756165.944707463 0 0 0 0 0 101959418.557407 -7271688.184586732 -7271688.184586732 -6114947.89227057 0 0 0 0 0 102586763.4979575 -7105973.647053522 -7105973.647053522 -6376692.121941978 0 0 0 0 0 108756336.5141797 2546548.983437438 2546548.983437438 15126566.99115693 0 0 0 0 0 108658664.82818 3060986.672121294 3060986.672121294 14287008.33203343 0 0 0 0 0 108709777.1806647 3530628.099773809 3530628.099773809 13529637.17726054 0 0 0 0 0 108777230.5103948 3947970.255925805 3947970.255925805 12682472.65450643 0 0 0 0 0 108618382.1871653 1539562.775699513 1539562.775699513 15968531.55682522 0 0 0 0 0 108485509.3020909 794388.280890408 794388.280890408 16028298.90635641 0 0 0 0 0 108543625.6604886 2124131.843986553 2124131.843986553 15283753.10793141 0 0 0 0 0 108178309.0994295 188922.8698483546 188922.8698483546 15716046.28444703 0 0 0 0 0 108813965.4259443 4297951.645113356 4297951.645113356 11572623.47944327 0 0 0 0 0 108804606.1939696 4423440.446416597 4423440.446416597 11682651.54899137 0 0 0 0 0 108875824.2020619 4714001.2755024 4714001.2755024 10103988.40310122 0 0 0 0 0 108858367.012147 4813934.133396881 4813934.133396881 8948953.474201635 0 0 0 0 0 108669479.9079929 4614780.212453667 4614780.212453667 9955731.94771277 0 0 0 0 0 104586730.6419605 -6031044.925684465 -6031044.925684465 -7350842.042280338 0 0 0 0 0 105275519.6772843 -5503908.624950471 -5503908.624950471 -7349374.56944181 0 0 0 0 0 105924251.9535995 -4947789.583586043 -4947789.583586043 -7290423.85215044 0 0 0 0 0 106527714.9764674 -4367328.656960994 -4367328.656960994 -7172526.904946375 0 0 0 0 0 107081713.4056974 -3768003.191437018 -3768003.191437018 -6995724.409143974 0 0 0 0 0 107582804.3730834 -3155974.564577058 -3155974.564577058 -6760520.049246104 0 0 0 0 0 108027554.574927 -2538261.794674 -2538261.794674 -6467234.740074548 0 0 0 0 0 108412480.0251037 -1921698.619759603 -1921698.619759603 -6117815.716605904 0 0 0 0 0 108739404.0983104 -1311184.754891859 -1311184.754891859 -5716046.969331612 0 0 0 0 0 109007400.7343986 -716054.7246637226 -716054.7246637226 -5259732.63044887 0 0 0 0 0 109198721.3635157 -128154.0697996617 -128154.0697996617 -4797887.396237737 0 0 0 0 0 109383269.4340631 413034.5056192123 413034.5056192123 -4285216.379959054 0 0 0 0 0 109468106.9988989 910560.7620803204 910560.7620803204 -3702543.566692082 0 0 0 0 0 109597864.4161563 1518010.81325247 1518010.81325247 -3019423.619531449 0 0 0 0 0 109231864.5909801 1577953.730551245 1577953.730551245 -3018423.567477148 0 0 0 0 0 104448450.9236284 -6250190.873846034 -6250190.873846034 -6898813.424836434 0 0 0 0 0 102901755.2750819 -6808226.9759482 -6808226.9759482 -6940239.145723153 0 0 0 0 0 102519653.6966146 -7013667.685332058 -7013667.685332058 -6758567.541786151 0 0 0 0 0 103496330.4445252 -6460062.885637007 -6460062.885637007 -7031060.812943559 0 0 0 0 0 101863324.6076881 -7199070.644776962 -7199070.644776962 -6601462.461125948 0 0 0 0 0 108536661.3869746 2695821.18549038 2695821.18549038 14699194.33383036 0 0 0 0 0 108471129.7486663 3214768.193083307 3214768.193083307 14060253.16696671 0 0 0 0 0 108542000.6899343 3669483.858649295 3669483.858649295 13168513.30783957 0 0 0 0 0 108642843.6743579 4054240.298216023 4054240.298216023 12378652.9087825 0 0 0 0 0 108258356.1093348 1342083.729226761 1342083.729226761 15602066.95422761 0 0 0 0 0 108253547.814348 935757.347023537 935757.347023537 15772800.87826361 0 0 0 0 0 108358081.4981639 2075233.506407818 2075233.506407818 15287699.63996684 0 0 0 0 0 107923874.8354308 343632.862598437 343632.862598437 15453835.77585751 0 0 0 0 0 108565631.8963907 4042562.569909093 4042562.569909093 12391163.67898911 0 0 0 0 0 108582027.6520643 4401175.808400589 4401175.808400589 10944855.10578213 0 0 0 0 0 108473483.2568725 4374811.3917487 4374811.3917487 10902127.99554156 0 0 0 0 0 105122741.2846386 -5774911.148642366 -5774911.148642366 -6980247.575918926 0 0 0 0 0 105755910.2121019 -5275026.88861713 -5275026.88861713 -7018619.164597039 0 0 0 0 0 106345653.0857943 -4747718.016011367 -4747718.016011367 -7002791.910398955 0 0 0 0 0 106888095.3894767 -4197273.987167552 -4197273.987167552 -6931846.03392851 0 0 0 0 0 107379656.2061001 -3629319.04103655 -3629319.04103655 -6805820.031917184 0 0 0 0 0 107817604.2798611 -3049688.702712198 -3049688.702712198 -6625095.447595281 0 0 0 0 0 108198899.5885749 -2465454.083722652 -2465454.083722652 -6390786.864670562 0 0 0 0 0 108524212.5920785 -1881412.184217223 -1881412.184217223 -6101966.163274743 0 0 0 0 0 108794905.273795 -1302027.084157681 -1302027.084157681 -5759533.424874296 0 0 0 0 0 108999068.9607391 -742850.6058941034 -742850.6058941034 -5373334.205081915 0 0 0 0 0 109194368.0417702 -145044.8967439452 -145044.8967439452 -4891792.092862201 0 0 0 0 0 109265239.5931914 338357.445757201 338357.445757201 -4460176.906588765 0 0 0 0 0 109196331.0370943 745728.3111757794 745728.3111757794 -4042933.353972107 0 0 0 0 0 108997213.3745477 1156088.217689898 1156088.217689898 -3515648.54778425 0 0 0 0 0 104189771.471586 -6002800.134536767 -6002800.134536767 -7099741.246926858 0 0 0 0 0 103462910.3062094 -6556010.37306615 -6556010.37306615 -6623273.839993789 0 0 0 0 0 102807446.3196968 -6670099.293490641 -6670099.293490641 -6425699.483346155 0 0 0 0 0 104077700.5374646 -6156447.762223844 -6156447.762223844 -6623871.201337639 0 0 0 0 0 102503268.5849324 -6804687.476642873 -6804687.476642873 -6119566.040408251 0 0 0 0 0 108263598.8847655 2523274.201198359 2523274.201198359 14270641.53527361 0 0 0 0 0 108226858.9889401 3064746.811093022 3064746.811093022 13736753.96501804 0 0 0 0 0 108348641.9754379 3595500.555906128 3595500.555906128 13064645.52800707 0 0 0 0 0 108053310.4766248 1494897.702070713 1494897.702070713 15297547.88041689 0 0 0 0 0 107927222.3054841 726559.6636834571 726559.6636834571 15177488.71211011 0 0 0 0 0 108061007.1086219 2086637.957420216 2086637.957420216 14298243.15101909 0 0 0 0 0 107654624.180501 179996.2691665648 179996.2691665648 15102992.7926503 0 0 0 0 0 108355984.7413776 4032353.046904335 4032353.046904335 11692943.71125969 0 0 0 0 0 108257691.1240866 4039394.377525509 4039394.377525509 11712617.98661626 0 0 0 0 0 104864555.8702237 -5515798.716908475 -5515798.716908475 -7120956.426863661 0 0 0 0 0 105494766.5933919 -4997968.946224774 -4997968.946224774 -7089366.705981639 0 0 0 0 0 106084992.9287622 -4455212.871057093 -4455212.871057093 -7001684.719435589 0 0 0 0 0 106630080.3136045 -3892480.769753022 -3892480.769753022 -6859046.776105106 0 0 0 0 0 107126932.077484 -3314961.365529877 -3314961.365529877 -6661824.109353986 0 0 0 0 0 107572500.4962695 -2728674.849002513 -2728674.849002513 -6411882.560575951 0 0 0 0 0 107962744.3409674 -2139736.997897435 -2139736.997897435 -6109081.130664767 0 0 0 0 0 108300839.200145 -1555767.833568779 -1555767.833568779 -5751920.486312897 0 0 0 0 0 108590042.4513085 -983885.624426392 -983885.624426392 -5350196.214544249 0 0 0 0 0 108806040.1349547 -413155.6061712474 -413155.6061712474 -4853982.137082981 0 0 0 0 0 108882240.9047579 89769.77765485234 89769.77765485234 -4480172.8399538 0 0 0 0 0 109234943.1538248 611499.2176506667 611499.2176506667 -3869933.964745034 0 0 0 0 0 109278457.2854179 1082683.541141617 1082683.541141617 -3404811.833000069 0 0 0 0 0 104724845.1007491 -5749476.758213989 -5749476.758213989 -6741248.025360855 0 0 0 0 0 103248483.499492 -6324074.367765731 -6324074.367765731 -6732836.401325806 0 0 0 0 0 102443166.4603146 -6758615.02974504 -6758615.02974504 -6571603.965986977 0 0 0 0 0 103854154.7796084 -5962224.911114247 -5962224.911114247 -6857953.525561347 0 0 0 0 0 108098695.2062731 2546220.770630068 2546220.770630068 14638328.38647892 0 0 0 0 0 108004631.9965226 3145259.795186123 3145259.795186123 13054318.46861301 0 0 0 0 0 108148188.7941813 3628518.27006558 3628518.27006558 12406235.3141657 0 0 0 0 0 107761361.1547533 1298625.160217416 1298625.160217416 14747361.79918592 0 0 0 0 0 107709131.5924552 805215.6911418125 805215.6911418125 15227865.91440636 0 0 0 0 0 107849296.2267707 1970383.754108464 1970383.754108464 14893228.67045471 0 0 0 0 0 107454067.5669017 317542.4487621842 317542.4487621842 14740962.1075889 0 0 0 0 0 108052319.3161745 3647508.37697234 3647508.37697234 12454888.64942354 0 0 0 0 0 105340517.8519948 -5288980.742642553 -5288980.742642553 -6793129.42891646 0 0 0 0 0 105917190.8763276 -4796597.963420269 -4796597.963420269 -6796935.464086171 0 0 0 0 0 106450138.6321213 -4281752.044640413 -4281752.044640413 -6752186.686163364 0 0 0 0 0 106937025.9871949 -3747959.035874913 -3747959.035874913 -6655572.604611455 0 0 0 0 0 107374622.3564082 -3200367.508301237 -3200367.508301237 -6507246.280143848 0 0 0 0 0 107758492.9077605 -2645322.973316742 -2645322.973316742 -6308548.900220943 0 0 0 0 0 108077007.1616727 -2092167.272194891 -2092167.272194891 -6062779.926994866 0 0 0 0 0 108337833.4156209 -1550275.570736584 -1550275.570736584 -5783708.80213114 0 0 0 0 0 108530099.9798242 -1030341.356501298 -1030341.356501298 -5476033.754499402 0 0 0 0 0 108610936.490315 -539462.9455323152 -539462.9455323152 -5112959.835471141 0 0 0 0 0 109091577.3547217 255429.7092932868 255429.7092932868 -4236478.410405917 0 0 0 0 0 108798962.5668654 351380.9481797429 351380.9481797429 -4358493.261427244 0 0 0 0 0 108757796.0054183 773104.3082608689 773104.3082608689 -3901873.630150006 0 0 0 0 0 104489907.2699179 -5517525.122985517 -5517525.122985517 -6893917.037169687 0 0 0 0 0 103710371.7983881 -6065717.180632397 -6065717.180632397 -6389404.628238373 0 0 0 0 0 103004361.4229809 -6350100.874536532 -6350100.874536532 -6090617.771533049 0 0 0 0 0 104356498.149522 -5711429.610934858 -5711429.610934858 -6485680.967101821 0 0 0 0 0 107741438.5965615 2434050.376066064 2434050.376066064 13514637.81891163 0 0 0 0 0 107736025.6993595 2708587.552746437 2708587.552746437 13820200.18345449 0 0 0 0 0 107873532.1723847 3192671.272324517 3192671.272324517 13150974.07291901 0 0 0 0 0 107555254.9071187 1404422.120967708 1404422.120967708 14185064.62027915 0 0 0 0 0 107458472.5576072 731819.0845000991 731819.0845000991 14409446.72956121 0 0 0 0 0 107502732.9255246 1833094.868930087 1833094.868930087 13849864.63128894 0 0 0 0 0 107319856.699721 306213.8351566147 306213.8351566147 14834293.95571831 0 0 0 0 0 105095898.9491034 -5032852.495247063 -5032852.495247063 -6882846.702482967 0 0 0 0 0 105668190.768052 -4524093.064783369 -4524093.064783369 -6825036.023104058 0 0 0 0 0 106203278.7290787 -3996682.143204629 -3996682.143204629 -6712446.023331229 0 0 0 0 0 106694516.6884522 -3453042.643703353 -3453042.643703353 -6548025.203801321 0 0 0 0 0 107139991.3180811 -2899476.943439595 -2899476.943439595 -6332290.1566069 0 0 0 0 0 107536855.0370803 -2343606.499539068 -2343606.499539068 -6066124.423170273 0 0 0 0 0 107865862.2077517 -1783838.464954324 -1783838.464954324 -5755844.692739505 0 0 0 0 0 108230184.5067492 -1246563.924869706 -1246563.924869706 -5366269.571968218 0 0 0 0 0 108496952.6614514 -706137.2134564244 -706137.2134564244 -4906382.075607497 0 0 0 0 0 108703272.9700065 -152971.7956032314 -152971.7956032314 -4476290.126950634 0 0 0 0 0 108588197.5062428 -51025.56013040411 -51025.56013040411 -4648088.403521984 0 0 0 0 0 108979442.6106625 681264.5609759637 681264.5609759637 -3756902.844365132 0 0 0 0 0 104947834.304543 -5296676.767004225 -5296676.767004225 -6563959.499406835 0 0 0 0 0 103495108.8094096 -5900436.893323941 -5900436.893323941 -6611507.440213881 0 0 0 0 0 102860871.285689 -6268604.470695585 -6268604.470695585 -6498415.975369177 0 0 0 0 0 104117743.6914401 -5503533.114249351 -5503533.114249351 -6682440.396025743 0 0 0 0 0 107585096.1738954 2168203.079583241 2168203.079583241 14253722.71412092 0 0 0 0 0 107386701.9019252 955688.6277897293 955688.6277897293 14807901.26224276 0 0 0 0 0 107454007.138475 1549491.791265988 1549491.791265988 14539988.861735 0 0 0 0 0 105514000.9136691 -4832900.096624339 -4832900.096624339 -6586918.056031608 0 0 0 0 0 106036836.7944061 -4348177.307750992 -4348177.307750992 -6569539.867877349 0 0 0 0 0 106517722.1410305 -3847571.558726759 -3847571.558726759 -6498984.392912203 0 0 0 0 0 106955682.5929136 -3331013.647141817 -3331013.647141817 -6379404.686214041 0 0 0 0 0 107346652.3393613 -2805764.831095574 -2805764.831095574 -6212384.64235831 0 0 0 0 0 107693514.6226915 -2277604.362237263 -2277604.362237263 -5999731.763329154 0 0 0 0 0 107991042.1709484 -1730342.012031867 -1730342.012031867 -5719762.379365987 0 0 0 0 0 108144986.4518016 -1304440.298275084 -1304440.298275084 -5504872.399027348 0 0 0 0 0 108208929.7106883 -886602.7449016103 -886602.7449016103 -5257487.492675388 0 0 0 0 0 108235115.0080629 -409864.9278173876 -409864.9278173876 -4895048.207539193 0 0 0 0 0 108726577.3829683 294620.3422813046 294620.3422813046 -4012397.6499605 0 0 0 0 0 108511647.8936046 408543.1888107906 408543.1888107906 -4194449.302822237 0 0 0 0 0 104721706.0590139 -5057703.837277134 -5057703.837277134 -6684360.268133646 0 0 0 0 0 104037453.357518 -5592999.004114382 -5592999.004114382 -6211514.54906355 0 0 0 0 0 103418197.4957191 -5917790.601176477 -5917790.601176477 -6044998.898604253 0 0 0 0 0 104612049.8993319 -5247831.980056908 -5247831.980056908 -6322318.590343641 0 0 0 0 0 105286113.3211479 -4576153.470048984 -4576153.470048984 -6642040.28546919 0 0 0 0 0 105800793.2848587 -4081781.061019241 -4081781.061019241 -6559331.347548516 0 0 0 0 0 106283887.0058573 -3569840.931240371 -3569840.931240371 -6425552.648603505 0 0 0 0 0 106728031.8724743 -3046817.629781635 -3046817.629781635 -6243607.909668491 0 0 0 0 0 107125089.8680354 -2516150.359870904 -2516150.359870904 -6017567.260277772 0 0 0 0 0 107476447.3708045 -1975273.046897647 -1975273.046897647 -5730528.370108088 0 0 0 0 0 107700422.9858283 -1520205.001831402 -1520205.001831402 -5464850.229718598 0 0 0 0 0 108156058.1268912 -1013495.366738687 -1013495.366738687 -5054262.551521318 0 0 0 0 0 108310259.546836 -548980.798194122 -548980.798194122 -4687168.543869681 0 0 0 0 0 108447823.140391 -68695.03905473129 -68695.03905473129 -4259635.714113336 0 0 0 0 0 108250012.4981732 37046.32245309232 37046.32245309232 -4433803.333797162 0 0 0 0 0 105147045.1976592 -4853936.919920401 -4853936.919920401 -6381077.738757089 0 0 0 0 0 103239975.3441286 -5803443.176065405 -5803443.176065405 -6431299.530844339 0 0 0 0 0 103821324.9397547 -5452960.389189663 -5452960.389189663 -6519476.034104303 0 0 0 0 0 104366565.2950146 -5066709.948519927 -5066709.948519927 -6545007.312671821 0 0 0 0 0 105646355.6639698 -4406918.477055647 -4406918.477055647 -6385446.844797467 0 0 0 0 0 106119777.1721057 -3929817.689630574 -3929817.689630574 -6339502.235219529 0 0 0 0 0 106555690.9455796 -3441911.624050654 -3441911.624050654 -6245613.004787771 0 0 0 0 0 106946102.2932668 -2945801.736204055 -2945801.736204055 -6106921.08107401 0 0 0 0 0 107289738.1297384 -2441410.017052616 -2441410.017052616 -5922500.196355119 0 0 0 0 0 107563572.6657308 -1943897.494730219 -1943897.494730219 -5697388.551173672 0 0 0 0 0 107949473.7169111 -1317910.40920658 -1317910.40920658 -5211124.519486183 0 0 0 0 0 107797867.8432381 -1213151.018635628 -1213151.018635628 -5403428.13435485 0 0 0 0 0 107915560.1985639 -767124.3109165858 -767124.3109165858 -5065774.180494104 0 0 0 0 0 107955339.6563208 -335177.3427626259 -335177.3427626259 -4689860.385697637 0 0 0 0 0 104932275.4603947 -4629783.166762545 -4629783.166762545 -6478486.520186143 0 0 0 0 0 103804324.4588246 -5468692.812359395 -5468692.812359395 -5968447.47588464 0 0 0 0 0 104348191.7124894 -5142576.138150476 -5142576.138150476 -6089075.297722101 0 0 0 0 0 104849666.2258466 -4811723.112330543 -4811723.112330543 -6172814.899017284 0 0 0 0 0 105438611.9781146 -4147950.818434283 -4147950.818434283 -6405867.252956 0 0 0 0 0 105898658.8563267 -3667348.483172681 -3667348.483172681 -6295075.495588643 0 0 0 0 0 106338186.1347147 -3175708.079029356 -3175708.079029356 -6141259.042752556 0 0 0 0 0 106735656.2804872 -2674212.537492222 -2674212.537492222 -5941330.306934923 0 0 0 0 0 107087096.5872146 -2171516.022901775 -2171516.022901775 -5700940.265429609 0 0 0 0 0 107434779.2020653 -1600392.287995321 -1600392.287995321 -5369619.435307903 0 0 0 0 0 107544273.3857594 -1533302.395235115 -1533302.395235115 -5487768.308125835 0 0 0 0 0 107985663.7261353 -887026.1891947195 -887026.1891947195 -4862892.613390165 0 0 0 0 0 108098486.3291823 -452146.0187994546 -452146.0187994546 -4493515.698481267 0 0 0 0 0 105282194.6283133 -4472084.458404217 -4472084.458404217 -6245553.594231457 0 0 0 0 0 103611368.9126644 -5345363.728834019 -5345363.728834019 -6302306.522765677 0 0 0 0 0 104137813.4345029 -5009045.606343069 -5009045.606343069 -6376410.783450917 0 0 0 0 0 104590554.4917925 -4642276.97782936 -4642276.97782936 -6382127.044403071 0 0 0 0 0 105697292.7560916 -4034902.966175658 -4034902.966175658 -6242520.008667435 0 0 0 0 0 106177403.6061918 -3535968.343422399 -3535968.343422399 -6102675.94308253 0 0 0 0 0 106567963.7859282 -3068377.422818289 -3068377.422818289 -5993014.730546123 0 0 0 0 0 106921489.2902008 -2590711.478075679 -2590711.478075679 -5837031.092339118 0 0 0 0 0 107240854.3823975 -2108511.324521991 -2108511.324521991 -5643451.777436784 0 0 0 0 0 107458058.9634227 -1619505.059704312 -1619505.059704312 -5399975.101251165 0 0 0 0 0 107671039.0944004 -1204750.406497831 -1204750.406497831 -4952220.854980249 0 0 0 0 0 107616710.5322727 -1090387.788441936 -1090387.788441936 -5178462.602696043 0 0 0 0 0 107657356.8710901 -685595.5056173807 -685595.5056173807 -4874920.146963021 0 0 0 0 0 105141759.6124817 -4205981.513769157 -4205981.513769157 -6131073.118474755 0 0 0 0 0 104124377.1524574 -5039531.520016814 -5039531.520016814 -5876067.946524341 0 0 0 0 0 104637182.0247152 -4710102.291617151 -4710102.291617151 -5951531.688064916 0 0 0 0 0 105075571.1835236 -4372134.274156709 -4372134.274156709 -5964372.080812862 0 0 0 0 0 105520648.9744332 -3757811.483537384 -3757811.483537384 -6147242.34841829 0 0 0 0 0 105963617.9553409 -3281898.623906987 -3281898.623906987 -6035188.305825493 0 0 0 0 0 106360855.3418452 -2808693.079777892 -2808693.079777892 -5865447.763415402 0 0 0 0 0 106718286.180887 -2321258.873655891 -2321258.873655891 -5644590.636385361 0 0 0 0 0 107018654.9421027 -1823811.474729278 -1823811.474729278 -5362755.706162222 0 0 0 0 0 107125029.5684405 -1442774.698837175 -1442774.698837175 -5298269.125003536 0 0 0 0 0 107785541.5310666 -806840.6507375048 -806840.6507375048 -4680648.549716567 0 0 0 0 0 104946983.9015458 -4272517.688308891 -4272517.688308891 -6234793.452124679 0 0 0 0 0 103931166.6943193 -4916909.696503259 -4916909.696503259 -6170597.384090241 0 0 0 0 0 104430219.6754303 -4583146.34190228 -4583146.34190228 -6191534.986980001 0 0 0 0 0 105798063.0403697 -3609976.096416696 -3609976.096416696 -5917172.057210789 0 0 0 0 0 106194783.5811421 -3172294.819928121 -3172294.819928121 -5878353.632282704 0 0 0 0 0 106540823.9302426 -2724676.644433207 -2724676.644433207 -5749556.975421207 0 0 0 0 0 106837670.604477 -2274483.843406348 -2274483.843406348 -5593518.033776577 0 0 0 0 0 107075776.9364309 -1821053.743636697 -1821053.743636697 -5387037.223201016 0 0 0 0 0 107478179.6348718 -1140162.432805581 -1140162.432805581 -4834238.87567181 0 0 0 0 0 107349009.1101881 -1024163.907124752 -1024163.907124752 -5023675.212716954 0 0 0 0 0 105305131.9993743 -3931194.189048851 -3931194.189048851 -5850766.587895417 0 0 0 0 0 104416091.8457912 -4622692.380998074 -4622692.380998074 -5760073.843634626 0 0 0 0 0 104880866.5392241 -4299002.338731972 -4299002.338731972 -5824999.104788369 0 0 0 0 0 105587977.0376426 -3376796.589116681 -3376796.589116681 -5926025.870869572 0 0 0 0 0 105172089.6419686 -3845858.276437122 -3845858.276437122 -6072495.346987725 0 0 0 0 0 105997285.3207982 -2929817.24299761 -2929817.24299761 -5780257.327912218 0 0 0 0 0 106375672.1592254 -2468842.692681527 -2468842.692681527 -5577224.340369244 0 0 0 0 0 106687080.8380712 -1992315.92489233 -1992315.92489233 -5313998.340732104 0 0 0 0 0 106943214.8026286 -1482517.237375583 -1482517.237375583 -4981169.598885782 0 0 0 0 0 107036256.0615898 -1344555.14325543 -1344555.14325543 -5127070.875672789 0 0 0 0 0 104645561.634622 -4156228.991314004 -4156228.991314004 -6066960.702483719 0 0 0 0 0 104206446.0625738 -4490271.188691606 -4490271.188691606 -6034463.589938973 0 0 0 0 0 105844162.2795247 -3254949.046881518 -3254949.046881518 -5750410.760508267 0 0 0 0 0 105520649.1187573 -3574365.557882258 -3574365.557882258 -5689806.735417593 0 0 0 0 0 106177762.3507321 -2840851.103144232 -2840851.103144232 -5654157.764331583 0 0 0 0 0 106431973.0308112 -2449908.949467974 -2449908.949467974 -5564523.90780867 0 0 0 0 0 106631101.7797783 -2036488.522678169 -2036488.522678169 -5401995.642541754 0 0 0 0 0 106727587.8554668 -1599566.576430584 -1599566.576430584 -5167134.637109854 0 0 0 0 0 105066475.5820681 -3864690.116907422 -3864690.116907422 -5649891.401955377 0 0 0 0 0 104661012.4712394 -4214599.373112859 -4214599.373112859 -5629433.006759252 0 0 0 0 0 105633827.3492503 -3036344.143480576 -3036344.143480576 -5686913.816107426 0 0 0 0 0 105294367.176548 -3437386.041730413 -3437386.041730413 -5807642.599166255 0 0 0 0 0 104945458.7662128 -3775979.310190964 -3775979.310190964 -5897266.082638373 0 0 0 0 0 106032382.9458714 -2616636.590272135 -2616636.590272135 -5489322.83695178 0 0 0 0 0 106380791.7922804 -2180991.79564588 -2180991.79564588 -5262089.603483327 0 0 0 0 0 106660826.9502176 -1725651.491449474 -1725651.491449474 -4991593.92160625 0 0 0 0 0 104421581.9320549 -4061192.764969148 -4061192.764969148 -5869697.740812041 0 0 0 0 0 105846984.3223684 -2927212.95972976 -2927212.95972976 -5546922.096783798 0 0 0 0 0 105534353.3683969 -3322115.985434272 -3322115.985434272 -5665121.119499141 0 0 0 0 0 105178314.5436407 -3467288.883990777 -3467288.883990777 -5566013.582233614 0 0 0 0 0 106106369.4388628 -2590344.248529826 -2590344.248529826 -5477338.764716236 0 0 0 0 0 106273527.3034463 -2246145.953954341 -2246145.953954341 -5388864.795665684 0 0 0 0 0 106405695.3625086 -1858537.837316586 -1858537.837316586 -5211319.033917202 0 0 0 0 0 104844039.3366536 -3819776.161427388 -3819776.161427388 -5491969.287738723 0 0 0 0 0 105391263.2926418 -3107733.9405498 -3107733.9405498 -5553563.481167768 0 0 0 0 0 105655941.9196517 -2753397.630733126 -2753397.630733126 -5454002.456080935 0 0 0 0 0 105033965.9494865 -3502928.259916471 -3502928.259916471 -5618961.795037929 0 0 0 0 0 106068665.6854074 -2379249.429143386 -2379249.429143386 -5232492.839971933 0 0 0 0 0 106333266.0702496 -1970325.081472118 -1970325.081472118 -5021953.207812718 0 0 0 0 0 104646052.9960926 -3648652.274056924 -3648652.274056924 -5580624.129702747 0 0 0 0 0 105510417.8671155 -3038677.4982431 -3038677.4982431 -5414380.20899293 0 0 0 0 0 105909367.5599122 -2572899.654643441 -2572899.654643441 -5186200.765796676 0 0 0 0 0 105176714.7062069 -3216911.574064626 -3216911.574064626 -5341042.118276281 0 0 0 0 0 105876190.9550135 -2481168.312461602 -2481168.312461602 -5414620.080123051 0 0 0 0 0 106076013.6401175 -2106499.012703952 -2106499.012703952 -5250626.182312911 0 0 0 0 0 104965512.4915022 -3486486.838601802 -3486486.838601802 -5350712.128023344 0 0 0 0 0 105510152.2515659 -2786649.205778424 -2786649.205778424 -5252432.521063461 0 0 0 0 0 105278724.0246825 -3175301.12691283 -3175301.12691283 -5497754.868579555 0 0 0 0 0 105524824.8988286 -2739280.417660705 -2739280.417660705 -5405434.31427038 0 0 0 0 0 104760083.3015565 -3372068.966037314 -3372068.966037314 -5538063.302516897 0 0 0 0 0 106019586.9521117 -2210187.491362449 -2210187.491362449 -5037199.32917433 0 0 0 0 0 105273270.2841839 -2921778.432569447 -2921778.432569447 -5326086.339981175 0 0 0 0 0 105725597.0989505 -2453747.719323213 -2453747.719323213 -5025157.485639481 0 0 0 0 0 105109368.5261118 -3126486.987153775 -3126486.987153775 -5183431.375903774 0 0 0 0 0 105751642.8807899 -2343020.646621061 -2343020.646621061 -5249829.686581301 0 0 0 0 0 105357095.5729842 -2874967.450577731 -2874967.450577731 -5235905.85712846 0 0 0 0 0 105433484.9044875 -2576951.265529758 -2576951.265529758 -5213663.937906518 0 0 0 0 0 104911317.3336895 -3021583.009942203 -3021583.009942203 -5305849.952544373 0 0 0 0 0 105266316.7517913 -2662029.281832701 -2662029.281832701 -5059245.024842143 0 0 0 0 0 105176504.3489281 -2807613.907580214 -2807613.907580214 -5022616.290854277 0 0 0 0 0 105114027.7600602 -2749981.608399623 -2749981.608399623 -5174202.527514376 0 0 0 0 0 </DataArray>
      </CellData>
      <PointData>
        <DataArray type="Int64" IdType="1" Name="vtkOriginalPointIds" format="ascii" RangeMin="0" RangeMax="1811">154 0 1771 5 214 1214 153 6 1102 1213 209 7 152 1731 1211 8 185 1098 975 1212 181 151 1757 9 1591 1766 766 749 1050 1263 1714 150 1166 10 1768 1065 673 1173 672 1421 1783 1047 11 149 1071 999 1088 171 165 1806 757 571 1415 1191 668 681 1027 12 148 1131 659 1722 1320 13 1101 1700 756 565 514 1414 570 669 682 1077 1389 203 147 1129 625 1761 14 188 1797 984 1130 513 1538 464 480 504 1018 1310 914 1070 1394 1704 15 146 983 1464 160 16 1112 1128 755 1484 418 1323 1565 441 481 509 1577 913 689 1371 1082 1730 145 1079 692 1161 1794 17 155 219 1526 560 763 414 413 454 776 1500 1003 1160 1163 676 675 951 1066 204 1275 144 221 629 1388 18 217 218 220 223 225 916 394 1522 412 703 1007 1198 1193 773 1278 615 670 952 1274 1441 1133 143 222 1509 1672 19 1799 189 1109 500 1668 224 226 1669 391 393 634 1448 1524 1561 636 696 765 614 546 1427 1276 1039 1737 1068 1038 20 21 168 142 1458 229 988 1456 22 1111 1699 1132 1695 992 227 228 1417 390 389 423 635 1301 786 1332 695 764 769 543 544 582 1418 702 1248 974 1791 207 23 25 26 1696 176 24 1472 141 1457 230 1134 1726 1759 1764 27 28 190 166 1069 904 1692 940 941 1471 231 233 388 1331 387 1468 705 392 521 540 1277 1533 1292 542 545 583 600 683 1393 1067 1150 1245 1254 1749 29 30 216 140 1798 1010 232 1293 1042 1255 1253 1244 1777 1 1118 1756 1242 881 859 857 858 1009 1550 1557 234 385 1322 1251 386 1250 1252 520 539 541 986 611 534 1465 586 587 601 684 743 1149 1697 1205 704 1702 31 139 1505 235 237 744 778 680 1202 1201 1116 985 962 882 860 841 840 1513 1442 994 1425 236 384 383 1365 889 1487 890 1335 1469 709 900 700 610 243 1537 708 1470 685 686 1151 1204 1773 630 211 32 138 853 1568 238 1493 777 574 1203 1200 186 1043 963 884 883 1529 822 821 1367 839 879 987 239 376 1373 382 469 487 1566 1190 993 1022 1016 1017 701 1651 1508 1604 1608 929 771 1625 631 573 1701 1199 33 137 1753 851 1156 240 1159 1222 486 1732 1075 1103 1139 1044 1045 1519 1154 1155 1532 815 816 820 838 901 1138 241 375 365 642 445 470 488 1579 1189 1031 1221 1586 1273 1653 1424 537 1272 1631 1021 459 1688 572 1074 34 184 136 1478 475 242 1620 458 484 1788 1073 215 1104 1140 1246 1763 824 1188 1562 811 812 817 825 850 1543 1157 244 364 1370 324 1368 1511 612 613 1572 1656 1652 345 1303 1271 953 1423 1639 378 1614 442 1479 1684 1054 35 1284 135 1141 856 1192 245 401 457 485 1072 1770 1781 1685 1136 837 823 818 813 808 809 1536 1489 852 854 1544 1636 246 321 1299 1558 323 329 711 706 707 334 894 896 344 354 366 927 1144 1385 377 440 1053 1346 1052 36 4 1262 1747 1488 1547 247 399 1680 1682 1712 1746 134 210 1808 1095 835 819 1336 814 807 805 1329 1582 923 855 880 1183 1184 248 320 319 1279 1280 325 332 1580 892 893 340 895 897 350 362 374 1143 536 250 1679 1041 1040 174 1051 37 133 1135 1142 262 249 400 1220 1325 1800 132 1175 1094 877 836 848 1525 1396 804 803 1300 1594 1451 885 995 368 266 256 318 1507 317 781 1587 548 1665 1261 1152 1482 361 1146 1549 1670 1673 1145 252 251 1219 967 736 38 1283 1265 182 1182 263 1503 1675 768 734 131 878 1096 870 869 849 1606 1209 802 801 826 1602 1187 1186 1623 270 267 538 316 907 1662 315 1288 518 1185 1667 1260 395 1289 1270 517 1576 1033 254 253 915 1218 966 735 39 194 130 1809 280 1616 1601 958 733 1097 627 1474 1137 1769 887 1611 1206 1207 810 800 799 1362 1599 1605 289 282 271 1624 1309 314 1447 1257 1177 304 302 300 1005 961 298 296 294 770 292 257 255 1516 1411 1330 973 1514 40 1282 129 281 1298 1006 661 597 1706 626 1196 1728 172 128 1194 998 1000 1208 1210 798 797 1285 886 1290 287 283 369 1637 780 313 331 1258 1256 1176 303 301 299 1004 662 297 295 293 261 258 259 647 1341 595 1556 910 41 164 1540 1297 779 594 596 1736 909 1195 1197 1691 127 866 865 1461 1486 1439 796 794 792 790 306 288 1521 1548 1644 652 322 1658 1181 1343 699 1180 1646 1643 398 1467 1634 1632 535 1498 260 264 1490 1008 551 1046 911 42 1296 1012 653 633 550 1515 1776 1552 1443 1328 206 126 864 862 861 1312 806 795 793 791 789 307 308 1302 955 1647 621 1648 1178 1002 926 698 585 1243 1268 1267 1638 1026 1311 1628 908 265 268 1387 1386 533 1087 1686 43 195 714 1337 499 531 580 1014 876 1058 1792 125 863 834 831 828 827 1485 912 1535 1438 309 310 476 945 1650 620 1030 1338 1174 1001 784 584 530 772 1266 946 947 996 1259 1483 269 272 402 404 532 1355 1356 1744 44 1395 555 950 439 529 1013 1551 888 1056 1750 124 1426 832 830 829 868 1570 1363 516 326 311 312 552 1422 1654 891 715 716 718 1179 1520 1333 528 720 722 724 948 1148 645 274 273 284 403 405 1499 45 1357 1358 161 618 957 1455 527 1531 1774 1495 1057 1113 123 842 833 1466 905 1019 1585 1264 333 330 1569 1542 619 739 1655 1546 589 588 717 719 1249 524 525 721 723 1459 1153 1364 276 275 1491 1492 424 425 568 46 158 741 1359 1718 738 1409 1342 526 632 1786 1234 1501 1224 122 843 844 1527 1020 1589 353 341 339 1564 1172 990 989 1657 1307 640 515 1384 489 1510 787 490 523 1428 1318 1462 446 278 277 644 1563 918 426 427 569 47 1360 740 205 991 1306 431 1477 666 976 1076 875 846 121 845 867 1613 1232 1233 352 346 347 1596 1171 1170 1164 1660 463 433 461 1287 1011 462 1321 1314 522 1315 1317 1440 285 279 1497 1588 1291 1480 428 429 920 48 964 1361 1775 1165 435 432 1541 1574 1733 959 871 847 1081 120 1619 1229 1228 1231 363 357 1663 1286 960 1223 650 649 1659 437 434 451 422 420 419 1450 1313 519 1316 1319 290 286 305 1600 933 732 549 430 1463 1567 49 1727 180 1738 1241 436 1593 1437 924 1375 1326 1689 872 873 119 1618 1227 411 379 367 1664 1032 783 782 1366 556 507 448 447 438 450 467 421 397 371 360 351 348 327 291 1539 1607 934 928 731 726 785 1168 725 50 925 1374 169 466 1640 1635 566 742 1767 968 1710 874 1626 118 1230 1226 410 380 381 1666 956 660 590 557 508 506 465 547 1345 1506 468 1419 396 370 359 349 335 328 1410 1340 1603 1609 1612 1621 942 1167 944 674 51 1810 1376 1377 1240 505 1642 1344 567 752 969 1083 970 1641 117 512 443 417 1671 1216 1215 1327 591 559 558 1453 602 1512 1645 949 1598 648 1597 1590 616 1554 1502 336 337 1339 1334 637 932 1392 1633 1169 654 655 1380 52 1378 156 208 603 1372 657 651 1379 971 1238 1147 1622 116 477 444 1674 1217 767 727 593 592 1504 1553 898 697 943 1649 694 1029 1610 1025 1444 1573 1434 1435 338 342 471 473 491 1391 617 1627 606 607 656 1693 53 1683 1381 1239 1785 737 751 693 1617 1719 1237 1236 577 553 115 478 479 1676 1324 728 623 622 624 1023 1575 972 1715 1630 954 750 712 1369 906 1305 1308 713 355 343 358 472 474 492 496 498 503 605 1481 902 938 54 197 1398 177 1742 1784 939 1724 935 1739 1086 1235 576 554 114 1678 1162 1034 730 729 1517 748 758 1024 1790 1350 1352 1354 1629 1105 638 639 1304 788 1433 372 356 1460 641 1475 493 494 497 502 604 687 1518 1725 936 55 1397 1780 1085 1705 1349 1106 1107 667 997 762 658 578 581 113 1681 1035 754 753 965 1741 1080 1496 1729 159 1351 1353 179 1740 1793 157 609 562 483 455 406 373 1429 1534 1560 917 495 1452 564 1476 688 977 1117 1796 937 56 1399 1811 1048 1530 1348 89 1158 1584 1760 759 663 1555 1687 112 1037 1036 1523 1055 1295 1807 1347 94 93 92 91 90 88 87 608 561 482 449 407 408 903 1413 1581 1015 1247 1592 1595 1028 980 1084 196 1716 1403 57 163 1782 1225 191 1754 192 95 86 1431 760 761 1063 1690 111 1093 1108 1765 1281 167 1294 96 1571 563 1545 1449 409 415 1412 710 1578 1583 930 931 1615 1110 1803 1734 85 1126 1402 58 1743 1061 1709 97 1401 1125 1752 1060 1062 1064 1755 110 1805 193 99 98 1420 1559 1383 1430 416 452 598 646 665 746 922 1049 1721 162 84 1804 1124 59 200 1092 1078 1711 1707 100 83 1123 1789 1269 1703 175 109 101 1390 919 1382 456 453 501 599 664 745 921 1446 1772 1400 82 1127 1122 60 212 187 1779 102 775 104 103 1723 3 678 643 510 460 1445 1494 671 1454 1059 1119 198 81 173 61 1120 105 107 108 106 1720 774 677 628 511 575 1416 1528 1677 1801 1735 170 80 1713 62 1121 79 1748 899 1436 579 679 979 1090 1405 1404 78 63 1717 1408 1762 1787 1473 691 690 978 1089 1115 199 77 64 183 1407 981 747 1432 1114 178 76 1661 65 1406 75 982 1758 1091 1745 1694 74 202 66 1099 1100 1802 201 73 67 1751 1795 1698 1708 72 68 213 71 69 1778 70 2 </DataArray>
        <DataArray type="UInt8" Name="vtkGhostType" format="ascii" RangeMin="0" RangeMax="0">0 0 0 0 0 0 0 0 0 0 0 0 0 0 0 0 0 0 0 0 0 0 0 0 0 0 0 0 0 0 0 0 0 0 0 0 0 0 0 0 0 0 0 0 0 0 0 0 0 0 0 0 0 0 0 0 0 0 0 0 0 0 0 0 0 0 0 0 0 0 0 0 0 0 0 0 0 0 0 0 0 0 0 0 0 0 0 0 0 0 0 0 0 0 0 0 0 0 0 0 0 0 0 0 0 0 0 0 0 0 0 0 0 0 0 0 0 0 0 0 0 0 0 0 0 0 0 0 0 0 0 0 0 0 0 0 0 0 0 0 0 0 0 0 0 0 0 0 0 0 0 0 0 0 0 0 0 0 0 0 0 0 0 0 0 0 0 0 0 0 0 0 0 0 0 0 0 0 0 0 0 0 0 0 0 0 0 0 0 0 0 0 0 0 0 0 0 0 0 0 0 0 0 0 0 0 0 0 0 0 0 0 0 0 0 0 0 0 0 0 0 0 0 0 0 0 0 0 0 0 0 0 0 0 0 0 0 0 0 0 0 0 0 0 0 0 0 0 0 0 0 0 0 0 0 0 0 0 0 0 0 0 0 0 0 0 0 0 0 0 0 0 0 0 0 0 0 0 0 0 0 0 0 0 0 0 0 0 0 0 0 0 0 0 0 0 0 0 0 0 0 0 0 0 0 0 0 0 0 0 0 0 0 0 0 0 0 0 0 0 0 0 0 0 0 0 0 0 0 0 0 0 0 0 0 0 0 0 0 0 0 0 0 0 0 0 0 0 0 0 0 0 0 0 0 0 0 0 0 0 0 0 0 0 0 0 0 0 0 0 0 0 0 0 0 0 0 0 0 0 0 0 0 0 0 0 0 0 0 0 0 0 0 0 0 0 0 0 0 0 0 0 0 0 0 0 0 0 0 0 0 0 0 0 0 0 0 0 0 0 0 0 0 0 0 0 0 0 0 0 0 0 0 0 0 0 0 0 0 0 0 0 0 0 0 0 0 0 0 0 0 0 0 0 0 0 0 0 0 0 0 0 0 0 0 0 0 0 0 0 0 0 0 0 0 0 0 0 0 0 0 0 0 0 0 0 0 0 0 0 0 0 0 0 0 0 0 0 0 0 0 0 0 0 0 0 0 0 0 0 0 0 0 0 0 0 0 0 0 0 0 0 0 0 0 0 0 0 0 0 0 0 0 0 0 0 0 0 0 0 0 0 0 0 0 0 0 0 0 0 0 0 0 0 0 0 0 0 0 0 0 0 0 0 0 0 0 0 0 0 0 0 0 0 0 0 0 0 0 0 0 0 0 0 0 0 0 0 0 0 0 0 0 0 0 0 0 0 0 0 0 0 0 0 0 0 0 0 0 0 0 0 0 0 0 0 0 0 0 0 0 0 0 0 0 0 0 0 0 0 0 0 0 0 0 0 0 0 0 0 0 0 0 0 0 0 0 0 0 0 0 0 0 0 0 0 0 0 0 0 0 0 0 0 0 0 0 0 0 0 0 0 0 0 0 0 0 0 0 0 0 0 0 0 0 0 0 0 0 0 0 0 0 0 0 0 0 0 0 0 0 0 0 0 0 0 0 0 0 0 0 0 0 0 0 0 0 0 0 0 0 0 0 0 0 0 0 0 0 0 0 0 0 0 0 0 0 0 0 0 0 0 0 0 0 0 0 0 0 0 0 0 0 0 0 0 0 0 0 0 0 0 0 0 0 0 0 0 0 0 0 0 0 0 0 0 0 0 0 0 0 0 0 0 0 0 0 0 0 0 0 0 0 0 0 0 0 0 0 0 0 0 0 0 0 0 0 0 0 0 0 0 0 0 0 0 0 0 0 0 0 0 0 0 0 0 0 0 0 0 0 0 0 0 0 0 0 0 0 0 0 0 0 0 0 0 0 0 0 0 0 0 0 0 0 0 0 0 0 0 0 0 0 0 0 0 0 0 0 0 0 0 0 0 0 0 0 0 0 0 0 0 0 0 0 0 0 0 0 0 0 0 0 0 0 0 0 0 0 0 0 0 0 0 0 0 0 0 0 0 0 0 0 0 0 0 0 0 0 0 0 0 0 0 0 0 0 0 0 0 0 0 0 0 0 0 0 0 0 0 0 0 0 0 0 0 0 0 0 0 0 0 0 0 0 0 0 0 0 0 0 0 0 0 0 0 0 0 0 0 0 0 0 0 0 0 0 0 0 0 0 0 0 0 0 0 0 0 0 0 0 0 0 0 0 0 0 0 0 0 0 0 0 0 0 0 0 0 0 0 0 0 0 0 0 0 0 0 0 0 0 0 0 0 0 0 0 0 0 0 0 0 0 0 0 0 0 0 0 0 0 0 0 0 0 0 0 0 0 0 0 0 0 0 0 0 0 0 0 0 0 0 0 0 0 0 0 0 0 0 0 0 0 0 0 0 0 0 0 0 0 0 0 0 0 0 0 0 0 0 0 0 0 0 0 0 0 0 0 0 0 0 0 0 0 0 0 0 0 0 0 0 0 0 0 0 0 0 0 0 0 0 0 0 0 0 0 0 0 0 0 0 0 0 0 0 0 0 0 0 0 0 0 0 0 0 0 0 0 0 0 0 0 0 0 0 0 0 0 0 0 0 0 0 0 0 0 0 0 0 0 0 0 0 0 0 0 0 0 0 0 0 0 0 0 0 0 0 0 0 0 0 0 0 0 0 0 0 0 0 0 0 0 0 0 0 0 0 0 0 0 0 0 0 0 0 0 0 0 0 0 0 0 0 0 0 0 0 0 0 0 0 0 0 0 0 0 0 0 0 0 0 0 0 0 0 0 0 0 0 0 0 0 0 0 0 0 0 0 0 0 0 0 0 0 0 0 0 0 0 0 0 0 0 0 0 0 0 0 0 0 0 0 0 0 0 0 0 0 0 0 0 0 0 0 0 0 0 0 0 0 0 0 0 0 0 0 0 0 0 0 0 0 0 0 0 0 0 0 0 0 0 0 0 0 0 0 0 0 0 0 0 0 0 0 0 0 0 0 0 0 0 0 0 0 0 0 0 0 0 0 0 0 0 0 0 0 0 0 0 0 0 0 0 0 0 0 0 0 0 0 0 0 0 0 0 0 0 0 0 0 0 0 0 0 0 0 0 0 0 0 0 0 0 0 0 0 0 0 0 0 0 0 0 0 0 0 0 0 0 0 0 0 0 0 0 0 0 0 0 0 0 0 0 0 0 0 0 0 0 0 0 0 0 0 0 0 0 0 0 0 0 0 0 0 0 0 0 0 0 0 0 0 0 0 0 0 0 0 0 0 0 0 0 0 0 0 0 0 0 0 0 0 0 0 0 0 0 0 0 0 0 0 0 0 0 0 0 0 0 0 0 0 0 0 0 0 0 0 0 0 0 0 0 0 0 0 0 0 0 0 0 0 0 0 0 0 0 0 0 0 0 0 0 0 0 0 0 0 0 0 0 0 0 0 0 0 0 0 0 0 0 0 0 0 0 0 0 0 0 0 0 0 0 0 0 0 0 0 0 0 0 0 0 0 0 0 0 0 0 0 0 0 0 0 0 0 0 0 0 0 0 0 0 0 0 0 0 0 0 0 0 0 0 0 0 0 0 0 0 0 0 0 0 0 0 0 0 0 0 0 0 0 0 0 0 0 0 0 0 0 0 0 0 0 0 0 0 0 0 0 0 0 0 0 0 0 0 0 0 0 0 0 0 0 0 0 0 0 0 0 0 0 0 0 0 0 0 0 0 0 0 0 0 0 0 0 0 0 0 0 0 0 0 0 0 0 0 0 0 0 0 0 0 0 0 0 0 0 0 0 0 0 0 0 0 0 0 0 0 0 0 0 0 0 0 0 0 0 0 0 0 0 0 0 0 0 0 0 0 0 0 0 0 0 0 0 0 0 0 0 0 0 0 0 0 0 0 0 0 0 0 0 0 0 0 0 0 0 0 0 0 0 0 0 0 0 0 0 0 0 0 0 0 0 0 0 0 0 0 0 0 0 0 0 0 0 0 0 0 0 0 0 0 0 0 0 0 0 0 0 0 0 0 0 0 0 0 0 0 0 0 0 0 0 0 0 0 0 0 0 0 </DataArray>
      </PointData>
    </Piece>
  </UnstructuredGrid>
</VTKFile>
