<?xml version="1.0"?>
<VTKFile type="UnstructuredGrid" version="2.2">
  <UnstructuredGrid>
    <Piece NumberOfPoints="1812" NumberOfCells="3467">
      <Points>
        <DataArray type="Float64" NumberOfComponents="3" format="ascii">0.3290772530756106 0.02466093080584207 0 0.33 0 0 0.3477603422905194 0.01839861105349879 0 0.3548148148147337 0 0 0.3507861334070558 0.04005222258421488 0 0.3672204995161572 0.02149324383402151 0 0.3263141726783756 0.04918394767835577 0 0.3796296296294943 0 0 0.3448127603620459 0.06610442189734428 0 0.3780611605622604 0.04252324555600066 0 0.3919769333081103 0.02151903925086009 0 0.404444444444236 0 0 0.3217262110731744 0.07343190797261936 0 0.3650109033901158 0.05964178392539154 0 0.4165442445776424 0.02058052294143028 0 0.429259259258989 0 0 0.339126112609807 0.09007757257058298 0 0.364905589860354 0.0836521673251901 0 0.386488872758863 0.06587686226420772 0 0.4058761818398673 0.04596939214959726 0 0.4405772947731607 0.02080084709476175 0 0.315339025999087 0.09726920726492613 0 0.4285630946400109 0.0382088771183812 0 0.4540740740737054 0 0 0.3313897820086208 0.1159582995718135 0 0.3533509462210948 0.1047617729843049 0 0.3914107554309301 0.09134599130030074 0 0.4098477245561723 0.07378689453493613 0 0.4284315989360415 0.05863137712820021 0 0.4668525492458321 0.02196851156018458 0 0.4480127478958283 0.04291429819759832 0 0.3071883371932287 0.1205625376825623 0 0.3729245579803991 0.1079930397771608 0 0.4788888888884407 0 0 0.3169894199757927 0.1387378323813034 0 0.3551548351541882 0.1251882976128027 0 0.4149291096157371 0.09936475713201554 0 0.3964254772675205 0.1158107080840949 0 0.4334400653549189 0.08289615662590546 0 0.4522340780470127 0.06660495339662326 0 0.4912962962958273 0.01450852354697549 0 0.470838576631939 0.0495600234638754 0 0.5037037037032137 0 0 0.2973197266164828 0.1431816334754564 0 0.3381281364569727 0.1417027333249429 0 0.3779400200447969 0.1323558881811412 0 0.4916193393621504 0.03491121914216735 0 0.5155147264517113 0.02209116480429343 0 0.3076477269658431 0.162424238625563 0 0.325614562521354 0.15813210934937 0 0.3593233659490317 0.1490653393731506 0 0.4384446285710152 0.1071604121996936 0 0.419936164299843 0.1236123261794661 0 0.401448867081298 0.140083934214497 0 0.4569596620927895 0.09069448158633676 0 0.4754804444118204 0.07422038361800519 0 0.493873019920651 0.05814285477711956 0 0.528518518517892 0 0 0.2857883835154311 0.1649999995382936 0 0.3427596712747102 0.1657913435132305 0 0.3829329790170022 0.1566038019327543 0 0.5105263283730229 0.04530514594093288 0 0.5409271608251429 0.02148954705000138 0 0.5533333333326754 0 0 0.2973950200901271 0.1848972762543642 0 0.3225478579334515 0.18200439890181 0 0.364219888346259 0.1736334141740358 0 0.4619603417111561 0.1149647770364784 0 0.4434483566358859 0.1314306902408089 0 0.4249419354653539 0.1478986675589968 0 0.4064339139824101 0.1643630990170198 0 0.4804826420693221 0.09849633848250447 0 0.4990134146930919 0.08202294352285519 0 0.5342389869581085 0.04587637115209072 0 0.5173855691724937 0.06550411982899333 0 0.5657407600236524 0.02032009434769682 0 0.2726587958544359 0.185895618676743 0 0.3457277195136924 0.1906971351782883 0 0.387872069398734 0.1810194000934934 0 0.5538405116663107 0.03741161606095697 0 0.5781481481473866 0 0 0.2855771411918563 0.2101435945491163 0 0.3090199521388682 0.201658293535773 0 0.3271293505180573 0.207113226631519 0 0.3691115430381949 0.1983427621556907 0 0.4669690804858371 0.139232281234126 0 0.4854920780065054 0.1227658861437222 0 0.4484510793107354 0.1557030612929239 0 0.4299341027182894 0.1721686521766443 0 0.4114213048134555 0.1886231928743197 0 0.5040115358761671 0.1062970267405536 0 0.5225520835450159 0.08981537573983467 0 0.5411581918347609 0.07315698995880539 0 0.5594640016573365 0.05772361829365055 0 0.590564703795089 0.02124064458178284 0 0.5760353844374944 0.04099873563023593 0 0.6029629629621371 0 0 0.2580043896252853 0.2057516340982108 0 0.3505024454638854 0.2147945079922051 0 0.3928197340028445 0.2054138279401191 0 0.6147850966860462 0.0207394917468406 0 0.6277777777768812 0 0 0.2660354752220878 0.2294035904747645 0 0.309510584703436 0.2225772540747418 0 0.331547040173616 0.2306871043655891 0 0.3741128864327291 0.2225193637330685 0 0.4719761752655433 0.1635070506519012 0 0.4905031301503381 0.1470339804933232 0 0.5090257377462122 0.1305709128753475 0 0.4534471287096929 0.1799734770797853 0 0.4349250295056258 0.1964304023287197 0 0.4164118842430234 0.2128829309295759 0 0.5275762672831623 0.1140632178947543 0 0.5461520791072918 0.097485386611196 0 0.5647167515723286 0.08095681938990498 0 0.5835061994006557 0.06435055756142606 0 0.6036031497588777 0.04490015420341999 0 0.6389935515769317 0.01969725785334627 0 0.2419071182136165 0.2244570029149979 0 0.2895171280631488 0.2377762730651491 0 0.3555897160973436 0.2391239874163996 0 0.3977805282137661 0.2297465080949013 0 0.625413730784027 0.03715880519216439 0 0.6525925925915987 0 0 0.2477497814183456 0.2484777948188574 0 0.2714181047400089 0.255929673150273 0 0.3135612023490114 0.2471120632532999 0 0.3371029201114297 0.2555550240893838 0 0.3791268859206863 0.246727079623225 0 0.4769763191665882 0.1877941185930548 0 0.4955154421473968 0.1713139111282749 0 0.5140502559861541 0.1548365952268373 0 0.5325803252512568 0.1383587982757901 0 0.4584475874849424 0.2042510512254445 0 0.4399137625713176 0.2206934586952445 0 0.4213175571220695 0.2373924274162315 0 0.5511358421730307 0.1218518071258043 0 0.5697111576708722 0.1052963080931381 0 0.5882762940925739 0.08876926692974513 0 0.6068288941303834 0.07226935935909608 0 0.6262219233758328 0.05670904072215981 0 0.6649854432403818 0.02343654993820941 0 0.6455467477251142 0.0413195765124368 0 0.2244570040178031 0.2419071171903628 0 0.2950911061350528 0.2641090809407269 0 0.3605777547522244 0.2633520910564466 0 0.4026083956428395 0.254369537320313 0 0.6774074074063781 0 0 0.2286900013547602 0.2656901974990419 0 0.2525403453587286 0.2732222059085284 0 0.2764973199869606 0.2805542187522665 0 0.318598434907385 0.2719676429842086 0 0.3420631827475578 0.2797835470293084 0 0.3840658431200895 0.2711555390357422 0 0.5005211121119826 0.1956065047093845 0 0.4819830695447134 0.2120751411561455 0 0.5190604087820875 0.1791261434403908 0 0.5375999295440311 0.1626421992121118 0 0.5561391558607411 0.1461554053014023 0 0.4634382223695306 0.2285453859800602 0 0.4448804874195158 0.2450512934139544 0 0.4262158747457022 0.2617756205943106 0 0.5747044892784443 0.1296314418716619 0 0.5932772187677232 0.1131002279354966 0 0.6118395046832894 0.09658709891291951 0 0.6303914673798965 0.08008502028840747 0 0.6490641337108883 0.06403846602657483 0 0.6911864113330559 0.01996498723740298 0 0.6674100700553153 0.04874020445448846 0 0.2057516351387071 0.2580043887955171 0 0.3000337549027281 0.2883830107548556 0 0.3655091041756725 0.2875162155959823 0 0.4075142723659204 0.2785055672277439 0 0.7022222222212797 0 0 0.6835601627207462 0.03819146929780848 0 0.2088575852978029 0.2817950579264201 0 0.2336318670756505 0.2897585344036819 0 0.2577718962939641 0.2974210870525208 0 0.2814416487672567 0.3044737257581406 0 0.3234471019183635 0.29623101049694 0 0.3470489792585763 0.3040158051244973 0 0.3889369708434645 0.295102155409656 0 0.5240670025926787 0.2034284759844315 0 0.5055237693818104 0.2199092667610192 0 0.4869799268304337 0.2363772161946866 0 0.5426060692438802 0.1869397419931046 0 0.561155376975919 0.1704500373138342 0 0.5797070956322162 0.1539476626306602 0 0.4684397526492287 0.2528396654355129 0 0.4499087636430573 0.2693251419520415 0 0.4312779871227238 0.2859127139411712 0 0.5982797687124773 0.1374259440554362 0 0.6168531621778067 0.1209017554518679 0 0.6354105645509063 0.1044028452932492 0 0.6539799724490787 0.08800438320477268 0 0.6724694723821518 0.07158917040740292 0 0.714629629628724 0.01749517122348697 0 0.7044116995944939 0.04041201736878875 0 0.6906625935956622 0.05618246749194938 0 0.7270370370361676 0 0 0.7518518518510555 0 0 0.7394444444436117 0.02149026001989936 0 0.1858956196345984 0.2726587952013812 0 0.3048127041900643 0.3125861474750927 0 0.3705578259831029 0.3117405798655801 0 0.4126385078112256 0.3024926943355679 0 0.7642592592585037 0.02026348917675766 0 0.7766666666659507 0 0 0.1873547267945348 0.2997702288161244 0 0.2143655087186934 0.3063187913890434 0 0.2392090145579546 0.3140144268288957 0 0.2626455874531332 0.3214602668094815 0 0.2861547378101904 0.3289637576039727 0 0.3282831038036916 0.3205009346758002 0 0.3520102570293662 0.3282610642604954 0 0.3940806513548465 0.3192343443954179 0 0.5290733926251476 0.2277363574485657 0 0.5476239879330473 0.2112457213303058 0 0.5105240241147393 0.2442165355512518 0 0.4919788375093469 0.2606874597826749 0 0.5661743507298374 0.1947531631333362 0 0.5847289639912024 0.1782507555243562 0 0.6032907465258605 0.1617452811059893 0 0.4734411955397327 0.2771618106462988 0 0.4549050335675187 0.2936317920415843 0 0.4363756712334082 0.3100956176406653 0 0.6218646104445544 0.1452246915313926 0 0.6404252634903314 0.1287226466955969 0 0.6589894526236073 0.1122124483796636 0 0.6775417642730424 0.0957591377192758 0 0.696115398735639 0.07919135901828575 0 0.7323344480438467 0.04475924831370908 0 0.7146736259241269 0.062683482159857 0 0.7518518518510564 0.03574711575372718 0 0.7890740740734019 0.0214902600199008 0 0.8014814814808531 0 0 0.8511111111106724 0 0 0.875925925925582 0 0 0.8642349252682709 0.02239881073736975 0 0.8389068005470434 0.01668091820467709 0 0.826296296295737 0 0 0.8164218827729318 0.02530198896595518 0 0.1650000004322072 0.2857883829993298 0 0.3095158779381556 0.3369644455608476 0 0.3755935416684182 0.3359022887106755 0 0.4177896573303989 0.3266821528427619 0 0.7734607444055723 0.03995984147275857 0 0.8883333333330139 0.01608823996309144 0 0.8410148017712085 0.03957286494555063 0 0.9007407407404482 0 0 0.9255555555553578 0 0 0.9132565455101176 0.02213960461137708 0 0.1624140857038263 0.3096297665024592 0 0.1968718679788365 0.3222749351747802 0 0.2202679906073817 0.3302995651843582 0 0.2438297294523106 0.3382409307902071 0 0.2674664978371225 0.3456476728231526 0 0.2908134622802496 0.3534667924400561 0 0.3333240663342419 0.344724242075952 0 0.3570454161996557 0.3524713821964185 0 0.3991633361434501 0.3435386191536023 0 0.5526311324630875 0.2355617326456055 0 0.5340758390458162 0.252049776472328 0 0.5711905053858504 0.2190648905298015 0 0.5155222760017695 0.2685402160483484 0 0.4969744511393132 0.2849983315822697 0 0.5897503239337664 0.2025639228881654 0 0.6083121106033306 0.1860582823580539 0 0.6268752329177769 0.1695530544480033 0 0.4784002353898976 0.301567281559421 0 0.4598747471844001 0.3179686431304725 0 0.4413689760862404 0.3343696468245234 0 0.6454378078943205 0.1530495528545262 0 0.6640004471904778 0.1365447067710074 0 0.68256565368494 0.1200343787516331 0 0.7011306357628382 0.1035230865538969 0 0.7196929184533759 0.08701246760529247 0 0.7381502718867822 0.07051363683878985 0 0.7570779941741794 0.05547599944075574 0 0.7978753307502561 0.04457410091963708 0 0.8895138849891597 0.0358628576050162 0 0.8661342330500408 0.0465512781248293 0 0.9371185286787299 0.01643406614303421 0 0.950370370370224 0 0 0.9751851851851336 0 0 0.9604164173529302 0.02261974492386788 0 0.1431816342921367 0.2973197262231903 0 0.1784327829060834 0.3207063683611038 0 0.3145508253170056 0.3612203034609009 0 0.3805495922637888 0.3602796834388425 0 0.4227922471178942 0.351007541900283 0 0.7806259563260373 0.06220808352577295 0 0.8216000083408482 0.05276026235349711 0 0.8462536964173417 0.06201935729285549 0 0.9359937546050197 0.03741098117992609 0 0.9818661039166057 0.01818407024132333 0 1 0 0 0.1410187125854422 0.3219593476947541 0 0.1596306369067156 0.3330196511047262 0 0.1789599134588012 0.3393369983098246 0 0.2018359521472431 0.346525761451502 0 0.2252646310269177 0.3544542196334451 0 0.2487551675714283 0.3622349891937595 0 0.2722795886886512 0.369929030242186 0 0.2957816799977598 0.3777086475439514 0 0.3383752937780673 0.3689584762947614 0 0.3618192502191128 0.3767697661114645 0 0.4041162521092648 0.3679293325290303 0 0.5761995634370101 0.2433877884545206 0 0.5576370559265512 0.2598862606305017 0 0.5390737390156486 0.2763877423153328 0 0.5947611300008553 0.2268873939032576 0 0.5205067651857527 0.2929014505862336 0 0.5019280853244781 0.3094479827722231 0 0.6133212509768704 0.2103859093764363 0 0.6318847795486863 0.1938836883272512 0 0.6504500346516844 0.1773794880904405 0 0.4832614789984516 0.3262548349861297 0 0.4646571234164975 0.3429106457799923 0 0.4461248050835209 0.3593817130066286 0 0.6690153472891446 0.160874010421066 0 0.687578611805038 0.1443679846735744 0 0.7061454570631819 0.1278583620259954 0 0.7247112723865189 0.1113461173719108 0 0.7432774208385708 0.09483335650576957 0 0.7618452238865935 0.07831726700735528 0 0.8040671634690006 0.06960899399987458 0 0.8932358480532133 0.0625537408594698 0 0.9136335572280359 0.05004009695709014 0 0.8704897227637376 0.07136754622968201 0 0.979537742058721 0.03825381024085357 0 1 0.02499999999995287 0 0.1205625383738343 0.3071883369219244 0 0.3194844102624021 0.3854794295162788 0 0.3854426772454178 0.3845463616665703 0 0.4276267785880801 0.3757597408275526 0 0.785433732191796 0.08613779330297408 0 0.8277957825978113 0.07726048062473453 0 0.8514827428488154 0.08509226343028731 0 0.9352152905894797 0.06248766295430325 0 0.9575671315420836 0.04977783338059058 0 0.1153279426859208 0.3360124139883537 0 0.139193555447945 0.3467590619896337 0 0.1604506364208979 0.3557439817625753 0 0.1833470876665316 0.3629246772882617 0 0.2068093876288755 0.3707497792339337 0 0.230295194309617 0.3785361892383688 0 0.2537851983921705 0.3863481419885134 0 0.2772824733121277 0.394159541547237 0 0.3008079315403669 0.4019637278848653 0 0.3428812063112402 0.3932915994812895 0 0.3666213155165072 0.4010710935909044 0 0.4090402226808763 0.3923546989180686 0 0.5997742891099221 0.2512140630078458 0 0.5812074644686153 0.2677190747320717 0 0.5626399474529595 0.2842284720698341 0 0.5440677087235299 0.300747662588881 0 0.6183333873086897 0.2347106243778039 0 0.5254613584055909 0.3173395721498182 0 0.5068553731989377 0.3339334709099166 0 0.6368959139099101 0.2182115885096317 0 0.6554636701494556 0.2017129918641883 0 0.6740317110482386 0.1852061091944608 0 0.4882093364701993 0.3506780717358902 0 0.4696098258599714 0.3672229639726233 0 0.4510822947490432 0.383682381276693 0 0.692589070467448 0.1686884078375981 0 0.711156735432722 0.152190536801672 0 0.7297199312527162 0.1356678617294189 0 0.748297039981333 0.1191718262234448 0 0.7668658715674994 0.1026549752760922 0 0.8090892639026803 0.09388108381678759 0 0.9131448032637169 0.07932733073004578 0 0.8917698944235485 0.08219160457299188 0 0.8748190929567642 0.0937506726162033 0 0.9784800336079593 0.06272122387550871 0 1 0.04999999999989965 0 0.0972692078232136 0.3153390258268781 0 0.3243459006904633 0.4097649764254162 0 0.3902779270209418 0.4088644186229112 0 0.4325735458547566 0.4001780082590383 0 0.7904610277830391 0.1104393684983687 0 0.8328141761434484 0.1015850697724575 0 0.856548207402176 0.1092957859032673 0 0.9383777816480806 0.08867376417003904 0 0.9571684556350957 0.07439423330936436 0 0.09088202270828556 0.339176325258719 0 0.1192670609574741 0.362981011678466 0 0.1414841651702391 0.3716276840364489 0 0.1648510897206956 0.3793361378356489 0 0.188318580022031 0.3871526458110206 0 0.2117905148817825 0.39496615250905 0 0.235268871292608 0.4027926232074593 0 0.2587777669408387 0.4106073483617543 0 0.2822935347129659 0.418419363510851 0 0.3058225001001575 0.426226457443925 0 0.3478770096322309 0.4175707853336753 0 0.3715046898773021 0.4253680047891715 0 0.4139424362202254 0.4166701156172644 0 0.6047859649829492 0.2755467427572381 0 0.6233507880144709 0.2590395124280973 0 0.5862139186147278 0.292054324770684 0 0.5676432687094048 0.3085572488211359 0 0.5490374285941687 0.3251508317062007 0 0.6419109692758453 0.2425358610776674 0 0.5303493506130686 0.3419302267536818 0 0.5117620136958713 0.3584792365025036 0 0.6604731690812278 0.2260511388452288 0 0.6790428907420966 0.2095389724411982 0 0.6976183742088591 0.1929953452882884 0 0.4931648628755133 0.3749983121588805 0 0.4745994342157937 0.3914140839034935 0 0.4560848446754771 0.4079188649679834 0 0.7161489248914059 0.1764744061525486 0 0.7347385472849935 0.1599630372836153 0 0.7533154525194214 0.1434816431222181 0 0.7718882531676312 0.1269980627940253 0 0.8141139211531989 0.1181781283120806 0 0.8987758629840622 0.1005957105225958 0 0.880155308884032 0.1170979543368828 0 0.9209945908265178 0.1066346801085778 0 0.9789285260376674 0.08687397750218474 0 1 0.07499999999985282 0 0.07343190839887077 0.3217262109758853 0 0.09856833527364794 0.3581691150673835 0 0.3293489294970102 0.4340366488291113 0 0.3951162205853222 0.4331762371554884 0 0.4375585056969254 0.4244992664734653 0 0.7955185747124884 0.1347458817241179 0 0.837851974357338 0.125902209464638 0 0.8615497790924864 0.1336715981459533 0 0.959846539917433 0.09913205663884508 0 0.9446335831908632 0.1147517096420206 0 0.06406863068987256 0.345673196676714 0 0.07907269335889348 0.3639882737080145 0 0.1240002052538145 0.3876435943754505 0 0.09827580921140695 0.3817528354035314 0 0.1465076454825822 0.395746892431357 0 0.1698196160554624 0.4035689498035193 0 0.1932908737636773 0.4113975068153113 0 0.2167699420301746 0.4192362505221134 0 0.240261423321482 0.4270593853132658 0 0.2637713864907418 0.4348761563986571 0 0.2872935207610262 0.44269010589512 0 0.3108188327884669 0.4505049042718739 0 0.3528767787578171 0.4418491570648692 0 0.3764638734515497 0.4496651579450556 0 0.4189120243643329 0.4409778255409179 0 0.6097944638789868 0.2998879753241435 0 0.6283708210377523 0.2833749232855468 0 0.6469410392529802 0.2668655428732677 0 0.5912193131197132 0.316390792861281 0 0.5726470790951519 0.3328872786332817 0 0.5540566647501738 0.349436795853 0 0.6655052316393886 0.250366567534405 0 0.53529489543636 0.3663533258630232 0 0.5167376803403864 0.3827687495549414 0 0.6840689761424257 0.233867206932956 0 0.7026670242078776 0.2173179655050875 0 0.7212838763908258 0.200737445174514 0 0.4982327290597822 0.3991602769248748 0 0.4797062171539377 0.4155664865109435 0 0.4611160500490512 0.4321986010991125 0 0.7398222890691756 0.1842414539453796 0 0.7583865403111001 0.1677446125771645 0 0.7769498696159439 0.1512840583896441 0 0.819292790013145 0.1424184707621912 0 0.9036060133585867 0.1245981075835125 0 0.8851075257282095 0.141119783710296 0 0.9274295005137969 0.1318614580032529 0 1 0.09999999999981467 0 0.979751135630778 0.1118027676920138 0 0.04918394795091135 0.3263141726372945 0 0.334356005406747 0.4583184011515827 0 0.400353805064937 0.4574620361142469 0 0.4425182873301668 0.4487745096025855 0 0.8006422164916589 0.1590173929487305 0 0.8429364223366336 0.150223918127744 0 0.8665008823335887 0.1579834554099102 0 0.9629779202915016 0.1232702243711512 0 0.9515738227743069 0.1392571593310525 0 0.03839907693663803 0.3519361876324672 0 0.05469448199804167 0.3699390237978379 0 0.0707310272510772 0.3883578467513205 0 0.127669954304209 0.412257301272835 0 0.1097924908875145 0.4031345907432592 0 0.1512208423910728 0.4200476872642394 0 0.174743511592209 0.4278555505356061 0 0.1982393390991885 0.4356854404458504 0 0.2217391479837957 0.4435104480777428 0 0.2452442282381646 0.4513348375168691 0 0.2687607907106716 0.4591544994913713 0 0.2922847931893215 0.4669750747648991 0 0.3158169243378649 0.4747928331005558 0 0.3579873038575623 0.4661206811862292 0 0.3816433454550792 0.4739326556318267 0 0.4239774044419503 0.4652758899546061 0 0.6333814949167187 0.307726350247897 0 0.6148020521278875 0.3242311698385941 0 0.6519660866237724 0.2912095448981827 0 0.6705426410947366 0.2746975446603027 0 0.5962217832368306 0.3407264756680042 0 0.57764754333188 0.357226217129972 0 0.5589750485842824 0.373875760605986 0 0.6891172266833341 0.2581917026569139 0 0.5403753418306971 0.3904664586456961 0 0.5218346211905905 0.4069887956394954 0 0.7076958581590566 0.2416600576931908 0 0.7262921696040037 0.2251087655003776 0 0.7449173307163629 0.2085503048197396 0 0.5033535585824714 0.4232252337814945 0 0.4847443318990615 0.439799534577782 0 0.4661319647574131 0.4564509159974351 0 0.7635117250894057 0.1920179552744546 0 0.7820435006356564 0.1755477531563354 0 0.8243122323615311 0.1667927202724421 0 0.9090868195355111 0.1482234149846745 0 0.8903434502606214 0.1652217952878601 0 0.9327932446403095 0.1559121501551841 0 1 0.1249999999997738 0 0.9760818880219586 0.1395466186011858 0 0.02466093094001071 0.3290772530655561 0 0.08981445596199912 0.4050596014280541 0 0.3393996715894907 0.4825993537352394 0 0.4053241754217245 0.4817553073941294 0 0.4475437313518437 0.4730148873462 0 0.8057363316111896 0.1833154733876523 0 0.8479000305012608 0.1745446566822179 0 0.8716579911288331 0.1819588569539124 0 0.9579564497272033 0.1641613808172871 0 0.0184046735739704 0.3477661511691212 0 0.0368681824280504 0.376088920182139 0 0.04723601828187862 0.3933675051460651 0 0.06209613990136305 0.4130185081294612 0 0.1069688165434588 0.4257523976759495 0 0.1326480233194778 0.4365162404508103 0 0.1561753005939447 0.4443231987225436 0 0.1796955550325506 0.452139266212094 0 0.2031970041927239 0.4599736205122351 0 0.2267153892572634 0.4677998681025116 0 0.2502348127450159 0.4756195118640144 0 0.2737485883747923 0.4834419806363466 0 0.2972750455716378 0.4912678239496614 0 0.3208161075211634 0.4990900286537617 0 0.363059326197492 0.4903921711987387 0 0.3866957977266883 0.4982304333557345 0 0.4289836983359595 0.48957780937596 0 0.6569786557467329 0.3155651813572882 0 0.6383934661679039 0.3320771095524874 0 0.6198079475618339 0.3485814292952948 0 0.6755659962466058 0.2990428360033396 0 0.6941509010732367 0.2825255394858429 0 0.6012184369916012 0.3650753336159248 0 0.5826322925941145 0.3815804581574789 0 0.563997272348126 0.3981409760517693 0 0.7127425477864633 0.265989767167485 0 0.5454125330844378 0.4146711441589613 0 0.5269096882930748 0.4310912219177901 0 0.7313275681100579 0.2494496660377494 0 0.7499215086971552 0.2329133610361203 0 0.7685248661908619 0.2163839893467826 0 0.5083523634720861 0.4475555895516517 0 0.4897465793139669 0.4641349946379847 0 0.4711228086003887 0.4807829687209467 0 0.7871315193241963 0.199855730852022 0 0.829327917622813 0.1911193659580426 0 0.9141003436469417 0.1726171638322653 0 0.8956071391906459 0.1894280968361023 0 0.9373017375553518 0.1804484831661777 0 1 0.1499999999997036 0 0 0.33 0 0.01961697483099211 0.3676233253727331 0 0.08324458501475546 0.4253954162406472 0 0.3444411952297685 0.5068898863060832 0 0.4104188364188689 0.5060849854027917 0 0.4525718370833476 0.4973376279619022 0 0.8106852661868988 0.2076180154852393 0 0.8531448667566003 0.1985881930369579 0 0.8769720503827381 0.2060642525365315 0 0.9816340229594344 0.1630391404119292 0 0.9551537078717955 0.1895113718087187 0 0 0.3548148148148881 0 0.02366547200188613 0.3934299386543805 0 0.03946641554680291 0.4109628226697091 0 0.06675850707164541 0.4380193197472296 0 0.1141103619957533 0.4529622438097788 0 0.1376267912305044 0.4607838857808054 0 0.09058500559531084 0.4451272542225414 0 0.1611370083491448 0.4686082794290023 0 0.1846466193238102 0.4764411947822674 0 0.2081773995311652 0.484269437358103 0 0.2317070107925374 0.4920885720127919 0 0.2552289802408488 0.4999054358128319 0 0.278722565236832 0.5077390864978916 0 0.3022669212466781 0.5155702459508122 0 0.3258172564746353 0.5233957055135057 0 0.3680169047502226 0.5146907255115567 0 0.3917121981167429 0.5225267549953637 0 0.433989743214147 0.5138902528065953 0 0.6805811232241697 0.3234016658516262 0 0.6619913436994445 0.3399256815192169 0 0.6434016558409114 0.3564408489321442 0 0.6248102910058696 0.3729376381646144 0 0.6991700226242569 0.3068785490600858 0 0.7177123315071096 0.2903018714348238 0 0.6062216744373741 0.3894094465612799 0 0.587638571140404 0.4059107198361454 0 0.5690824653856472 0.4223944508369659 0 0.7362982464091914 0.2737655536389136 0 0.5504887006266415 0.4389135520092989 0 0.5319267153229544 0.4553926915019341 0 0.754887305039315 0.257228118295202 0 0.7735171981624828 0.2407324007581086 0 0.7920911522445732 0.2241662234947986 0 0.5133631185641501 0.4719266182473145 0 0.4947531339683396 0.4885624100230143 0 0.4761447618039049 0.505165109777803 0 0.8342860278375602 0.2151238423331151 0 0.9196171271078757 0.1968635406098752 0 0.9010085212332666 0.2135372750039299 0 0.9771947152888731 0.1875659834663629 0 0.9430558037238792 0.2047400566929839 0 1 0.1749999999996307 0 0 0.3796296296297976 0 0.04348039373643296 0.4299211580963785 0 0.3494130825584083 0.5312041428336345 0 0.4153873491488554 0.5303538448415432 0 0.4575577332308785 0.5217185536719323 0 0.8158282555601071 0.2316416965154147 0 0.8582276805109862 0.222630914890825 0 0.8821861034760966 0.2302421784974618 0 0.9616395598859816 0.2045562194459886 0 0 0.4044444444446639 0 0.02148279520966402 0.4191625659728141 0 0.04809908012615683 0.45371667346757 0 0.07205009080675122 0.4615795452369424 0 0.1190910212986484 0.4772386238566813 0 0.09557109106143387 0.469411633012797 0 0.1425897024629778 0.4850516273711941 0 0.1661071006746537 0.4928923086916492 0 0.1896127201743774 0.5007376404988023 0 0.2131762606726681 0.5085653678695643 0 0.2367098917611313 0.5163902917687526 0 0.2602209173265724 0.524217046338995 0 0.2837238914664837 0.5320481884814794 0 0.3072612340393963 0.5398819798787857 0 0.3308254909198856 0.5476932662075417 0 0.3730763179270225 0.538996721952373 0 0.3968058176419359 0.5468357843785725 0 0.4389884446226274 0.5382210930915733 0 0.6855989708292164 0.3477642031301976 0 0.7041376353536047 0.3311200306868124 0 0.6670053716650318 0.3642913701844351 0 0.6484130946969421 0.3808048244359288 0 0.6298304974758826 0.3972719722305493 0 0.7227331355671165 0.3144652778131075 0 0.7412026680015963 0.2978760863852228 0 0.6112513722093257 0.4137237458102415 0 0.5926677726982328 0.4302332367855013 0 0.5740812582884627 0.4467332424704584 0 0.7599420644380239 0.2813080440328979 0 0.5555039813228986 0.4632332269919225 0 0.5369286078712181 0.4797788314258646 0 0.7785534860037957 0.2647888799142266 0 0.7973224965878769 0.2482483867888298 0 0.5183972703052921 0.4963254544725764 0 0.499728114538258 0.5130061449172081 0 0.4811285207238694 0.5295526495850662 0 0.839699139072813 0.2391541296515791 0 0.9256495817795037 0.2210819367214129 0 0.9057840375421806 0.2379309600498568 0 1 0.1999999999995579 0 0.9544360274045181 0.2278712338546352 0 0.9783575451408425 0.2130924514072426 0 0.02241547776394759 0.4457255982643779 0 0.3544929234486202 0.5555076971402868 0 0.4204014056874151 0.5547012991984063 0 0.4625401922438488 0.5460452665778495 0 0.8210769406595686 0.2557705046272412 0 0.863475915073726 0.2466816629760409 0 0.8871509135582709 0.2545207366604837 0 0 0.4292592592595735 0 0.05350969881244695 0.4780341553099566 0 0.0311783742616128 0.4716251531567359 0 0.0770297417642601 0.4858647390399261 0 0.1240227372624072 0.5015112577254148 0 0.1005436546062946 0.493685216189266 0 0.1475181497063036 0.5093706765442431 0 0.1710529167876076 0.5171977391948147 0 0.1946011430973676 0.5250466389967436 0 0.2181720997968347 0.532877822538256 0 0.2417196192234773 0.5407058452247595 0 0.2652253062503022 0.5485386961134979 0 0.2887302582779369 0.5563581777238557 0 0.3122950085163612 0.564169375760071 0 0.3359367885324193 0.5720143961903517 0 0.3782091694462135 0.5633695962385488 0 0.4018429289271292 0.5712148344601078 0 0.443935784814721 0.5625426428766651 0 0.6906183858564441 0.3721310410277274 0 0.7092175523033333 0.355425380599187 0 0.7279031378152695 0.3386443704301935 0 0.6720173024596652 0.3886630024747897 0 0.6534254412133282 0.4051717093417416 0 0.6348302935332715 0.4216857305119728 0 0.746613319018536 0.321856449509398 0 0.7651453821586635 0.3054926412344905 0 0.6162311162351926 0.4382258584799761 0 0.5976325096922482 0.4547706042009618 0 0.5790482843688562 0.4712754639548707 0 0.7837244533761394 0.2889181845040785 0 0.5604622938504276 0.4878018264717593 0 0.5419077943172577 0.5043189599320345 0 0.8024101399718671 0.2723043579396277 0 0.5233209919388986 0.5208363392464337 0 0.5047068872559052 0.5373916561667662 0 0.4861079137675831 0.5538983096915648 0 0.8449183787288939 0.2633511564011371 0 0.9305265643259319 0.2455559707327015 0 0.9108327183696114 0.2623644191728991 0 1 0.224999999999485 0 0.9783493649054522 0.2374999999994485 0 0 0.454074074074455 0 0.01265633470770033 0.4664814814819018 0 0.3595795822031226 0.5798548466884264 0 0.4253508507254936 0.5789975465881957 0 0.4674844072124758 0.5704109193537977 0 0.8262832340358535 0.279923300466859 0 0.8685200952960247 0.2711060889292314 0 0.9548789044832446 0.2534816534784473 0 0.892196858950178 0.2789495630162996 0 0.05940656137948076 0.5023671740401603 0 0.03681559110272199 0.4956722502860266 0 0.01627669665287338 0.4890828888975736 0 0.08194846437481346 0.5101678537646338 0 0.1054241643891802 0.5180187449197012 0 0.1288898268385929 0.5258796468503263 0 0.1524466142115825 0.5336914794320601 0 0.1759963666051561 0.541542958806021 0 0.1996074171971913 0.5493610244330048 0 0.2231688021421831 0.5571983709623123 0 0.2467236727452798 0.5650313624310919 0 0.2702334784620631 0.5728715564808067 0 0.2938006997638472 0.5806870290713528 0 0.3173889940280058 0.5885064514618366 0 0.3410387320785203 0.5963547398839483 0 0.3832441341262139 0.5877013273423259 0 0.4067757641972879 0.5955180652447774 0 0.4488272798175423 0.5869353325314486 0 0.6956300929966993 0.3964988570364705 0 0.7142761199043478 0.3798430592443154 0 0.7330662410180412 0.3627830839034657 0 0.7516509436309857 0.3462160000691901 0 0.6770307789007879 0.4130332375050491 0 0.6584306802134212 0.4295714888921605 0 0.6398281971719189 0.4460998817866069 0 0.7703381683066014 0.3296454947719966 0 0.7889589940921717 0.313070205317851 0 0.6212322891482436 0.4626312870847502 0 0.6026399434281795 0.4791617802656255 0 0.5840459107027736 0.4956840124793952 0 0.8076018241768328 0.2964304573135005 0 0.5654621350122899 0.5122088740676579 0 0.5468868887572966 0.5287164339852884 0 0.5282937438579967 0.54523203606409 0 0.509686808813411 0.5617501686216537 0 0.4910714853561945 0.5782565423522648 0 0.849888645957101 0.2876983069329062 0 0.9345194777757543 0.2702151213114246 0 0.9158814001057729 0.2867976678978286 0 1 0.2499999999994121 0 0.9782803882586361 0.2631802189108203 0 0 0.4788888888893493 0 0.3646638306692006 0.6042123497456354 0 0.430277565944254 0.6034021462439869 0 0.4724237872749651 0.5947874220929934 0 0.8312622701027113 0.304273205465861 0 0.8735634203665756 0.2955345608414626 0 0.957446649036383 0.2775247331556301 0 0.8972434240845866 0.3033806937274387 0 0.06389556879218455 0.5265231357525915 0 0.04099107313300766 0.5200679840762945 0 0.0190502886376104 0.5128136781090631 0 0 0.5037037037042373 0 0.08679963484338271 0.5345199903938072 0 0.1103406684095903 0.54234850459476 0 0.1338657589246711 0.5502014820276068 0 0.1574265495580472 0.5580284091467951 0 0.1810083957788824 0.5658598353597075 0 0.2045895348584033 0.5736932442767009 0 0.2281698323326953 0.5815232064239757 0 0.2517259396693075 0.5893631815334934 0 0.2752900119347619 0.5971918917152819 0 0.2988664473639545 0.6050247212862657 0 0.3225153188966809 0.6128792472353928 0 0.3460874383777551 0.6207179956558375 0 0.3882365916642461 0.6120345960002235 0 0.4117502981844005 0.6198924221670545 0 0.45380125150597 0.6113214063466468 0 0.7006184103843258 0.4208433247180774 0 0.7192898294209995 0.4042101690146116 0 0.7380781092727896 0.3872693207647145 0 0.7567827255341458 0.3705049408900576 0 0.7753908214667125 0.3539800961519955 0 0.6820245809440826 0.4373891721463927 0 0.6634334018413504 0.4539337087298677 0 0.6448215061740845 0.4704483112655725 0 0.7940120218329727 0.3374112320987761 0 0.8126381387429459 0.3208394021371289 0 0.626230483281518 0.486982865008921 0 0.6076522707125165 0.5035278061130275 0 0.589043696320649 0.5200305511401022 0 0.5704677989886343 0.5365706217045413 0 0.5518830807616008 0.5530827664247981 0 0.533290513012129 0.5695984544199454 0 0.5146503096306577 0.5861240130352915 0 0.4960211723444405 0.6026480998240265 0 0.8549311942779396 0.3121155450766265 0 0.9387444297355005 0.2939171881274487 0 0.9209315167238485 0.3112313990511543 0 1 0.2749999999993392 0 0.9790846051792635 0.2878207790658676 0 0.3696849539018439 0.6285601831658232 0 0.4352321322010209 0.6278117203866797 0 0.4774116479233309 0.6191701858442327 0 0.8363009966377306 0.3286893589623863 0 0.8786061208275898 0.3199621939686328 0 0.9603158273724692 0.3018016466732101 0 0.9022882485322687 0.3278131820775742 0 0.06822075958203602 0.5510095643494707 0 0.0451119687005224 0.5448387735938709 0 0.02166646018552588 0.5381928926760549 0 0 0.5285185185191252 0 0.09175879251136254 0.5588491222954601 0 0.1153057155975396 0.566684204475846 0 0.1388603362533999 0.57451638822494 0 0.1624346389923621 0.5823511690593317 0 0.1860165166683806 0.590189066555679 0 0.2095923717940554 0.5980173841814272 0 0.2331702494708242 0.6058589522923162 0 0.2567503707418713 0.6136999351851019 0 0.2803348035577348 0.621543443581033 0 0.3039252897032281 0.6293865285149818 0 0.3275156694977805 0.6372292771335485 0 0.3511056181570162 0.645072387616436 0 0.3933174990140738 0.6363930910090397 0 0.4167657283053408 0.6442708012145372 0 0.4588056491382691 0.635693364822173 0 0.7056733573967101 0.4450558298091197 0 0.724364577276032 0.4284263092836068 0 0.7430783299080966 0.4116663470500487 0 0.7617903952715485 0.3949986600483711 0 0.7804169157143214 0.3784078273591341 0 0.7990430589374884 0.3618273053379641 0 0.6870513016514478 0.4616359429131996 0 0.6684696306399981 0.4781649983781417 0 0.649865937305717 0.4946973936731823 0 0.8176721370606934 0.3452562734195729 0 0.6312426368278249 0.5112531780660146 0 0.6126008153233446 0.5277728876492028 0 0.5940610822305263 0.5443210060460738 0 0.5754645161189604 0.5608894347637412 0 0.5568874390684198 0.5774474966554852 0 0.5382789556401019 0.5939695578280895 0 0.5196513875789284 0.6104954460738263 0 0.5010273338737432 0.6270200749907852 0 0.8599718367982018 0.3365398539101743 0 0.9433299951150995 0.3183333261670508 0 0.9259045111786708 0.3355845685158865 0 1 0.2999999999992664 0 0.979305358508583 0.3125293719468861 0 0.3747346193705543 0.6529071752595837 0 0.4402085177953136 0.652206462777545 0 0.4824219055062554 0.6435476141199976 0 0.841337960731751 0.3531183416665101 0 0.8836498533292321 0.3443905236757461 0 0.9631816573277008 0.3244480856019261 0 0.9072424378009375 0.3521364418229735 0 0.07332786380320704 0.5752983796560381 0 0.04965995953872089 0.5674802428356077 0 0.02498344662395559 0.5651528626111484 0 0 0.5533333333340349 0 0.09674629115947321 0.5831635492503962 0 0.1202995322585304 0.5910010870886051 0 0.1438619260550685 0.5988369531347451 0 0.167434109640394 0.606676361934124 0 0.1910142718786762 0.6145146190006138 0 0.2145897867122931 0.6223551487142687 0 0.2381669067575835 0.6301995848378825 0 0.2617472225624525 0.6380451383829437 0 0.2853302738861428 0.6458941109685716 0 0.3089227236988549 0.6537427509521188 0 0.3325253065178996 0.6615852543067342 0 0.3561435025317129 0.6694202961813709 0 0.3983658381878072 0.6607359091903859 0 0.4217755322065199 0.6686470060453141 0 0.4638097302168512 0.660073569535347 0 0.7108010400395811 0.4693270578253451 0 0.7294117247569245 0.4527426002074199 0 0.7481158117891358 0.4360395849023637 0 0.7668165423843176 0.419414390253454 0 0.7854405115919888 0.4028493619084527 0 0.8040719569130396 0.3862715395448756 0 0.822704085703307 0.3696960597466975 0 0.6921935356497495 0.4858525896951693 0 0.6735805317536251 0.5024224975237228 0 0.6549639429176045 0.5189835335028034 0 0.6363420309741834 0.535514419986771 0 0.6177833072096253 0.5519918237299364 0 0.5991257405972436 0.5686369535982907 0 0.5804981325272505 0.5852355905753617 0 0.5618973408314814 0.6018174714043847 0 0.5432757029968467 0.6183425451771932 0 0.5246548509877803 0.6348683855875723 0 0.5060449438987318 0.6513999899877538 0 0.8650133327589615 0.3609698314961342 0 0.9531236649779926 0.3442266817732453 0 0.9305828502485098 0.3600532203327741 0 1 0.3249999999991935 0 0.9783493649054522 0.337499999999157 0 0.3797615314906226 0.6772665981412278 0 0.4452184102656507 0.6765827080230468 0 0.4874325970846668 0.6679314364642595 0 0.8463760247717015 0.3775511812021082 0 0.8886951415234459 0.3688217870664881 0 0.9118292370204355 0.3759890111096696 0 0.07818058969366874 0.5996435249183421 0 0.05540079033398092 0.5916442742869522 0 0.03838623720237222 0.5824496453125007 0 0 0.5781481481489228 0 0.1017345219363101 0.6074844702268859 0 0.1252947760257384 0.6153252171631493 0 0.1488627021720616 0.6231658900265079 0 0.1724352512820611 0.631007333947154 0 0.1960101373307905 0.6388506250075392 0 0.2195821934257557 0.6466922125708727 0 0.2431523941554038 0.6545439789109431 0 0.2667318254645604 0.6624017651367748 0 0.2903236403942442 0.6702533133009735 0 0.3139230764421379 0.678105302623464 0 0.3375365177540691 0.6859505507077662 0 0.3611532982273697 0.6937965450078256 0 0.403379358463573 0.6851146518338349 0 0.4267869831508935 0.6930374461099073 0 0.4688143396955933 0.6844621815032595 0 0.7345649576182973 0.4770313415666876 0 0.7159113631643576 0.4936440427604747 0 0.7532121197726622 0.46039501801338 0 0.7718438659993933 0.4438247237676586 0 0.79047236340405 0.4272681592415933 0 0.8091054078727462 0.4107042650424868 0 0.8277394582998032 0.3941301941229965 0 0.6973216158050232 0.5101406464899626 0 0.6786861028248772 0.5267336425334909 0 0.6600664178193998 0.543280069233639 0 0.6414579396636297 0.5598002138807122 0 0.6228064378840583 0.5763694828514955 0 0.6041409676130409 0.5930143836231357 0 0.5855204742501847 0.6096386095846746 0 0.5669079556954897 0.6261935447267862 0 0.5483026600396838 0.6427212711355328 0 0.529678094494008 0.6592536044912388 0 0.5110614216166366 0.6757887280968721 0 0.8700545744909214 0.3854010695818608 0 0.975912478169895 0.3608569076348973 0 0.9521705116113102 0.3714799610003908 0 0.9326759828093817 0.3807850394967313 0 1 0.3499999999991206 0 0.0207532266628156 0.5921571194557268 0 0.3847730366817772 0.7016477223950749 0 0.45020853001839 0.700983405714606 0 0.4924417506160758 0.6923227999441702 0 0.8514155483916577 0.4019802005756853 0 0.8937386312213285 0.3932537459362417 0 0.9205253414412237 0.4004712167907283 0 0.08316705357768407 0.6239649230426689 0 0.06038843476581399 0.6159643402722481 0 0.03988365791433614 0.6055145682382154 0 0 0.6029629629638107 0 0.1067245716982463 0.631811896927909 0 0.1302861626698192 0.6396565226938077 0 0.1538560799082589 0.6475000906549067 0 0.1774298033445551 0.6553446647659449 0 0.2010041757619189 0.6631885324831563 0 0.2245677744947462 0.6710469287776446 0 0.2481291041026534 0.6789077388374102 0 0.2717083176864658 0.6867663104198078 0 0.295316651357724 0.6946232392804955 0 0.3189273278663864 0.7024714852150546 0 0.3425418151527773 0.7103217571485834 0 0.3661632671059536 0.7181777851683637 0 0.4083741369870222 0.7095025923467683 0 0.4317928328849593 0.717431509176742 0 0.4738192410967836 0.7088551908629187 0 0.7582329149133497 0.4848457527696908 0 0.7395977487590599 0.5014290582494972 0 0.7209687844308552 0.5179901733645526 0 0.7768680722457363 0.4682572252634346 0 0.7955036770360007 0.4516974437532915 0 0.8141385725025759 0.4351276641439655 0 0.8327767604847429 0.4185595384854756 0 0.7023420749081952 0.5345451230715416 0 0.6837181060933275 0.551098016733264 0 0.6650954261220422 0.5676496129384747 0 0.6464756229201802 0.584189286002208 0 0.6278437905084591 0.6007553090302902 0 0.6091968819144433 0.6173828205900052 0 0.590536140289862 0.6340417618669703 0 0.5719244862929541 0.6505749868607668 0 0.5533107356835792 0.6671092012687176 0 0.5346929400802517 0.6836440951618366 0 0.5160726800592106 0.7001824456696432 0 0.8750980141011385 0.4098353719750643 0 1 0.3749999999990478 0 0.97532645269331 0.3858473132718643 0 0.9482719737254296 0.3959317882500935 0 0.02043278372079486 0.6169019114384884 0 0.3897881576909517 0.726033836676935 0 0.4552264081358256 0.7253703513534061 0 0.4974493922559446 0.7167186024381621 0 0.8564543811189806 0.4264138926531594 0 0.8985890911033572 0.41798911757161 0 0.9374829460330878 0.4154585787787171 0 0.0879869305569855 0.6482029125865802 0 0.06472843155263588 0.640417210033107 0 0.0419407119631958 0.629619835412315 0 0 0.6277777777786986 0 0.1117082054870657 0.6561448476351436 0 0.1352772696872631 0.6639911897015601 0 0.1588494412704852 0.6718370785013603 0 0.1824246206188084 0.6796871404428191 0 0.2059893220198847 0.6875358339615089 0 0.2295494575028608 0.6954132759019771 0 0.2531118814957625 0.7032837992087929 0 0.2767075885785432 0.711142494480523 0 0.300318490820531 0.7189921806549262 0 0.3239217094746785 0.7268428569810954 0 0.3475443955583877 0.7347018222516765 0 0.371172131184538 0.7425684700769914 0 0.4133750154260039 0.7338794850808861 0 0.4367859235916212 0.7418157744548785 0 0.4788276551307605 0.7332520901565126 0 0.7632519455272585 0.5092908977893991 0 0.7818916095821323 0.4927127362930834 0 0.7446199854398039 0.5258478994191089 0 0.7259893539123929 0.54240021284597 0 0.8005288092582279 0.4761416799342024 0 0.8191703788060207 0.4595652101688948 0 0.8378125251269166 0.4429933580947293 0 0.707363426704201 0.5589540464589504 0 0.6887315237270181 0.5755230955112036 0 0.6701082738977082 0.5920676642788405 0 0.6514871861970258 0.608597526255187 0 0.6328412579125545 0.6252085009618804 0 0.6141836362728109 0.6418551812241242 0 0.5955529027120111 0.658431060567028 0 0.576936897482799 0.6749619895449902 0 0.5583215901028831 0.6915002605991004 0 0.5397078453887817 0.7080421403621171 0 0.5210804196583336 0.7245844938515604 0 0.8801389300975632 0.4342712321935154 0 1 0.3999999999989749 0 0.9756037526532253 0.4118152227477818 0 0.9213103396951695 0.4273419196373914 0 0.954893215825775 0.4205568437945951 0 0.01992242293179295 0.6404324285076106 0 0.3947719414417693 0.7503947984531409 0 0.4602296618681622 0.7497682927731848 0 0.5024473739750946 0.741126353759452 0 0.861491453002873 0.4508500196699469 0 0.9038321410739458 0.442128379357508 0 0.944099459185308 0.4375111603566549 0 0.06845433955732599 0.6642452437186225 0 0.09291860414737053 0.6725280948787482 0 0.04453978180175028 0.6544745428892004 0 0 0.6525925925936003 0 0.1166986267651879 0.6804814578858385 0 0.1402684416660818 0.6883266958890248 0 0.1638159760878218 0.6961666426694768 0 0.1873699831320982 0.7040338177618661 0 0.2109353118699736 0.7119170212549324 0 0.2345043390261596 0.7197926524322799 0 0.2580966426425831 0.7276655325348809 0 0.2817107238198528 0.7355175210303871 0 0.3052826078803217 0.7433540757571901 0 0.3289156195696673 0.7512158208591418 0 0.3525284888538021 0.7591013441058904 0 0.376180819973471 0.7669671269889415 0 0.4182320585294196 0.7583209355040401 0 0.441606757239287 0.7662785430806898 0 0.4837938534527524 0.7576737497519525 0 0.7869161514994587 0.5171523207264128 0 0.7682792241124586 0.5337144185559159 0 0.8055599728934277 0.5005804605909058 0 0.7496433710414931 0.5502765145623234 0 0.7310104437079079 0.5668089733866573 0 0.8242034525648001 0.4840049923222758 0 0.8428475675447279 0.4674283565452695 0 0.7123736745962509 0.5834003810706497 0 0.6937218748715848 0.6000043330775011 0 0.6750900571165191 0.6165768555530667 0 0.6564536625667952 0.6331457146916296 0 0.637826725253989 0.6497001677957585 0 0.6191902190465857 0.6662819881775419 0 0.6005696847579037 0.6828148294140886 0 0.5819615507881932 0.6993513698194793 0 0.5633539621419374 0.7158977489651736 0 0.5447245278503997 0.7324470084656598 0 0.5260894349681721 0.7489948521045041 0 0.8851786504168292 0.4587131670414244 0 1 0.4249999999989021 0 0.9721633022312598 0.4381861633990853 0 0.9271590142568098 0.4511089855043813 0 0.02244024297541841 0.6654433106669332 0 0.3997265931003915 0.774802437490723 0 0.4651437450658903 0.7742284139993332 0 0.5074490618606399 0.7655436525242044 0 0.8665279864203848 0.4752870703892063 0 0.9088681797029518 0.4665741416133666 0 0.9524085324950305 0.457343038710266 0 0.04561500423203514 0.6805406386061202 0 0.07455133297017917 0.689122049990453 0 0.09811218954747893 0.6969720574558516 0 0 0.6774074074084013 0 0.1216762775226566 0.7048080632968691 0 0.1451988306237398 0.7126692141001609 0 0.1687467165596971 0.720556330706162 0 0.1923083255417651 0.7284210671337203 0 0.2158904439970731 0.7363054803382423 0 0.2394737539265025 0.7441820301922364 0 0.2630566931936396 0.7519940352089014 0 0.2865177321955522 0.7598723949524919 0 0.3101677547334344 0.7677594600094837 0 0.3338621832898216 0.7756089142762967 0 0.3574806569041374 0.7835754204122075 0 0.3811272793572201 0.7913948670463611 0 0.4231440460899289 0.7827702295511338 0 0.446496158298585 0.7907782837904356 0 0.488803082457408 0.7820951077102581 0 0.8105903098612665 0.5250136577475472 0 0.7919471164826494 0.5415861891476389 0 0.7733031098915536 0.5581532026021419 0 0.8292360251359028 0.5084394077173153 0 0.7546581091848424 0.5747343805641472 0 0.7360083295387583 0.5913167217112139 0 0.8478806698775847 0.4918638187461582 0 0.7173775267238472 0.607866558195997 0 0.6987358151163786 0.6244462520938459 0 0.6800972842677196 0.641020840732326 0 0.6614619653177412 0.6575891316867569 0 0.6428329522382431 0.6741390916814602 0 0.6242063079247772 0.6906767063117893 0 0.6056020971383475 0.7072031767035676 0 0.5869934171121712 0.7237479104277599 0 0.5683704554888648 0.7403067140248543 0 0.5497423326201095 0.7568597420194433 0 0.5311042163890261 0.7734121165699963 0 0.8902115685858232 0.4831489113624124 0 1 0.4499999999988292 0 0.9324695775011571 0.4742446666747282 0 0.9769746177693128 0.4644829462989998 0 0.01920752479417051 0.6870985649337773 0 0.4047482662464391 0.7992619088922692 0 0.470155676252775 0.7986491679186329 0 0.5124561953200759 0.7899581500420252 0 0.8715669057478205 0.4997267902294428 0 0.9132246291826989 0.4911070957795024 0 0.9575096759650641 0.479360736799831 0 0.0560043951297582 0.7054972211523106 0 0.07952918663254217 0.71346362423906 0 0.1030902758993143 0.7212975498573282 0 0.03424303741284597 0.700266998812485 0 0 0.7022222222231429 0 0.1266137128524203 0.7291784913563515 0 0.1501358401043873 0.7370644787623738 0 0.1736513438683709 0.7449827638093739 0 0.1972289208224938 0.7528590340320119 0 0.2208571900377289 0.7607099998734677 0 0.2444633977442268 0.7685412864797242 0 0.2678110478992749 0.7762711723723785 0 0.2909796951262075 0.7844945896164985 0 0.3146118715267375 0.792385052681517 0 0.3382973206133321 0.8002490927188076 0 0.3618507668950555 0.80815114554653 0 0.3855735787157556 0.815996761782525 0 0.4281576952293605 0.8072694418509804 0 0.4515566133652019 0.8151919123907081 0 0.4938112534552203 0.8065125246181337 0 0.8342685565148311 0.5328770022703406 0 0.8156205248315259 0.5494513648156563 0 0.7969737944879782 0.5660264612527263 0 0.778327846265596 0.582599978780415 0 0.8529169721850828 0.5163021415301481 0 0.7596814273406012 0.5991723224975141 0 0.7410359199186193 0.6157423145910956 0 0.7223957630724958 0.632304202894173 0 0.7037528084718319 0.648861982561649 0 0.6851141027347445 0.6654480257240076 0 0.6664774111579878 0.682007754787612 0 0.6478471062190357 0.6985494919820174 0 0.6292496820900264 0.7150654038802406 0 0.6106556356591861 0.7315964000477299 0 0.5920447109041108 0.748159521002798 0 0.5734027054843994 0.7647223725802377 0 0.5547619683896691 0.7812798746558537 0 0.536097664664359 0.7978257982503864 0 0.8951345925527248 0.5076178808056709 0 1 0.4749999999987564 0 0.9344644825328254 0.4994541645876123 0 0.9786587875259283 0.4880466552337779 0 0.01824729961814747 0.7130198012397942 0 0.4093588875337516 0.8238327497371732 0 0.4751498670348792 0.8230531698187513 0 0.5174246461818923 0.8143545225283267 0 0.8766092130184298 0.5241687347679722 0 0.9181993742207111 0.5156028096332241 0 0.9584941364832372 0.50346416994387 0 0.06120311471347666 0.7300545946570471 0 0.03875993630237977 0.7226541127331845 0 0.08451646274952331 0.7377999303353171 0 0.1080367636456444 0.7456703326895529 0 0 0.7270370370379062 0 0.1315442893187798 0.7535613094318241 0 0.155037228344599 0.7615347716805394 0 0.1786296656357226 0.7693882904383487 0 0.2022409764123169 0.7772325954163414 0 0.2258231276026104 0.7850408332948762 0 0.2491641231689085 0.7930524106188344 0 0.272496363989421 0.8009699366616154 0 0.2958799728109294 0.8089653281493856 0 0.3195319207260956 0.8168377857818012 0 0.3432162183672175 0.8247018948802411 0 0.3668636628428142 0.8325768786879981 0 0.3905374463274006 0.8404333611782935 0 0.4329186132312131 0.8317316340011425 0 0.4565070260543719 0.8396077996648958 0 0.4987181643451599 0.8309170916254109 0 0.8393002811484253 0.5573161561499428 0 0.8579525158727791 0.5407400881579341 0 0.8206499262716744 0.5738906153708209 0 0.8020018884890001 0.5904640482835788 0 0.7833527330034109 0.6070343279275487 0 0.76470562613238 0.6236062114106646 0 0.7460598568898589 0.6401738308055878 0 0.7274167070078938 0.6567387052256826 0 0.70877432676313 0.6733064841614906 0 0.6901301983251378 0.6898717543847304 0 0.671498377578869 0.706413164379766 0 0.6528842826407876 0.7229380124267593 0 0.6342996548526731 0.7394685092379863 0 0.6156867288231287 0.7560088965305002 0 0.597063289480451 0.7725776872251813 0 0.5784130569009274 0.7891345073264603 0 0.5597598116778546 0.8057104590720048 0 0.54106329954768 0.8222484638373373 0 0.9003357758593779 0.5320548118124253 0 1 0.4999999999986943 0 0.9414622937374929 0.525690772935795 0 0.9793957259734243 0.5125897029772474 0 0.02029393074179729 0.7378077053233995 0 0.414217725452341 0.8483033907178293 0 0.4800588806167177 0.8474528052846741 0 0.5223159902971344 0.838858104013089 0 0.8816431454799381 0.5486040543817037 0 0.9225799749301715 0.540224795227261 0 0.963399515994112 0.5250178219923967 0 0.06610757636210501 0.7544983380562378 0 0.04265447262438749 0.7463623280179165 0 0.08947675625579393 0.7621529960029236 0 0.1129826352289547 0.7700428983957295 0 0 0.7518518518526134 0 0.1364804826530622 0.777987288657307 0 0.1600215019159812 0.7859072220459495 0 0.1836247469347048 0.7937601549562939 0 0.2071979187151423 0.8015580913797087 0 0.2304967436593406 0.8095092405854826 0 0.2538762321814921 0.8175542563787357 0 0.2772804569612931 0.8255679894991799 0 0.3008858772367721 0.8333842211339771 0 0.3245440390403299 0.8412602420259851 0 0.3482096000856783 0.8491362245203243 0 0.3718768601292856 0.8570088430682103 0 0.395544122463785 0.8648892755698481 0 0.4378797835271047 0.856189270664626 0 0.4614529047242886 0.8640556176933099 0 0.5035167285887554 0.855502167274214 0 0.8443283558480826 0.5817492196580138 0 0.8629848927457069 0.5651851272608561 0 0.8256769760209904 0.5983244505994412 0 0.8070289631567459 0.6149013777825461 0 0.7883733270347736 0.6314647203724463 0 0.769729409616177 0.6480382672948997 0 0.7510827431369504 0.6646049036347494 0 0.7324391445694258 0.6811733832470923 0 0.7137921115032724 0.6977388356023784 0 0.6951424081811628 0.7143005552030097 0 0.6765058508437514 0.730851290922873 0 0.6578978048075261 0.7473759103858444 0 0.6392687951113151 0.7639215323688374 0 0.6206529963453193 0.7804240694357405 0 0.6020157041226066 0.7969951635556223 0 0.5834030811865708 0.8135701803336045 0 0.5646986481010636 0.8301761899607343 0 0.5459599123183737 0.8467606740005014 0 0.9055301699914652 0.5566836017411674 0 1 0.5249999999987492 0 0.9400572834987744 0.5496719522196234 0 0.9795180805437578 0.5375133733631878 0 0.9596026851516696 0.5458749112788488 0 0.02221978535166277 0.7623746137305273 0 0.4192221616445165 0.8727592505160062 0 0.4849723353862154 0.8720428715936878 0 0.5272131908009455 0.8633657048127434 0 0.8868388327287671 0.5732390060727679 0 0.9283628038074594 0.5655574414253958 0 0.07091407352867135 0.7786560941370184 0 0.04734249227490348 0.7707846036071033 0 0.09446689135667424 0.7865006414462656 0 0.1179496127396476 0.7944597721052102 0 0 0.7766666666673896 0 0.1414377216832481 0.8024059942471864 0 0.1650122762116262 0.8102963409401818 0 0.1886138733607201 0.8181237027463123 0 0.2119167330462243 0.8259054708723271 0 0.2351887975147407 0.8341006697809163 0 0.2586309077952492 0.8421252911263866 0 0.2822364376868832 0.8499256851797445 0 0.3058904460364114 0.8578139056214279 0 0.3295549586290292 0.865692086186504 0 0.3532214787574808 0.8735683324579627 0 0.3768932545614623 0.881439639867212 0 0.4005611535665711 0.8893313962064142 0 0.44281099499686 0.8806792491882121 0 0.4663518110898649 0.8886412674858473 0 0.5084868954603224 0.879997863105044 0 0.8493752657451178 0.6061599122303861 0 0.8680410149538313 0.5896389721926487 0 0.8307093562608239 0.622717274531145 0 0.8120528158532958 0.6392986499891086 0 0.7934018709564656 0.655875526872803 0 0.7747473201383935 0.6724617571716209 0 0.7561091838173526 0.6890342785652648 0 0.737464414151273 0.7056032872923197 0 0.7188106747023 0.7221718217193971 0 0.7001537422192166 0.7387367648201518 0 0.681520243872369 0.7552993372376001 0 0.6628776156842262 0.7718532384925771 0 0.6441793787924621 0.78844642347837 0 0.6255937518544659 0.8049318513625564 0 0.606974713706163 0.8214927375247165 0 0.5883914843814165 0.838054436311463 0 0.5695760711041975 0.8547059114160456 0 0.550836136673637 0.8713141493559005 0 0.9102562875050957 0.5814862555483349 0 1 0.5499999999988151 0 0.9537171211796475 0.5715497880056861 0 0.9783491899070615 0.5624967757087396 0 0.02223927512402496 0.7894683281093189 0 0.4242411473823571 0.897208379413259 0 0.4898457555776494 0.8965456696886968 0 0.5321515865497387 0.8878954370638176 0 0.8918635378642861 0.5977937202223197 0 0.9338331342763043 0.589657183153611 0 0.07571908385350629 0.8031484651213515 0 0.0512314615980345 0.7955465057895227 0 0.09943387232950139 0.8108903724224938 0 0.1228960731864451 0.8189314374622795 0 0 0.8014814814820662 0 0.1464012203385432 0.8268327195633068 0 0.1699668950653873 0.8346232232017843 0 0.1932724058745579 0.8426661455126438 0 0.2165955102092499 0.8505605624777646 0 0.2399059307779282 0.8586062571685478 0 0.2635674892502444 0.8664868653507958 0 0.2872336490329104 0.8743672071655986 0 0.3108995669642636 0.8822490424251748 0 0.3345708877377516 0.8901275427187061 0 0.3582368399174974 0.8979978433002973 0 0.3819212655113532 0.9058432698431871 0 0.4056828121919807 0.9134674252257163 0 0.4476774223693776 0.9054117583239948 0 0.4708996786698247 0.913633947143672 0 0.5134245705589467 0.9044137094147465 0 0.8544234128164481 0.6305252915608368 0 0.873101712448271 0.6140641449963573 0 0.8357569257695958 0.6471138808805638 0 0.8170911678329521 0.6637157556850348 0 0.7984405092487057 0.6803042672706388 0 0.7797862026956973 0.6968915777793727 0 0.7611429383309583 0.7134641039733972 0 0.7424893362535305 0.7300379596997184 0 0.7238335835213539 0.7466083791793581 0 0.7051770863909808 0.7631774450001865 0 0.6865181826802713 0.7797494137516268 0 0.6678589912547794 0.7963210383934876 0 0.6491967595627168 0.8128932509676103 0 0.6305355730680636 0.829461264764749 0 0.6119919165840637 0.8460152153685798 0 0.5932608390052647 0.8625928361744131 0 0.5745237613731126 0.8791956813831188 0 0.5558414498614074 0.8957762757379047 0 0.9149294035335191 0.6057434780341093 0 1 0.574999999998881 0 0.9567530219614166 0.5997636235265713 0 0.9779770871758517 0.5869246431307578 0 0.03453677873593997 0.8142782483861707 0 0.01444291403783705 0.8138888888894578 0 0.4292653241475131 0.9211623317842245 0 0.4947709213645929 0.9209622113264407 0 0.5368535930509326 0.9119985546856207 0 0.8966496858010352 0.6221692495401567 0 0.9379484251596391 0.6153801054156038 0 0.05781575898654446 0.8195138932614042 0 0.08072759985215563 0.827528200747123 0 0.1042281191000225 0.8354561758552652 0 0.1277931650240388 0.8433479157997521 0 0 0.8262962962968513 0 0.1513390790882494 0.8511441445928334 0 0.1745903302285364 0.8591074458510986 0 0.1979636625270045 0.8671892472402754 0 0.2213737965260951 0.8752077854291125 0 0.2449070073305828 0.8830388470995694 0 0.2685725614652835 0.8909232706921122 0 0.2922408057806695 0.8988073809818469 0 0.3159141023378613 0.9066908614255609 0 0.3396005727975766 0.9145682117593854 0 0.3621924985660486 0.9218671453624615 0 0.3857970190909464 0.9332910616487242 0 0.413165532233879 0.9371121600393091 0 0.4519250213931402 0.9319023912771639 0 0.4748271402243237 0.9383403847598887 0 0.518119203116395 0.9285094834403861 0 0.8594774966171587 0.6549552251135986 0 0.8781325451393449 0.6383939863460806 0 0.840812472597684 0.671543630759814 0 0.82213931393026 0.6881404403977575 0 0.8034771799384652 0.7047405457172441 0 0.7848247810546968 0.7213230051244595 0 0.7661694938104759 0.737904654565753 0 0.7475131055045866 0.7544782968170135 0 0.728857266449918 0.7710498634639174 0 0.7101995963395784 0.7876221136366512 0 0.69154073487845 0.8041954134874858 0 0.6728798765211068 0.820769666214477 0 0.6542123676697466 0.8373450127219 0 0.6355667210164716 0.8539185029356087 0 0.6169004978281958 0.8704969407239753 0 0.5982067713945226 0.8870809044497074 0 0.57953064540326 0.9036580357377688 0 0.5608631244099471 0.9202368199814355 0 0.9198497274508971 0.6305276821573385 0 1 0.5999999999989468 0 0.9784557823631685 0.6124992939670016 0 0.9594109584700307 0.6251240553194752 0 0.02181265510500267 0.8378756231713193 0 0.04384351285108134 0.8349390219755538 0 0.4345791820456505 0.9400937638581169 0 0.4997608834190947 0.9454096159710608 0 0.5424231033824537 0.9359521525811059 0 0.9018413455411203 0.6462493828440965 0 0.9425566432439851 0.6402696075180441 0 0.0624824620509345 0.8438214249673315 0 0.08563495426702097 0.851975425294601 0 0.1091548178085735 0.8598817827109447 0 0.1327208301057704 0.8676732528963988 0 0 0.8511111111115715 0 0.1560150998324563 0.8757968784060657 0 0.1793103561464381 0.8838205794370697 0 0.2026395761771499 0.8917729647339636 0 0.2262436613244304 0.8995916131682532 0 0.2499117805100057 0.9074790303243861 0 0.273580960410745 0.9153629157037387 0 0.2974706959017178 0.9225925868923048 0 0.3209676028773955 0.9310309865792379 0 0.3440905558895248 0.9379920904975784 0 0.363508738189393 0.9415103951255969 0 0.39947839748411 0.9568717541490975 0 0.4241904584430736 0.9577866235699766 0 0.4511897328231916 0.9559718867128966 0 0.4801575592943832 0.9619372430675446 0 0.5242545733695954 0.9562820574104217 0 0.864509711812433 0.6794144134521598 0 0.8831784135184899 0.6628252905974504 0 0.8458420761646341 0.6960064009085458 0 0.8271767170213448 0.712595667750621 0 0.8085137414706085 0.7291882129764368 0 0.7898520901557156 0.7457735000423362 0 0.77119430059017 0.7623504110118221 0 0.752536566181661 0.7789226132278473 0 0.7338780981415631 0.7954942957465607 0 0.7152208512468929 0.8120681241843084 0 0.6965665550098681 0.8286451546695028 0 0.6779022470008235 0.8452229797962034 0 0.65923505926287 0.8618007602780051 0 0.6405703391942119 0.8783805487105526 0 0.6219014715142934 0.8949619265352271 0 0.603227054120535 0.9115448113332413 0 0.5850837544365211 0.9278457600864441 0 0.5675850982979272 0.942971691326884 0 0.925334921062209 0.6547657541139006 0 1 0.6249999999990126 0 0.9791624950347799 0.6369927481957234 0 0.961254552127965 0.6458555409153441 0 0.04256990937698509 0.8592059200915432 0 0.01963700143056791 0.8646402808260137 0 0.3748873527843649 0.958203767376447 0 0.5027808158078839 0.9709878500244704 0 0.5507472810645831 0.9576505966007576 0 0.9068777488216413 0.6706923418096659 0 0.9492670038284078 0.6619779312999536 0 0.06692423264255798 0.8685844704727997 0 0.09054087702670045 0.8764288296193756 0 0.1141581956181583 0.8842755942035693 0 0.1374866424149427 0.8922163649444259 0 0 0.8759259259263067 0 0.1607478272674286 0.9002724519903251 0 0.1839848821459451 0.9083443650207406 0 0.2075761341866544 0.9161467584908281 0 0.2312467798443942 0.9240369818626739 0 0.2571609728158187 0.9352949370198201 0 0.2811050320991315 0.9349644365076393 0 0.2998803480695492 0.9445451268007643 0 0.3236114093795991 0.9568552917230968 0 0.3500032715461944 0.9603064656157591 0 0.387496423359403 0.9783511625950532 0 0.4124060183924215 0.9783774111509527 0 0.4373436754833699 0.9785340529908007 0 0.4625000000019244 0.9783493649053084 0 0.4840876750216453 0.9822548915994647 0 0.5191218073013026 0.9821724671323182 0 0.5382556730394353 0.9779206683461599 0 0.8882115913920219 0.6872887432689789 0 0.8695410507511017 0.7038771987024881 0 0.8508731908749817 0.7204670543884355 0 0.8322079224094654 0.7370553254396865 0 0.8135437582439629 0.7536412337842738 0 0.7948797379891946 0.7702241807135084 0 0.7762152082973186 0.7868036649031503 0 0.7575585731410007 0.8033765025300381 0 0.7388977635789535 0.8199492723699466 0 0.7202461892855307 0.8365202795431178 0 0.7015937985717031 0.853100231840578 0 0.6829172568852722 0.8696715821392436 0 0.6642578482225396 0.8862564922687696 0 0.6455962163597189 0.9027973878774939 0 0.6269254442745065 0.9194273030213032 0 0.6082488003646309 0.9360151305494228 0 0.5898183772612799 0.9515220972551015 0 0.5723240506519374 0.9618223826239243 0 0.934737104484154 0.6808016589801902 0 1 0.6499999999990784 0 0.9754473838228733 0.6627066425473708 0 0.03354440105454251 0.875441488112837 0 0.04924277196120344 0.8849435585446362 0 0.0198950430468772 0.8882816165425059 0 0.3625307347035507 0.9790578192483366 0 0.5000000000020587 1 0 0.5626423181488592 0.9791804535826764 0 0.9122714217069425 0.6955943195252896 0 0.9594290170779416 0.6797290205629724 0 0.07192628482908829 0.8929635237874354 0 0.09554863702873825 0.9008236890336034 0 0.1190274715255493 0.908711910362221 0 0.1423686510308691 0.9166998529474928 0 0 0.900740740741054 0 0.1655237438408531 0.9248133694185442 0 0.188921710857486 0.9327165290989021 0 0.2129816603145376 0.9397370674081862 0 0.2362495506313347 0.9484885495401605 0 0.2774321832978268 0.9570266161215677 0 0.3000872698039961 0.9648181346174545 0 0.3376847128895313 0.9789813219938274 0 0.3750000000015603 1 0 0.4000000000016644 1 0 0.4250000000017684 1 0 0.4500000000018723 1 0 0.4750000000019764 1 0 0.5250000000019071 1 0 0.5500000000017335 1 0 0.8932406709472689 0.7117279148403927 0 0.8745694406072639 0.7283380902324914 0 0.8559025396519229 0.7449269894472679 0 0.837235348314804 0.7615118766610842 0 0.8185714391990557 0.7780967280124951 0 0.7999049109771239 0.7946792791683643 0 0.7812345206137096 0.8112613823940366 0 0.7625707610710051 0.8278343259961393 0 0.7439137921363927 0.8444079944861416 0 0.7252655030627194 0.8609837249434402 0 0.706594488310059 0.8775549054037276 0 0.6879136268544929 0.8941394164262114 0 0.6692620620454082 0.9106863572398886 0 0.6506773244290273 0.9270817877030002 0 0.6323996959861182 0.9425581346183185 0 0.6154416680630288 0.9613802606283416 0 0.5882266297807763 0.9775910734962303 0 0.9323631008275636 0.7052440085287345 0 0.9556622308188826 0.7024818394621202 0 1 0.6749999999991443 0 0.9788044805711458 0.6882878970113018 0 0.03616082106312413 0.899160648506335 0 0.05535260426139955 0.9091817809746422 0 0.02048860481955851 0.9130243964976866 0 0.2542360000606489 0.9591454860375533 0 0.3126563798767479 0.9796327498855458 0 0.3500000000014564 1 0 0.5750000000015603 1 0 0.9168947122759913 0.7197372546779693 0 0.07693002842642384 0.9173595258439039 0 0.1005687386392858 0.9252283173153782 0 0.1242363762282345 0.9330843419612446 0 0.1469305956698835 0.9401602037103058 0 0 0.9255555555557314 0 0.1701760425627207 0.9473224902455526 0 0.1944669342036606 0.9575483269920861 0 0.2188233490931826 0.9597407040454564 0 0.236954073546028 0.9750043147723965 0 0.2632059999326513 0.9787595090613925 0 0.2876432289751554 0.9800998404127302 0 0.3250000000013522 1 0 0.8982868144832454 0.7362927081142046 0 0.8796045827087077 0.7527848205034331 0 0.860931228990733 0.7693769141696842 0 0.8422681643821882 0.7859645592246585 0 0.8236003284177702 0.8025543695908661 0 0.8049301797686055 0.8191381335784083 0 0.7862515569452764 0.835725350144819 0 0.7675738733119485 0.8523091266658938 0 0.7489383597485059 0.8688851538140726 0 0.7302624243045247 0.8854625528333694 0 0.7115802215234235 0.9020429637643509 0 0.6928870756619284 0.9186342859550658 0 0.6739181690774918 0.9343119035934653 0 0.6558464245866676 0.9496938747930053 0 0.6396385028359762 0.9606977949823823 0 0.6125011624164099 0.9837659019639612 0 0.6000000000013869 1 0 0.9422500348518479 0.7276049699981031 0 0.9792287127636821 0.7126313223765952 0 1 0.69999999999921 0 0.03844150123516354 0.9240910503657025 0 0.05904548223234629 0.9336156757830217 0 0.01980868686819173 0.9378827813639272 0 0.3000000000012483 1 0 0.6338375142356439 0.979858175695234 0 0.9220723260656662 0.7444493038458219 0 0.9637160826647106 0.7254588490098434 0 0.08231180193789436 0.940637042676179 0 0.1063478899524125 0.9490329276239677 0 0.1295789816352167 0.9572013610994904 0 0.1526392646682486 0.9617809366001006 0 0 0.9503703703705487 0 0.1751676162955255 0.9660941309669951 0 0.2105581120318895 0.9791514003032031 0 0.2500000000010403 1 0 0.2750000000011442 1 0 0.9033391542945752 0.7607188645851193 0 0.8846485810464095 0.7772462152011036 0 0.8659768496226472 0.7938192232982606 0 0.8473014206242375 0.8104276816442655 0 0.8286302923670088 0.8270156526983863 0 0.8099554019392905 0.8436033849322692 0 0.7912783901761429 0.8601912371355455 0 0.7726082678563736 0.8767781441390849 0 0.7539413172360896 0.8933585971369442 0 0.735254655946351 0.9099499719376816 0 0.7165598701263948 0.9265518468466898 0 0.6971582987290832 0.942014848942291 0 0.6780589084576136 0.9575839248166667 0 0.6604280840451401 0.9752242958410899 0 0.6250000000012135 1 0 0.9605575770858702 0.7414900853829955 0 0.9460736412686895 0.7543866079083467 0 1 0.724999999999276 0 0.9783493649053321 0.7374999999993094 0 0.03977368991005383 0.9501009268338904 0 0.06391854309478812 0.9590290071274832 0 0.01938134303210091 0.9621452986073813 0 0.1869379492751729 0.9802561058451071 0 0.2250000000009362 1 0 0.6500000000010401 1 0 0.9270939104672534 0.7685397490232783 0 0.08921000616851897 0.95937652304515 0 0.1101981146393351 0.9749888975668922 0 0.1378394971796619 0.9790826025454195 0 0.1625601080808684 0.9804655500166233 0 0 0.9751851851852422 0 0.2000000000008322 1 0 0.908367206300181 0.7850937273814451 0 0.8896724643616133 0.8016837412686796 0 0.8710095688206395 0.8182918049394904 0 0.8523346373190599 0.8348908428960005 0 0.833659474116653 0.8514815193596421 0 0.8149841850920198 0.8680699418025566 0 0.7963067584478539 0.8846602522761958 0 0.7776287284519191 0.9012506570356166 0 0.7589526775259645 0.9178416417639959 0 0.7402709404913043 0.934435650482048 0 0.7221320089777292 0.9545919696673466 0 0.6999998737602781 0.9629026132972568 0 0.6874998526486905 0.9783494499793081 0 0.6750000000008667 1 0 0.9723987617387713 0.7624999999993753 0 0.9511512253670986 0.7767767886168389 0 1 0.7499999999993417 0 0.03865046829144554 0.9773366052353082 0 0.08374992471768906 0.9795104246909141 0 0.01805521312291435 0.9819959226553717 0 0.1750000000007281 1 0 0.9319664786549031 0.7928416310834391 0 0.1250000000005201 1 0 0.1500000000006241 1 0 0.06226378722088857 0.983175207410741 0 0 1 0 0.9133158576105505 0.8094761078602812 0 0.8947214722250941 0.8261708052038573 0 0.8760431834715183 0.8427669110103704 0 0.8573655960289002 0.8593607298018158 0 0.8386885928254116 0.8759484859831972 0 0.8200156942657686 0.8925285908329816 0 0.8013621073538839 0.9090453521394641 0 0.7829865157888238 0.9240238958915669 0 0.765567288845252 0.9397820229680002 0 0.7509350797360043 0.9572692101405528 0 0.7125000000006065 0.9783493649055393 0 0.7000000000006934 1 0 0.9776291595009881 0.7875380515276744 0 1 0.7749999999994076 0 0.9561619377115562 0.8016247214406151 0 0.100000000000416 1 0 0.05000000000020799 1 0 0.02500000000010405 1 0 0.07500000000031215 1 0 0.7373728002825997 0.9797457966742749 0 0.936501768568726 0.8167601470307382 0 0.9179198229085417 0.8334700925866981 0 0.8997545628036985 0.850646150514148 0 0.8810748357760605 0.8672409377778465 0 0.8623949756234002 0.8838346161837048 0 0.8437145735550088 0.9004276213555383 0 0.8250690499201967 0.9169161840051478 0 0.8066312769403667 0.9360687629678172 0 0.787877567405636 0.9431430579458403 0 0.7763840592035564 0.9592015607820014 0 0.7623386951329825 0.979113923742874 0 0.7250000000005199 1 0 0.9785045479397869 0.813272731266268 0 1 0.7999999999994734 0 0.9578471192075504 0.8261727904711519 0 0.7500000000003466 1 0 0.9391128527136925 0.8403434994693112 0 0.9220365280160845 0.8571983502841284 0 0.9045500207971512 0.8749002582797889 0 0.886106788782708 0.8917166463959966 0 0.8674239965032453 0.9083123153430144 0 0.8487409039285756 0.9249085076766184 0 0.8300502952676565 0.941506388529801 0 0.7988740897752287 0.9585094594659177 0 0.7879965183082089 0.9787583886857587 0 0.7750000000001732 1 0 1 0.8249999999995392 0 0.9788637986048095 0.8379581758187318 0 0.9583083698274745 0.8505032137891103 0 0.8201993130711416 0.9593370027969825 0 0.9420106583123118 0.861984592576875 0 0.932272895769898 0.8823819684245984 0 0.9098224078672256 0.8995969187648785 0 0.8911388419334254 0.9161948069347212 0 0.8724544057399206 0.9327926566294283 0 0.8545858659566004 0.9502129051909997 0 0.837499999999744 0.9700914849871917 0 0.8122917238383637 0.9781055606954954 0 0.7999999999999998 1 0 1 0.8499999999996051 0 0.9785227546540464 0.8628003193867176 0 0.9566987308811586 0.8749999999996693 0 0.933540990258774 0.9074780711296373 0 0.9148558428993067 0.9240777970427465 0 0.8959904604396117 0.9397747407701227 0 0.8784853701953227 0.9569978691521464 0 0.8632446788495237 0.9766771819578198 0 0.8249999999998263 1 0 0.9559309085209713 0.898711103850057 0 1 0.8749999999996708 0 0.9781530512229279 0.8880930545417838 0 0.8499999999996529 1 0 0.9382926456802405 0.9328115065652158 0 0.9544298726402942 0.9196756121555638 0 0.9196554759548007 0.9469137389282831 0 0.903397003740543 0.9616579055256818 0 0.8880972945692732 0.9794009325041808 0 0.8749999999995011 1 0 0.9766321162560174 0.9157580083356738 0 1 0.8999999999997368 0 0.9438287412875872 0.9571755573468378 0 0.9622966325533394 0.9398438882569635 0 0.9250191183149887 0.965686669358203 0 0.9125008924568139 0.9810589679817073 0 0.8999999999995836 1 0 1 0.9249999999998024 0 0.9835192958639845 0.938104386090405 0 0.9615520967513286 0.958473317182881 0 0.936713981574347 0.9800001555686662 0 0.9786677305105651 0.9599200338597169 0 0.9249999999996876 1 0 1 0.9499999999998684 0 0.9614152826538228 0.9769537892680058 0 0.9499999999997918 1 0 1 0.9749999999999343 0 0.9818260183860712 0.981826018386081 0 0.9749999999998958 1 0 1 1 0 </DataArray>
      </Points>
      <Cells>
        <DataArray type="Int32" Name="connectivity" format="ascii">0 1 2 1 3 2 4 0 2 3 5 2 6 0 4 5 4 2 3 7 5 6 4 8 9 4 5 7 10 5 7 11 10 12 6 8 8 4 13 4 9 13 10 9 5 10 11 14 11 15 14 16 12 8 17 8 13 9 18 13 10 19 9 10 14 19 15 20 14 21 12 16 17 16 8 18 17 13 19 18 9 19 14 22 15 23 20 14 20 22 21 16 24 16 17 25 18 26 17 27 18 19 28 19 22 20 23 29 20 30 22 31 21 24 24 16 25 17 32 25 27 26 18 17 26 32 28 27 19 30 28 22 23 33 29 20 29 30 31 24 34 35 24 25 32 35 25 27 36 26 32 26 37 38 27 28 39 28 30 29 33 40 29 41 30 33 42 40 43 31 34 24 44 34 35 44 24 45 35 32 38 36 27 26 36 37 45 32 37 38 28 39 41 39 30 46 29 40 46 41 29 42 47 40 48 43 34 34 44 49 35 50 44 45 50 35 38 51 36 37 36 52 45 37 53 54 38 39 41 55 39 47 46 40 56 41 46 42 57 47 58 43 48 48 34 49 44 59 49 44 50 59 60 50 45 54 51 38 36 51 52 53 37 52 60 45 53 55 54 39 56 55 41 46 47 61 56 46 61 47 57 62 57 63 62 58 48 64 65 48 49 59 65 49 50 66 59 60 66 50 67 51 54 51 68 52 69 53 52 70 60 53 71 54 55 72 55 56 47 73 61 74 56 61 73 47 62 63 75 62 76 58 64 64 48 65 59 77 65 66 77 59 60 78 66 67 68 51 67 54 71 68 69 52 70 53 69 70 78 60 71 55 72 72 56 74 73 74 61 73 62 79 63 80 75 62 75 79 81 76 64 64 65 82 77 83 65 77 66 84 66 78 84 85 68 67 67 71 86 68 87 69 88 70 69 70 89 78 71 72 90 91 72 74 73 92 74 93 73 79 75 80 94 75 95 79 80 96 94 97 76 81 81 64 82 65 83 82 98 83 77 98 77 84 84 78 99 85 87 68 85 67 86 71 90 86 87 88 69 88 89 70 78 89 99 90 72 91 92 91 74 93 92 73 95 93 79 75 94 95 96 100 94 96 101 100 97 81 102 103 81 82 83 103 82 98 104 83 98 84 105 84 99 105 106 87 85 107 85 86 86 90 108 87 109 88 88 110 89 89 111 99 90 91 112 92 113 91 114 92 93 115 93 95 94 116 95 100 116 94 100 101 117 118 97 102 81 119 102 119 81 103 83 104 103 120 104 98 120 98 105 99 121 105 106 109 87 106 85 107 107 86 108 108 90 112 88 109 110 89 110 111 111 121 99 91 113 112 114 113 92 114 93 115 116 115 95 116 100 122 101 123 117 100 117 122 124 118 102 119 125 102 119 103 126 103 104 126 120 127 104 128 120 105 121 128 105 106 129 109 130 106 107 131 107 108 132 108 112 110 109 133 111 110 134 111 135 121 113 136 112 114 137 113 138 114 115 116 139 115 140 116 122 123 141 117 117 142 122 143 118 124 125 124 102 144 125 119 144 119 126 104 127 126 145 127 120 145 120 128 128 121 146 130 129 106 109 129 133 131 130 107 132 131 108 136 132 112 134 110 133 111 134 135 121 135 146 113 137 136 138 137 114 139 138 115 140 139 116 142 140 122 123 147 141 141 142 117 143 124 148 149 124 125 150 125 144 151 144 126 127 151 126 152 127 145 145 128 153 153 128 146 130 154 129 133 129 155 156 130 131 157 131 132 158 132 136 159 134 133 135 134 160 135 161 146 136 137 162 138 163 137 164 138 139 165 139 140 166 140 142 141 147 167 141 168 142 169 143 148 148 124 149 149 125 150 150 144 170 170 144 151 152 151 127 152 145 171 145 153 171 153 146 172 156 154 130 129 154 155 159 133 155 156 131 157 157 132 158 158 136 162 160 134 159 161 135 160 146 161 172 137 163 162 164 163 138 164 139 165 165 140 166 168 166 142 147 173 167 141 167 174 168 141 174 175 169 148 148 149 176 149 150 177 150 170 178 170 151 179 179 151 152 180 152 171 171 153 181 181 153 172 182 154 156 154 183 155 184 159 155 156 157 185 157 158 186 158 162 187 188 160 159 189 161 160 161 190 172 163 191 162 192 163 164 164 165 193 165 166 194 168 195 166 167 173 196 167 197 174 198 168 174 173 199 196 199 200 201 202 169 175 175 148 176 149 177 176 177 150 178 170 203 178 170 179 203 179 152 180 204 180 171 204 171 181 205 181 172 182 183 154 182 156 185 183 184 155 184 188 159 185 157 186 186 158 187 162 191 187 188 189 160 189 190 161 190 205 172 192 191 163 192 164 193 165 194 193 166 195 194 198 195 168 197 167 196 197 198 174 199 201 196 201 200 206 200 207 206 202 175 208 175 176 209 176 177 210 177 178 211 203 212 178 179 213 203 179 180 213 214 180 204 215 204 181 205 215 181 182 216 183 217 182 185 183 218 184 184 219 188 220 185 186 221 186 187 191 222 187 188 223 189 189 224 190 190 225 205 192 226 191 227 192 193 194 228 193 194 195 229 198 230 195 231 197 196 232 198 197 201 231 196 201 206 233 207 234 206 207 235 234 236 237 238 239 236 238 240 236 239 235 240 241 242 202 208 208 175 209 176 210 209 210 177 211 178 212 211 243 212 203 213 243 203 213 180 214 214 204 244 244 204 215 205 245 215 217 216 182 183 216 218 220 217 185 184 218 219 188 219 223 221 220 186 222 221 187 191 226 222 189 223 224 190 224 225 205 225 245 227 226 192 228 227 193 228 194 229 195 230 229 232 230 198 232 197 231 231 201 233 206 246 233 206 234 246 234 235 241 238 237 247 239 238 248 240 239 241 237 249 247 249 250 251 252 242 208 253 208 209 210 254 209 255 210 211 212 256 211 257 212 243 243 213 258 213 214 258 214 244 259 260 244 215 245 260 215 217 261 216 218 216 262 263 217 220 219 218 264 223 219 265 221 266 220 267 221 222 226 268 222 224 223 269 225 224 270 245 225 271 272 226 227 273 227 228 274 228 229 230 275 229 276 230 232 232 231 277 278 231 233 246 278 233 234 279 246 279 234 241 280 238 247 241 239 248 238 281 248 249 251 247 251 250 282 250 283 282 283 284 285 286 242 252 252 208 287 208 253 287 254 253 209 254 210 255 256 255 211 257 256 212 288 257 243 288 243 258 214 259 258 259 244 289 289 244 260 260 245 290 263 261 217 216 261 262 218 262 264 266 263 220 265 219 264 223 265 269 267 266 221 268 267 222 272 268 226 224 269 270 271 225 270 245 271 290 272 227 273 273 228 274 275 274 229 276 275 230 276 232 277 231 278 277 291 278 246 279 291 246 292 279 241 280 281 238 251 280 247 292 241 248 281 293 248 294 251 282 283 285 282 285 284 295 284 296 295 286 252 297 298 252 287 253 299 287 254 300 253 301 254 255 256 302 255 303 256 257 304 257 288 288 258 305 258 259 305 259 289 306 289 260 307 307 260 290 263 308 261 261 309 262 262 310 264 311 263 266 312 265 264 265 313 269 314 266 267 315 267 268 316 268 272 269 317 270 318 271 270 271 319 290 272 273 320 273 274 321 322 274 275 323 275 276 324 276 277 278 325 277 291 325 278 326 291 279 326 279 292 281 280 327 251 328 280 293 292 248 329 293 281 328 251 294 285 294 282 330 285 295 296 331 295 332 286 297 297 252 298 299 298 287 253 300 299 301 300 254 302 301 255 303 302 256 303 257 304 304 288 333 333 288 305 305 259 306 289 334 306 289 307 334 335 307 290 311 308 263 261 308 309 309 310 262 310 312 264 311 266 314 265 312 313 313 317 269 314 267 315 315 268 316 316 272 320 317 318 270 318 319 271 319 335 290 273 321 320 321 274 322 322 275 323 323 276 324 325 324 277 336 325 291 336 291 326 337 326 292 280 328 327 329 281 327 293 337 292 329 338 293 339 328 294 285 340 294 340 285 330 331 330 295 341 332 297 342 297 298 299 343 298 300 344 299 301 345 300 302 346 301 347 302 303 303 304 348 349 304 333 350 333 305 350 305 306 334 351 306 334 307 352 352 307 335 353 308 311 308 354 309 310 309 355 356 312 310 311 314 357 312 358 313 317 313 359 314 315 360 315 316 361 362 316 320 363 318 317 364 319 318 365 335 319 320 321 366 321 322 367 322 323 368 323 324 369 370 324 325 370 325 336 336 326 371 326 337 371 328 372 327 329 327 373 338 337 293 374 338 329 339 372 328 340 339 294 375 340 330 331 376 330 377 332 341 342 341 297 343 342 298 344 343 299 300 345 344 301 346 345 347 346 302 347 303 348 304 349 348 378 349 333 350 378 333 351 350 306 351 334 379 334 352 379 352 335 380 353 354 308 353 311 357 309 354 355 356 310 355 356 358 312 314 360 357 313 358 359 363 317 359 315 361 360 361 316 362 362 320 366 364 318 363 365 319 364 380 335 365 321 367 366 367 322 368 323 369 368 369 324 370 370 336 381 336 371 381 337 382 371 327 372 373 374 329 373 338 382 337 374 383 338 339 384 372 340 385 339 375 385 340 376 375 330 386 377 341 342 387 341 343 388 342 344 389 343 344 345 390 345 346 391 347 392 346 393 347 348 349 394 348 378 395 349 396 378 350 396 350 351 397 351 379 352 398 379 352 380 398 399 354 353 400 353 357 354 401 355 402 356 355 356 403 358 357 360 404 358 405 359 406 363 359 361 407 360 361 362 408 409 362 366 364 363 410 365 364 411 380 365 412 366 367 413 367 368 414 369 415 368 369 370 416 416 370 381 381 371 417 371 382 417 372 418 373 418 374 373 338 383 382 419 383 374 339 385 384 372 384 420 375 421 385 376 422 375 423 377 386 386 341 424 342 388 387 341 387 424 343 389 388 344 390 389 390 345 391 346 392 391 393 392 347 394 393 348 395 394 349 425 395 378 425 378 396 397 396 351 426 397 379 398 426 379 398 380 427 399 401 354 399 353 400 400 357 404 401 402 355 402 403 356 358 403 405 360 407 404 405 406 359 410 363 406 361 408 407 408 362 409 409 366 413 364 410 411 412 365 411 427 380 412 413 367 414 368 415 414 369 416 415 428 416 381 428 381 417 382 429 417 418 372 420 419 374 418 382 383 429 419 430 383 384 385 431 384 432 420 375 422 421 385 421 431 423 386 433 434 386 424 387 388 435 387 436 424 388 389 437 389 390 438 439 390 391 391 392 440 393 441 392 442 393 394 395 443 394 444 395 425 425 396 445 445 396 397 446 397 426 398 447 426 398 427 447 399 448 401 449 399 400 450 400 404 401 451 402 402 452 403 403 453 405 404 407 454 455 406 405 410 406 456 407 408 457 408 409 458 459 409 413 411 410 460 461 412 411 462 427 412 463 413 414 414 415 464 415 416 465 465 416 428 466 428 417 429 466 417 467 418 420 419 418 467 383 430 429 468 430 419 432 384 431 432 469 420 422 470 421 421 471 431 472 423 433 433 386 434 436 434 424 435 388 437 387 435 436 389 438 437 438 390 439 439 391 440 392 441 440 442 441 393 443 442 394 444 443 395 444 425 473 425 445 473 445 397 446 474 446 426 447 474 426 447 427 475 449 448 399 401 448 451 450 449 400 450 404 454 402 451 452 403 452 453 453 455 405 407 457 454 456 406 455 410 456 460 457 408 458 409 459 458 463 459 413 461 411 460 461 462 412 475 427 462 463 414 464 415 465 464 465 428 476 428 466 476 477 466 429 469 467 420 468 419 467 430 477 429 478 430 468 432 431 479 480 469 432 470 471 421 431 471 479 481 472 433 482 433 434 434 436 483 484 435 437 436 435 485 438 486 437 438 439 487 439 440 488 441 489 440 490 441 442 491 442 443 492 443 444 493 444 473 473 445 494 445 446 494 446 474 495 447 496 474 447 475 496 449 497 448 451 448 498 499 449 450 500 450 454 452 451 501 453 452 502 453 503 455 457 504 454 456 455 505 456 506 460 507 457 458 459 508 458 463 509 459 510 461 460 511 462 461 475 462 512 513 463 464 465 514 464 514 465 476 466 515 476 477 515 466 469 516 467 516 468 467 478 477 430 478 468 517 480 432 479 480 518 469 470 519 471 471 520 479 521 472 481 481 433 482 482 434 483 483 436 522 435 484 485 486 484 437 522 436 485 486 438 487 487 439 488 440 489 488 490 489 441 490 442 491 491 443 492 492 444 493 523 493 473 523 473 494 446 495 494 495 474 524 474 496 524 496 475 525 499 497 449 448 497 498 451 498 501 499 450 500 504 500 454 502 452 501 453 502 503 455 503 505 457 507 504 506 456 505 506 510 460 508 507 458 459 509 508 513 509 463 510 511 461 462 511 512 525 475 512 514 513 464 526 514 476 515 526 476 527 515 477 469 518 516 468 516 517 527 477 478 528 478 517 520 480 479 529 518 480 471 519 520 521 481 530 481 482 531 482 483 532 533 483 522 484 534 485 486 535 484 534 522 485 536 486 487 537 487 488 489 538 488 539 489 490 490 491 540 491 492 541 492 493 542 543 493 523 523 494 544 494 495 544 495 524 545 496 546 524 496 525 546 499 547 497 497 548 498 501 498 549 550 499 500 551 500 504 552 502 501 503 502 553 503 554 505 507 555 504 556 506 505 557 510 506 558 507 508 509 559 508 513 560 509 510 561 511 511 562 512 563 525 512 564 513 514 526 564 514 565 526 515 565 515 527 518 566 516 516 566 517 527 478 528 567 528 517 529 480 520 568 518 529 519 569 520 570 521 530 481 571 530 571 481 531 482 532 531 483 533 532 533 522 572 535 534 484 536 535 486 522 534 572 537 536 487 538 537 488 539 538 489 539 490 540 491 541 540 492 542 541 542 493 543 543 523 573 573 523 544 544 495 545 524 574 545 524 546 574 546 525 575 550 547 499 497 547 548 498 548 549 552 501 549 551 550 500 555 551 504 553 502 552 503 553 554 554 556 505 558 555 507 556 557 506 557 561 510 559 558 508 560 559 509 564 560 513 561 562 511 562 563 512 575 525 563 576 564 526 576 526 565 565 527 577 568 566 518 566 567 517 527 528 577 528 567 578 529 520 579 568 529 580 520 569 579 581 570 530 571 581 530 582 571 531 532 582 531 532 533 583 584 533 572 535 585 534 536 586 535 534 587 572 537 588 536 538 589 537 590 538 539 591 539 540 540 541 592 542 593 541 542 543 594 595 543 573 596 573 544 596 544 545 574 597 545 546 598 574 546 575 598 599 547 550 547 600 548 548 601 549 602 552 549 603 550 551 604 551 555 553 552 605 554 553 606 554 607 556 608 555 558 556 609 557 557 610 561 611 558 559 612 559 560 613 560 564 561 614 562 562 615 563 616 575 563 613 564 576 576 565 617 617 565 577 568 618 566 566 618 567 577 528 578 567 619 578 620 529 579 621 568 580 529 620 580 569 622 579 623 581 571 582 623 571 582 532 583 533 624 583 584 624 533 587 584 572 535 586 585 534 585 587 536 588 586 537 589 588 590 589 538 590 539 591 591 540 592 541 593 592 542 594 593 594 543 595 625 595 573 596 625 573 597 596 545 626 597 574 598 626 574 598 575 627 599 600 547 599 550 603 600 601 548 601 602 549 552 602 605 603 551 604 604 555 608 606 553 605 554 606 607 556 607 609 608 558 611 557 609 610 561 610 614 611 559 612 612 560 613 614 615 562 615 616 563 627 575 616 613 576 628 628 576 617 629 617 577 621 618 568 618 619 567 629 577 578 619 630 578 622 620 579 621 580 631 580 620 631 632 623 582 633 582 583 624 633 583 584 634 624 635 584 587 585 586 636 585 637 587 586 588 638 588 589 639 590 640 589 641 590 591 642 591 592 592 593 643 593 594 644 594 595 645 646 595 625 647 625 596 647 596 597 626 648 597 598 649 626 598 627 649 650 600 599 599 603 651 600 652 601 601 653 602 605 602 654 603 604 655 604 608 656 657 606 605 607 606 658 609 607 659 608 611 660 610 609 661 614 610 662 611 612 663 612 613 664 615 614 665 666 616 615 627 616 667 613 628 664 668 628 617 629 668 617 669 618 621 669 619 618 630 629 578 619 670 630 622 671 620 672 621 631 620 673 631 632 582 633 624 674 633 635 634 584 634 674 624 637 635 587 636 586 638 585 636 637 588 639 638 589 640 639 641 640 590 642 641 591 642 592 643 593 644 643 594 645 644 645 595 646 646 625 675 625 647 675 648 647 597 626 676 648 626 649 676 649 627 677 650 652 600 650 599 651 603 655 651 652 653 601 602 653 654 657 605 654 655 604 656 608 660 656 658 606 657 607 658 659 661 609 659 660 611 663 610 661 662 665 614 662 663 612 664 666 615 665 667 616 666 627 667 677 664 628 678 628 668 678 679 668 629 669 621 672 669 670 619 679 629 630 670 680 630 620 671 673 673 672 631 681 632 633 674 681 633 635 682 634 674 634 683 637 684 635 685 636 638 637 636 686 638 639 687 640 688 639 641 689 640 690 641 642 691 642 643 643 644 692 645 693 644 645 646 694 646 675 695 647 696 675 648 696 647 648 676 697 676 649 698 698 649 677 699 652 650 700 650 651 651 655 701 652 702 653 653 703 654 704 657 654 705 655 656 656 660 706 707 658 657 658 708 659 709 661 659 710 660 663 661 711 662 665 662 712 713 663 664 714 666 665 667 666 715 667 716 677 713 664 678 668 717 678 679 717 668 718 669 672 718 670 669 680 679 630 719 680 670 671 720 673 673 721 672 722 681 674 635 684 682 634 682 683 674 683 723 637 686 684 686 636 685 685 638 687 639 688 687 640 689 688 690 689 641 691 690 642 691 643 692 644 693 692 645 694 693 694 646 695 675 724 695 696 724 675 648 697 696 697 676 725 676 698 725 698 677 726 699 702 652 699 650 700 700 651 701 655 705 701 653 702 703 703 704 654 704 707 657 705 656 706 660 710 706 708 658 707 708 709 659 711 661 709 713 710 663 662 711 712 714 665 712 715 666 714 667 715 716 677 716 726 727 713 678 717 727 678 679 728 717 729 718 672 719 670 718 680 728 679 730 680 719 720 721 673 721 729 672 722 674 723 682 684 731 683 682 732 683 733 723 684 686 734 686 685 735 736 685 687 688 737 687 689 738 688 690 739 689 740 690 691 741 691 692 693 742 692 693 694 743 744 694 695 724 745 695 696 746 724 696 697 746 697 725 747 698 748 725 748 698 726 749 702 699 699 700 750 751 700 701 705 752 701 702 753 703 754 704 703 704 755 707 756 705 706 710 757 706 758 708 707 708 759 709 760 711 709 713 761 710 711 762 712 763 714 712 715 714 764 716 715 765 716 766 726 727 761 713 727 717 767 717 728 767 768 718 729 719 718 768 730 728 680 730 719 769 720 770 721 729 721 771 772 722 723 684 734 731 732 682 731 683 732 733 733 772 723 734 686 735 685 736 735 737 736 687 738 737 688 689 739 738 740 739 690 740 691 741 742 741 692 742 693 743 694 744 743 745 744 695 724 773 745 724 746 773 746 697 747 725 774 747 748 774 725 775 748 726 749 753 702 749 699 750 700 751 750 752 751 701 756 752 705 753 754 703 754 755 704 755 758 707 757 756 706 761 757 710 758 759 708 759 760 709 760 762 711 762 763 712 764 714 763 715 764 765 766 716 765 766 775 726 776 761 727 776 727 767 728 777 767 768 729 778 719 768 769 730 777 728 779 730 769 721 770 771 729 771 778 734 780 731 732 731 781 732 782 733 783 772 733 784 734 735 736 785 735 786 736 737 737 738 787 738 739 788 740 789 739 790 740 741 791 741 742 792 742 743 744 793 743 745 794 744 745 773 795 773 746 796 796 746 747 747 774 797 798 774 748 775 798 748 799 753 749 800 749 750 751 801 750 752 802 751 756 803 752 804 754 753 805 755 754 806 758 755 757 807 756 761 808 757 809 759 758 810 760 759 811 762 760 812 763 762 764 763 813 764 814 765 815 766 765 816 775 766 776 808 761 817 776 767 777 817 767 818 768 778 769 768 818 779 777 730 819 779 769 770 820 771 771 821 778 734 784 780 731 780 781 782 732 781 782 783 733 785 784 735 786 785 736 786 737 787 787 738 788 739 789 788 790 789 740 791 790 741 792 791 742 793 792 743 744 794 793 745 795 794 795 773 822 773 796 822 796 747 797 774 823 797 798 823 774 824 798 775 804 753 799 799 749 800 801 800 750 751 802 801 752 803 802 756 807 803 805 754 804 806 755 805 809 758 806 757 808 807 810 759 809 811 760 810 812 762 811 813 763 812 764 813 814 814 815 765 815 816 766 824 775 816 776 825 808 817 825 776 826 817 777 818 778 827 819 769 818 826 777 779 828 779 819 820 821 771 778 821 827 784 829 780 780 830 781 831 782 781 832 783 782 785 833 784 834 785 786 786 787 835 787 788 836 788 789 837 790 838 789 839 790 791 792 840 791 841 792 793 794 842 793 794 795 843 844 795 822 822 796 845 845 796 797 797 823 846 798 847 823 824 847 798 804 799 848 799 800 849 850 800 801 801 802 851 803 852 802 803 807 853 805 804 854 806 805 855 809 806 856 807 808 857 810 809 858 811 810 859 812 811 860 813 812 861 814 813 862 814 863 815 816 815 864 865 824 816 808 825 857 866 825 817 866 817 826 867 818 827 867 819 818 826 779 828 828 819 868 820 869 821 821 870 827 784 833 829 780 829 830 830 831 781 832 782 831 834 833 785 834 786 835 835 787 836 788 837 836 789 838 837 839 838 790 840 839 791 841 840 792 842 841 793 794 843 842 843 795 844 871 844 822 871 822 845 845 797 846 823 872 846 847 872 823 873 847 824 804 848 854 848 799 849 800 850 849 850 801 851 802 852 851 852 803 853 853 807 857 855 805 854 856 806 855 809 856 858 859 810 858 860 811 859 812 860 861 862 813 861 814 862 863 815 863 864 865 816 864 873 824 865 825 874 857 866 874 825 866 826 875 867 827 876 868 819 867 826 828 875 828 868 877 821 869 870 827 870 876 829 833 878 830 829 879 830 880 831 881 832 831 834 882 833 883 834 835 884 835 836 837 885 836 838 886 837 839 887 838 840 888 839 841 889 840 842 890 841 842 843 891 892 843 844 871 893 844 894 871 845 894 845 846 846 872 895 847 896 872 873 896 847 854 848 897 898 848 849 850 899 849 900 850 851 852 901 851 902 852 853 903 853 857 904 855 854 905 856 855 858 856 906 907 859 858 908 860 859 861 860 909 910 862 861 863 862 911 863 912 864 913 865 864 873 865 914 874 903 857 915 874 866 915 866 875 916 867 876 868 867 916 875 828 877 877 868 917 869 918 870 870 919 876 833 882 878 879 829 878 880 830 879 880 881 831 883 882 834 884 883 835 885 884 836 886 885 837 838 887 886 839 888 887 840 889 888 841 890 889 842 891 890 891 843 892 893 892 844 871 920 893 894 920 871 894 846 895 872 921 895 872 896 921 922 896 873 848 898 897 904 854 897 899 898 849 900 899 850 901 900 851 902 901 852 902 853 903 904 905 855 856 905 906 907 858 906 907 908 859 860 908 909 910 861 909 911 862 910 863 911 912 912 913 864 914 865 913 922 873 914 874 923 903 915 923 874 924 915 875 919 916 876 868 916 917 924 875 877 925 877 917 918 919 870 882 926 878 927 879 878 880 879 928 929 881 880 883 930 882 884 931 883 932 884 885 886 933 885 886 887 934 887 888 935 888 889 936 889 890 937 890 891 938 891 892 939 940 892 893 920 941 893 942 920 894 942 894 895 895 921 943 896 944 921 922 944 896 898 945 897 946 904 897 899 947 898 900 948 899 901 949 900 902 950 901 951 902 903 952 905 904 905 953 906 954 907 906 907 955 908 908 956 909 957 910 909 911 910 958 912 911 959 912 960 913 961 914 913 962 922 914 923 951 903 963 923 915 963 915 924 916 919 964 916 965 917 925 924 877 925 917 966 918 967 919 882 930 926 926 927 878 879 927 928 968 880 928 929 880 968 883 931 930 932 931 884 933 932 885 886 934 933 934 887 935 888 936 935 936 889 937 890 938 937 891 939 938 939 892 940 941 940 893 969 941 920 969 920 942 942 895 943 921 970 943 944 970 921 922 971 944 947 945 898 945 946 897 952 904 946 899 948 947 900 949 948 901 950 949 951 950 902 952 953 905 953 954 906 954 955 907 955 956 908 956 957 909 910 957 958 959 911 958 912 959 960 960 961 913 961 962 914 962 971 922 972 951 923 972 923 963 963 924 973 919 967 964 916 964 965 917 965 966 973 924 925 974 925 966 926 930 975 926 976 927 927 977 928 977 968 928 978 929 968 930 931 979 932 980 931 933 981 932 933 934 982 983 934 935 935 936 984 985 936 937 938 986 937 939 987 938 939 940 988 989 940 941 990 941 969 969 942 991 991 942 943 943 970 992 944 993 970 944 971 993 994 945 947 945 995 946 996 952 946 947 948 997 948 949 998 949 950 999 951 1000 950 952 1001 953 1002 954 953 954 1003 955 955 1004 956 956 1005 957 957 1006 958 1007 959 958 960 959 1008 960 1009 961 961 1010 962 962 1011 971 972 1000 951 972 963 1012 963 973 1012 967 1013 964 965 964 1014 965 1015 966 973 925 974 1015 974 966 975 930 979 926 975 976 927 976 977 1016 968 977 1016 978 968 931 980 979 932 981 980 933 982 981 982 934 983 983 935 984 936 985 984 986 985 937 987 986 938 939 988 987 988 940 989 989 941 990 990 969 1017 1017 969 991 991 943 992 970 1018 992 970 993 1018 993 971 1019 994 995 945 994 947 997 995 996 946 996 1001 952 997 948 998 949 999 998 950 1000 999 1001 1002 953 1002 1003 954 955 1003 1004 956 1004 1005 1005 1006 957 1006 1007 958 1008 959 1007 960 1008 1009 961 1009 1010 962 1010 1011 971 1011 1019 1020 1000 972 1020 972 1012 1012 973 1021 964 1013 1014 965 1014 1015 1021 973 974 974 1015 1022 975 979 1023 976 975 1024 976 1025 977 1025 1016 977 1026 978 1016 980 1027 979 980 981 1028 981 982 1029 982 983 1030 1031 983 984 984 985 1032 986 1033 985 987 1034 986 987 988 1035 988 989 1036 989 990 1037 990 1017 1038 1039 1017 991 1039 991 992 992 1018 1040 1018 993 1041 993 1019 1041 994 1042 995 1043 994 997 995 1044 996 996 1045 1001 1046 997 998 999 1047 998 1000 1048 999 1001 1049 1002 1002 1050 1003 1004 1003 1051 1005 1004 1052 1006 1005 1053 1054 1007 1006 1008 1007 1055 1009 1008 1056 1010 1009 1057 1011 1010 1058 1011 1059 1019 1020 1048 1000 1060 1020 1012 1060 1012 1021 1013 1061 1014 1014 1062 1015 1063 1021 974 1015 1064 1022 1063 974 1022 1024 975 1023 979 1027 1023 976 1024 1025 1016 1025 1065 1026 1016 1065 980 1028 1027 1028 981 1029 982 1030 1029 1030 983 1031 1031 984 1032 985 1033 1032 986 1034 1033 987 1035 1034 1035 988 1036 989 1037 1036 990 1038 1037 1038 1017 1066 1066 1017 1039 1039 992 1040 1018 1067 1040 1067 1018 1041 1019 1068 1041 1043 1042 994 995 1042 1044 1043 997 1046 996 1044 1045 1001 1045 1049 1047 1046 998 1048 1047 999 1002 1049 1050 1003 1050 1051 1052 1004 1051 1005 1052 1053 1054 1006 1053 1055 1007 1054 1008 1055 1056 1009 1056 1057 1058 1010 1057 1011 1058 1059 1059 1068 1019 1069 1048 1020 1069 1020 1060 1070 1060 1021 1061 1062 1014 1015 1062 1064 1063 1070 1021 1022 1064 1071 1063 1022 1071 1072 1024 1023 1023 1027 1073 1025 1024 1074 1025 1074 1065 1075 1026 1065 1027 1028 1076 1077 1028 1029 1029 1030 1078 1030 1031 1079 1031 1032 1080 1033 1081 1032 1034 1082 1033 1034 1035 1083 1084 1035 1036 1037 1085 1036 1038 1086 1037 1038 1066 1087 1066 1039 1088 1039 1040 1088 1067 1089 1040 1090 1067 1041 1068 1090 1041 1043 1091 1042 1044 1042 1092 1093 1043 1046 1045 1044 1094 1049 1045 1095 1047 1096 1046 1097 1047 1048 1050 1049 1098 1050 1099 1051 1052 1051 1100 1052 1101 1053 1102 1054 1053 1055 1054 1103 1055 1104 1056 1057 1056 1105 1106 1058 1057 1059 1058 1107 1059 1108 1068 1097 1048 1069 1069 1060 1109 1109 1060 1070 1061 1110 1062 1064 1062 1111 1112 1070 1063 1064 1111 1071 1112 1063 1071 1074 1024 1072 1072 1023 1073 1027 1076 1073 1074 1113 1065 1113 1075 1065 1076 1028 1077 1077 1029 1078 1030 1079 1078 1079 1031 1080 1032 1081 1080 1082 1081 1033 1034 1083 1082 1083 1035 1084 1085 1084 1036 1086 1085 1037 1038 1087 1086 1087 1066 1114 1114 1066 1088 1040 1089 1088 1115 1089 1067 1090 1115 1067 1116 1090 1068 1093 1091 1043 1042 1091 1092 1044 1092 1094 1096 1093 1046 1095 1045 1094 1049 1095 1098 1097 1096 1047 1099 1050 1098 1051 1099 1100 1101 1052 1100 1101 1102 1053 1103 1054 1102 1055 1103 1104 1056 1104 1105 1106 1057 1105 1107 1058 1106 1059 1107 1108 1108 1116 1068 1097 1069 1117 1069 1109 1117 1109 1070 1118 1062 1110 1111 1118 1070 1112 1111 1119 1071 1119 1112 1071 1120 1074 1072 1121 1072 1073 1076 1122 1073 1120 1113 1074 1123 1075 1113 1076 1077 1124 1125 1077 1078 1078 1079 1126 1127 1079 1080 1081 1128 1080 1082 1129 1081 1082 1083 1130 1131 1083 1084 1084 1085 1132 1086 1133 1085 1086 1087 1134 1087 1114 1135 1114 1088 1136 1088 1089 1136 1115 1137 1089 1090 1138 1115 1116 1138 1090 1093 1139 1091 1091 1140 1092 1092 1141 1094 1142 1093 1096 1143 1095 1094 1095 1144 1098 1145 1096 1097 1146 1099 1098 1099 1147 1100 1148 1101 1100 1149 1102 1101 1103 1102 1150 1104 1103 1151 1105 1104 1152 1153 1106 1105 1107 1106 1154 1108 1107 1155 1108 1156 1116 1145 1097 1117 1109 1157 1117 1109 1118 1157 1110 1158 1111 1118 1112 1159 1119 1111 1160 1159 1112 1119 1121 1120 1072 1122 1121 1073 1076 1124 1122 1113 1120 1161 1123 1113 1161 1124 1077 1125 1125 1078 1126 1079 1127 1126 1128 1127 1080 1081 1129 1128 1082 1130 1129 1130 1083 1131 1131 1084 1132 1085 1133 1132 1086 1134 1133 1087 1135 1134 1135 1114 1162 1162 1114 1136 1089 1137 1136 1163 1137 1115 1138 1163 1115 1116 1164 1138 1142 1139 1093 1091 1139 1140 1140 1141 1092 1141 1143 1094 1142 1096 1145 1144 1095 1143 1144 1146 1098 1146 1147 1099 1147 1148 1100 1149 1101 1148 1150 1102 1149 1103 1150 1151 1104 1151 1152 1153 1105 1152 1106 1153 1154 1155 1107 1154 1108 1155 1156 1116 1156 1164 1145 1117 1165 1117 1157 1165 1157 1118 1166 1111 1158 1160 1118 1159 1166 1119 1160 1167 1159 1119 1167 1121 1168 1120 1122 1169 1121 1122 1124 1170 1120 1171 1161 1172 1123 1161 1124 1125 1173 1174 1125 1126 1127 1175 1126 1176 1127 1128 1129 1177 1128 1129 1130 1178 1130 1131 1179 1180 1131 1132 1133 1181 1132 1133 1134 1182 1135 1183 1134 1184 1135 1162 1185 1162 1136 1137 1185 1136 1163 1186 1137 1138 1187 1163 1138 1164 1187 1188 1139 1142 1139 1189 1140 1190 1141 1140 1141 1191 1143 1142 1145 1192 1193 1144 1143 1144 1194 1146 1146 1195 1147 1147 1196 1148 1197 1149 1148 1150 1149 1198 1150 1199 1151 1152 1151 1200 1201 1153 1152 1153 1202 1154 1203 1155 1154 1156 1155 1204 1164 1156 1205 1192 1145 1165 1165 1157 1206 1206 1157 1166 1158 1207 1160 1166 1159 1208 1160 1209 1167 1208 1159 1167 1121 1169 1168 1120 1168 1171 1122 1170 1169 1170 1124 1173 1171 1210 1161 1210 1172 1161 1125 1174 1173 1175 1174 1126 1176 1175 1127 1177 1176 1128 1129 1178 1177 1178 1130 1179 1131 1180 1179 1181 1180 1132 1181 1133 1182 1134 1183 1182 1184 1183 1135 1184 1162 1211 1211 1162 1185 1137 1186 1185 1163 1212 1186 1163 1187 1212 1187 1164 1213 1188 1189 1139 1188 1142 1192 1189 1190 1140 1190 1191 1141 1191 1193 1143 1193 1194 1144 1146 1194 1195 1147 1195 1196 1196 1197 1148 1198 1149 1197 1150 1198 1199 1151 1199 1200 1201 1152 1200 1201 1202 1153 1202 1203 1154 1204 1155 1203 1156 1204 1205 1164 1205 1213 1214 1192 1165 1214 1165 1206 1215 1206 1166 1207 1209 1160 1215 1166 1208 1209 1216 1167 1216 1208 1167 1168 1169 1217 1171 1168 1218 1169 1170 1219 1220 1170 1173 1171 1218 1210 1221 1172 1210 1174 1222 1173 1175 1223 1174 1224 1175 1176 1177 1225 1176 1177 1178 1226 1178 1179 1227 1180 1228 1179 1181 1229 1180 1230 1181 1182 1182 1183 1231 1184 1232 1183 1233 1184 1211 1234 1211 1185 1186 1234 1185 1186 1212 1235 1212 1187 1236 1236 1187 1213 1237 1189 1188 1238 1188 1192 1239 1190 1189 1240 1191 1190 1191 1241 1193 1242 1194 1193 1194 1243 1195 1195 1244 1196 1245 1197 1196 1198 1197 1246 1199 1198 1247 1200 1199 1248 1249 1201 1200 1250 1202 1201 1251 1203 1202 1204 1203 1252 1204 1253 1205 1205 1254 1213 1214 1238 1192 1255 1214 1206 1215 1255 1206 1207 1256 1209 1257 1215 1208 1209 1258 1216 1216 1257 1208 1169 1219 1217 1168 1217 1218 1219 1170 1220 1222 1220 1173 1218 1259 1210 1259 1221 1210 1174 1223 1222 1224 1223 1175 1225 1224 1176 1177 1226 1225 1226 1178 1227 1179 1228 1227 1229 1228 1180 1230 1229 1181 1230 1182 1231 1183 1232 1231 1233 1232 1184 1260 1233 1211 1234 1260 1211 1186 1235 1234 1235 1212 1261 1212 1236 1261 1236 1213 1262 1239 1189 1237 1237 1188 1238 1240 1190 1239 1240 1241 1191 1241 1242 1193 1242 1243 1194 1243 1244 1195 1244 1245 1196 1246 1197 1245 1198 1246 1247 1199 1247 1248 1249 1200 1248 1250 1201 1249 1251 1202 1250 1252 1203 1251 1204 1252 1253 1253 1254 1205 1213 1254 1262 1263 1238 1214 1255 1263 1214 1264 1255 1215 1209 1256 1258 1264 1215 1257 1216 1258 1265 1257 1216 1265 1219 1266 1217 1218 1217 1267 1219 1220 1268 1220 1222 1269 1259 1218 1267 1270 1221 1259 1223 1271 1222 1224 1272 1223 1225 1273 1224 1225 1226 1274 1275 1226 1227 1227 1228 1276 1229 1277 1228 1230 1278 1229 1279 1230 1231 1232 1280 1231 1233 1281 1232 1260 1282 1233 1234 1283 1260 1234 1235 1283 1284 1235 1261 1236 1285 1261 1285 1236 1262 1239 1237 1286 1237 1238 1287 1240 1239 1288 1289 1241 1240 1290 1242 1241 1291 1243 1242 1292 1244 1243 1293 1245 1244 1246 1245 1294 1246 1295 1247 1247 1296 1248 1297 1249 1248 1250 1249 1298 1251 1250 1299 1252 1251 1300 1253 1252 1301 1253 1302 1254 1254 1303 1262 1287 1238 1263 1304 1263 1255 1304 1255 1264 1256 1305 1258 1264 1257 1306 1258 1307 1265 1308 1257 1265 1219 1268 1266 1217 1266 1267 1268 1220 1269 1222 1271 1269 1309 1259 1267 1270 1259 1309 1223 1272 1271 1224 1273 1272 1225 1274 1273 1274 1226 1275 1275 1227 1276 1228 1277 1276 1229 1278 1277 1279 1278 1230 1280 1279 1231 1232 1281 1280 1233 1282 1281 1260 1310 1282 1260 1283 1310 1283 1235 1284 1284 1261 1311 1261 1285 1311 1312 1285 1262 1288 1239 1286 1237 1287 1286 1289 1240 1288 1290 1241 1289 1291 1242 1290 1292 1243 1291 1293 1244 1292 1294 1245 1293 1246 1294 1295 1295 1296 1247 1296 1297 1248 1249 1297 1298 1250 1298 1299 1251 1299 1300 1301 1252 1300 1253 1301 1302 1302 1303 1254 1303 1312 1262 1287 1263 1313 1313 1263 1304 1304 1264 1314 1258 1305 1307 1314 1264 1306 1257 1308 1306 1307 1308 1265 1266 1268 1315 1266 1316 1267 1317 1268 1269 1269 1271 1318 1316 1309 1267 1319 1270 1309 1272 1320 1271 1273 1321 1272 1273 1274 1322 1274 1275 1323 1324 1275 1276 1277 1325 1276 1277 1278 1326 1279 1327 1278 1280 1328 1279 1280 1281 1329 1281 1282 1330 1282 1310 1331 1310 1283 1332 1283 1284 1332 1284 1311 1333 1285 1334 1311 1312 1334 1285 1288 1286 1335 1287 1336 1286 1289 1288 1337 1290 1289 1338 1291 1290 1339 1292 1291 1340 1293 1292 1341 1294 1293 1342 1294 1343 1295 1344 1296 1295 1296 1345 1297 1297 1346 1298 1298 1347 1299 1299 1348 1300 1301 1300 1349 1302 1301 1350 1351 1303 1302 1303 1352 1312 1287 1313 1336 1313 1304 1353 1304 1314 1353 1305 1354 1307 1355 1314 1306 1308 1355 1306 1307 1356 1308 1315 1268 1317 1266 1315 1316 1317 1269 1318 1271 1320 1318 1316 1357 1309 1357 1319 1309 1321 1320 1272 1273 1322 1321 1322 1274 1323 1275 1324 1323 1325 1324 1276 1325 1277 1326 1278 1327 1326 1279 1328 1327 1280 1329 1328 1329 1281 1330 1282 1331 1330 1331 1310 1358 1358 1310 1332 1332 1284 1333 1311 1359 1333 1334 1359 1311 1360 1334 1312 1337 1288 1335 1286 1336 1335 1338 1289 1337 1339 1290 1338 1291 1339 1340 1341 1292 1340 1342 1293 1341 1294 1342 1343 1343 1344 1295 1344 1345 1296 1345 1346 1297 1346 1347 1298 1347 1348 1299 1300 1348 1349 1350 1301 1349 1351 1302 1350 1351 1352 1303 1352 1360 1312 1336 1313 1361 1361 1313 1353 1314 1362 1353 1354 1356 1307 1314 1355 1362 1308 1356 1355 1315 1317 1363 1316 1315 1364 1365 1317 1318 1320 1366 1318 1357 1316 1364 1367 1319 1357 1321 1368 1320 1321 1322 1369 1322 1323 1370 1324 1371 1323 1325 1372 1324 1373 1325 1326 1327 1374 1326 1327 1328 1375 1328 1329 1376 1329 1330 1377 1331 1378 1330 1331 1358 1379 1380 1358 1332 1380 1332 1333 1333 1359 1381 1334 1382 1359 1360 1382 1334 1383 1337 1335 1335 1336 1384 1385 1338 1337 1386 1339 1338 1340 1339 1387 1388 1341 1340 1389 1342 1341 1343 1342 1390 1343 1391 1344 1392 1345 1344 1393 1346 1345 1346 1394 1347 1347 1395 1348 1348 1396 1349 1397 1350 1349 1398 1351 1350 1351 1399 1352 1352 1400 1360 1336 1361 1384 1361 1353 1401 1353 1362 1401 1354 1402 1356 1362 1355 1403 1355 1356 1404 1315 1363 1364 1363 1317 1365 1366 1365 1318 1320 1368 1366 1357 1364 1405 1367 1357 1406 1321 1369 1368 1369 1322 1370 1323 1371 1370 1324 1372 1371 1373 1372 1325 1374 1373 1326 1327 1375 1374 1375 1328 1376 1376 1329 1377 1330 1378 1377 1331 1379 1378 1379 1358 1407 1407 1358 1380 1380 1333 1381 1359 1408 1381 1382 1408 1359 1360 1409 1382 1383 1385 1337 1383 1335 1384 1385 1386 1338 1339 1386 1387 1388 1340 1387 1388 1389 1341 1390 1342 1389 1343 1390 1391 1391 1392 1344 1392 1393 1345 1393 1394 1346 1347 1394 1395 1395 1396 1348 1396 1397 1349 1398 1350 1397 1398 1399 1351 1352 1399 1400 1360 1400 1409 1384 1361 1410 1410 1361 1401 1401 1362 1411 1356 1402 1404 1355 1404 1403 1362 1403 1411 1363 1412 1364 1363 1365 1413 1414 1365 1366 1368 1415 1366 1357 1405 1406 1364 1412 1405 1416 1367 1406 1368 1369 1417 1418 1369 1370 1370 1371 1419 1371 1372 1420 1373 1421 1372 1374 1422 1373 1374 1375 1423 1424 1375 1376 1425 1376 1377 1377 1378 1426 1378 1379 1427 1379 1407 1428 1407 1380 1429 1429 1380 1381 1408 1430 1381 1382 1431 1408 1382 1409 1431 1432 1385 1383 1433 1383 1384 1385 1434 1386 1386 1435 1387 1436 1388 1387 1388 1437 1389 1438 1390 1389 1391 1390 1439 1391 1440 1392 1392 1441 1393 1393 1442 1394 1394 1443 1395 1444 1396 1395 1396 1445 1397 1446 1398 1397 1398 1447 1399 1400 1399 1448 1409 1400 1449 1433 1384 1410 1450 1410 1401 1450 1401 1411 1402 1451 1404 1404 1452 1403 1403 1453 1411 1363 1413 1412 1365 1414 1413 1415 1414 1366 1368 1417 1415 1405 1454 1406 1405 1412 1455 1454 1416 1406 1417 1369 1418 1418 1370 1419 1371 1420 1419 1372 1421 1420 1373 1422 1421 1374 1423 1422 1423 1375 1424 1425 1424 1376 1425 1377 1426 1378 1427 1426 1427 1379 1428 1428 1407 1456 1407 1429 1456 1430 1429 1381 1408 1457 1430 1408 1431 1457 1431 1409 1458 1432 1434 1385 1432 1383 1433 1434 1435 1386 1435 1436 1387 1436 1437 1388 1437 1438 1389 1439 1390 1438 1391 1439 1440 1392 1440 1441 1393 1441 1442 1394 1442 1443 1443 1444 1395 1444 1445 1396 1445 1446 1397 1446 1447 1398 1399 1447 1448 1449 1400 1448 1409 1449 1458 1459 1433 1410 1450 1459 1410 1450 1411 1460 1451 1452 1404 1452 1453 1403 1411 1453 1460 1413 1461 1412 1414 1462 1413 1415 1463 1414 1415 1417 1464 1454 1405 1455 1412 1461 1455 1465 1416 1454 1417 1418 1466 1467 1418 1419 1420 1468 1419 1421 1469 1420 1421 1422 1470 1422 1423 1471 1423 1424 1472 1473 1424 1425 1474 1425 1426 1426 1427 1475 1476 1427 1428 1477 1428 1456 1429 1478 1456 1430 1478 1429 1430 1457 1479 1457 1431 1480 1480 1431 1458 1432 1481 1434 1482 1432 1433 1434 1483 1435 1435 1484 1436 1437 1436 1485 1486 1438 1437 1439 1438 1487 1440 1439 1488 1441 1440 1489 1442 1441 1490 1443 1442 1491 1443 1492 1444 1444 1493 1445 1445 1494 1446 1446 1495 1447 1447 1496 1448 1449 1448 1497 1458 1449 1498 1459 1482 1433 1499 1459 1450 1499 1450 1460 1451 1500 1452 1452 1501 1453 1460 1453 1502 1462 1461 1413 1414 1463 1462 1415 1464 1463 1464 1417 1466 1503 1454 1455 1461 1503 1455 1465 1454 1504 1418 1467 1466 1468 1467 1419 1469 1468 1420 1421 1470 1469 1470 1422 1471 1423 1472 1471 1472 1424 1473 1473 1425 1474 1474 1426 1475 1427 1505 1475 1505 1427 1476 1477 1476 1428 1478 1477 1456 1478 1430 1479 1457 1506 1479 1457 1480 1506 1507 1480 1458 1482 1481 1432 1434 1481 1483 1483 1484 1435 1436 1484 1485 1486 1437 1485 1487 1438 1486 1439 1487 1488 1489 1440 1488 1441 1489 1490 1491 1442 1490 1443 1491 1492 1444 1492 1493 1445 1493 1494 1446 1494 1495 1447 1495 1496 1448 1496 1497 1449 1497 1498 1507 1458 1498 1508 1482 1459 1508 1459 1499 1509 1499 1460 1452 1500 1501 1453 1501 1502 1509 1460 1502 1510 1461 1462 1463 1511 1462 1463 1464 1512 1513 1464 1466 1454 1503 1504 1510 1503 1461 1514 1465 1504 1466 1467 1515 1468 1516 1467 1469 1517 1468 1469 1470 1518 1519 1470 1471 1471 1472 1520 1472 1473 1521 1473 1474 1522 1523 1474 1475 1505 1523 1475 1524 1505 1476 1525 1476 1477 1526 1477 1478 1527 1478 1479 1479 1506 1528 1506 1480 1529 1530 1480 1507 1531 1481 1482 1481 1532 1483 1533 1484 1483 1484 1534 1485 1535 1486 1485 1487 1486 1536 1487 1537 1488 1489 1488 1538 1490 1489 1539 1540 1491 1490 1492 1491 1541 1493 1492 1542 1494 1493 1543 1495 1494 1544 1496 1495 1545 1496 1546 1497 1497 1547 1498 1507 1498 1548 1531 1482 1508 1508 1499 1549 1549 1499 1509 1500 1550 1501 1501 1551 1502 1551 1509 1502 1511 1510 1462 1463 1512 1511 1512 1464 1513 1513 1466 1515 1504 1503 1552 1510 1553 1503 1554 1514 1504 1467 1516 1515 1468 1517 1516 1469 1518 1517 1518 1470 1519 1519 1471 1520 1472 1521 1520 1521 1473 1522 1522 1474 1523 1505 1555 1523 1524 1555 1505 1524 1476 1525 1525 1477 1526 1527 1526 1478 1527 1479 1528 1506 1556 1528 1480 1530 1529 1556 1506 1529 1530 1507 1557 1531 1532 1481 1532 1533 1483 1533 1534 1484 1534 1535 1485 1536 1486 1535 1487 1536 1537 1488 1537 1538 1489 1538 1539 1540 1490 1539 1541 1491 1540 1492 1541 1542 1543 1493 1542 1494 1543 1544 1545 1495 1544 1496 1545 1546 1546 1547 1497 1498 1547 1548 1557 1507 1548 1531 1508 1558 1508 1549 1558 1549 1509 1559 1501 1550 1551 1509 1551 1559 1511 1560 1510 1511 1512 1561 1512 1513 1562 1513 1515 1563 1503 1553 1552 1554 1504 1552 1510 1560 1553 1564 1514 1554 1516 1565 1515 1516 1517 1566 1517 1518 1567 1518 1519 1568 1569 1519 1520 1521 1569 1520 1521 1522 1570 1571 1522 1523 1555 1571 1523 1524 1572 1555 1573 1524 1525 1574 1525 1526 1527 1575 1526 1576 1527 1528 1556 1576 1528 1530 1577 1529 1577 1556 1529 1578 1530 1557 1579 1532 1531 1580 1533 1532 1581 1534 1533 1582 1535 1534 1536 1535 1583 1536 1584 1537 1537 1585 1538 1538 1586 1539 1540 1539 1587 1541 1540 1588 1541 1589 1542 1543 1542 1590 1544 1543 1591 1592 1545 1544 1546 1545 1593 1546 1594 1547 1547 1595 1548 1595 1557 1548 1579 1531 1558 1558 1549 1596 1597 1549 1559 1550 1598 1551 1551 1599 1559 1511 1561 1560 1561 1512 1562 1562 1513 1563 1515 1565 1563 1553 1600 1552 1600 1554 1552 1553 1560 1601 1602 1564 1554 1516 1566 1565 1566 1517 1567 1518 1568 1567 1568 1519 1603 1519 1569 1603 1569 1521 1570 1522 1604 1570 1571 1604 1522 1605 1571 1555 1573 1572 1524 1572 1605 1555 1574 1573 1525 1575 1574 1526 1576 1575 1527 1578 1577 1530 1606 1578 1557 1580 1532 1579 1581 1533 1580 1582 1534 1581 1583 1535 1582 1536 1583 1584 1584 1585 1537 1585 1586 1538 1539 1586 1587 1588 1540 1587 1541 1588 1589 1542 1589 1590 1543 1590 1591 1592 1544 1591 1593 1545 1592 1546 1593 1594 1594 1595 1547 1595 1606 1557 1607 1579 1558 1549 1597 1596 1607 1558 1596 1599 1597 1559 1598 1599 1551 1560 1561 1608 1609 1561 1562 1610 1562 1563 1563 1565 1611 1553 1601 1600 1602 1554 1600 1560 1608 1601 1612 1564 1602 1565 1566 1613 1614 1566 1567 1567 1568 1615 1616 1568 1603 1569 1617 1603 1618 1569 1570 1604 1618 1570 1619 1604 1571 1605 1619 1571 1580 1579 1620 1581 1580 1621 1582 1581 1622 1583 1582 1623 1584 1583 1624 1584 1625 1585 1585 1626 1586 1586 1627 1587 1628 1588 1587 1589 1588 1629 1589 1630 1590 1590 1631 1591 1592 1591 1632 1593 1592 1633 1594 1593 1634 1595 1594 1635 1636 1606 1595 1579 1607 1620 1597 1637 1596 1637 1607 1596 1599 1638 1597 1598 1639 1599 1608 1561 1609 1610 1609 1562 1610 1563 1611 1565 1613 1611 1601 1640 1600 1640 1602 1600 1608 1641 1601 1612 1602 1642 1613 1566 1614 1614 1567 1615 1568 1616 1615 1617 1616 1603 1618 1617 1569 1604 1643 1618 1619 1643 1604 1621 1580 1620 1581 1621 1622 1623 1582 1622 1624 1583 1623 1584 1624 1625 1585 1625 1626 1626 1627 1586 1627 1628 1587 1588 1628 1629 1630 1589 1629 1630 1631 1590 1591 1631 1632 1633 1592 1632 1593 1633 1634 1644 1594 1634 1636 1595 1635 1594 1644 1635 1607 1645 1620 1637 1597 1646 1637 1645 1607 1599 1639 1638 1597 1638 1646 1608 1609 1647 1648 1609 1610 1649 1610 1611 1611 1613 1650 1601 1641 1640 1642 1602 1640 1608 1647 1641 1651 1612 1642 1613 1614 1652 1653 1614 1615 1616 1653 1615 1617 1654 1616 1655 1617 1618 1643 1655 1618 1656 1621 1620 1622 1621 1657 1658 1623 1622 1659 1624 1623 1625 1624 1660 1625 1661 1626 1662 1627 1626 1627 1663 1628 1628 1664 1629 1665 1630 1629 1630 1666 1631 1631 1667 1632 1633 1632 1668 1633 1669 1634 1669 1644 1634 1670 1636 1635 1644 1670 1635 1645 1656 1620 1637 1646 1671 1672 1645 1637 1639 1673 1638 1638 1674 1646 1647 1609 1648 1648 1610 1649 1649 1611 1650 1650 1613 1652 1641 1675 1640 1675 1642 1640 1641 1647 1676 1651 1642 1677 1614 1678 1652 1614 1653 1678 1679 1653 1616 1655 1654 1617 1654 1679 1616 1621 1656 1657 1658 1622 1657 1658 1659 1623 1660 1624 1659 1625 1660 1661 1661 1662 1626 1662 1663 1627 1663 1664 1628 1664 1665 1629 1665 1666 1630 1631 1666 1667 1632 1667 1668 1669 1633 1668 1669 1680 1644 1680 1670 1644 1645 1681 1656 1672 1637 1671 1646 1674 1671 1672 1681 1645 1673 1674 1638 1647 1648 1682 1648 1649 1683 1684 1649 1650 1685 1650 1652 1641 1676 1675 1642 1675 1677 1676 1647 1682 1686 1651 1677 1678 1685 1652 1653 1687 1678 1679 1687 1653 1656 1688 1657 1689 1658 1657 1658 1690 1659 1691 1660 1659 1661 1660 1692 1661 1693 1662 1662 1694 1663 1663 1695 1664 1664 1696 1665 1665 1697 1666 1667 1666 1698 1668 1667 1699 1700 1669 1668 1701 1680 1669 1681 1688 1656 1702 1672 1671 1674 1702 1671 1703 1681 1672 1673 1704 1674 1648 1683 1682 1683 1649 1684 1685 1684 1650 1676 1705 1675 1675 1705 1677 1706 1676 1682 1686 1677 1707 1708 1685 1678 1687 1708 1678 1688 1689 1657 1689 1690 1658 1690 1691 1659 1692 1660 1691 1661 1692 1693 1662 1693 1694 1663 1694 1695 1664 1695 1696 1665 1696 1697 1666 1697 1698 1667 1698 1699 1700 1668 1699 1701 1669 1700 1681 1709 1688 1703 1672 1702 1674 1704 1702 1703 1709 1681 1683 1706 1682 1710 1683 1684 1685 1711 1684 1705 1676 1712 1677 1705 1707 1676 1706 1712 1713 1686 1707 1708 1711 1685 1714 1689 1688 1689 1715 1690 1716 1691 1690 1692 1691 1717 1693 1692 1718 1694 1693 1719 1695 1694 1720 1696 1695 1721 1697 1696 1722 1697 1723 1698 1698 1724 1699 1724 1700 1699 1725 1701 1700 1709 1714 1688 1726 1703 1702 1704 1727 1702 1728 1709 1703 1729 1706 1683 1710 1729 1683 1711 1710 1684 1730 1705 1712 1705 1731 1707 1706 1732 1712 1731 1713 1707 1714 1715 1689 1715 1716 1690 1717 1691 1716 1692 1717 1718 1693 1718 1719 1720 1694 1719 1695 1720 1721 1722 1696 1721 1697 1722 1723 1698 1723 1733 1724 1698 1733 1724 1725 1700 1734 1714 1709 1726 1728 1703 1727 1726 1702 1734 1709 1728 1729 1732 1706 1730 1731 1705 1732 1730 1712 1735 1715 1714 1736 1716 1715 1717 1716 1737 1717 1738 1718 1718 1739 1719 1720 1719 1740 1721 1720 1741 1722 1721 1742 1723 1722 1743 1723 1744 1733 1745 1724 1733 1745 1725 1724 1735 1714 1734 1728 1726 1746 1727 1747 1726 1734 1728 1748 1736 1715 1735 1737 1716 1736 1717 1737 1738 1738 1739 1718 1719 1739 1740 1720 1740 1741 1721 1741 1742 1743 1722 1742 1744 1723 1743 1744 1749 1733 1749 1745 1733 1735 1734 1750 1726 1747 1746 1748 1728 1746 1734 1748 1750 1736 1735 1751 1737 1736 1752 1738 1737 1753 1738 1754 1739 1739 1755 1740 1740 1756 1741 1741 1757 1742 1757 1743 1742 1758 1744 1743 1759 1749 1744 1751 1735 1750 1747 1760 1746 1748 1746 1761 1748 1762 1750 1736 1751 1752 1753 1737 1752 1738 1753 1754 1754 1755 1739 1755 1756 1740 1741 1756 1763 1757 1741 1763 1757 1758 1743 1759 1744 1758 1751 1750 1764 1746 1760 1761 1762 1748 1761 1750 1762 1764 1752 1751 1765 1766 1753 1752 1754 1753 1767 1754 1768 1755 1755 1769 1756 1756 1770 1763 1771 1757 1763 1771 1758 1757 1772 1759 1758 1765 1751 1764 1760 1773 1761 1774 1762 1761 1762 1775 1764 1766 1752 1765 1767 1753 1766 1754 1767 1768 1755 1768 1769 1756 1769 1770 1770 1771 1763 1771 1772 1758 1775 1765 1764 1773 1774 1761 1774 1775 1762 1776 1766 1765 1767 1766 1777 1768 1767 1778 1769 1768 1779 1769 1780 1770 1781 1771 1770 1781 1772 1771 1765 1775 1782 1773 1783 1774 1774 1784 1775 1777 1766 1776 1776 1765 1782 1767 1777 1778 1779 1768 1778 1780 1769 1779 1780 1785 1770 1785 1781 1770 1775 1784 1782 1774 1783 1784 1777 1776 1786 1776 1782 1787 1777 1788 1778 1779 1778 1789 1780 1779 1790 1791 1785 1780 1784 1792 1782 1783 1793 1784 1777 1786 1788 1786 1776 1787 1782 1792 1787 1778 1788 1789 1790 1779 1789 1791 1780 1790 1793 1792 1784 1788 1786 1794 1795 1786 1787 1792 1795 1787 1789 1788 1796 1797 1790 1789 1798 1791 1790 1793 1799 1792 1794 1786 1795 1788 1794 1796 1795 1792 1800 1797 1789 1796 1797 1798 1790 1792 1799 1800 1794 1795 1801 1794 1802 1796 1803 1795 1800 1802 1797 1796 1804 1798 1797 1799 1805 1800 1806 1794 1801 1795 1803 1801 1794 1806 1802 1805 1803 1800 1804 1797 1802 1803 1806 1801 1806 1807 1802 1805 1808 1803 1807 1804 1802 1806 1803 1809 1810 1807 1806 1803 1808 1809 1810 1806 1809 1808 1811 1809 1811 1810 1809 </DataArray>
        <DataArray type="Int32" Name="offsets" format="ascii">3 6 9 12 15 18 21 24 27 30 33 36 39 42 45 48 51 54 57 60 63 66 69 72 75 78 81 84 87 90 93 96 99 102 105 108 111 114 117 120 123 126 129 132 135 138 141 144 147 150 153 156 159 162 165 168 171 174 177 180 183 186 189 192 195 198 201 204 207 210 213 216 219 222 225 228 231 234 237 240 243 246 249 252 255 258 261 264 267 270 273 276 279 282 285 288 291 294 297 300 303 306 309 312 315 318 321 324 327 330 333 336 339 342 345 348 351 354 357 360 363 366 369 372 375 378 381 384 387 390 393 396 399 402 405 408 411 414 417 420 423 426 429 432 435 438 441 444 447 450 453 456 459 462 465 468 471 474 477 480 483 486 489 492 495 498 501 504 507 510 513 516 519 522 525 528 531 534 537 540 543 546 549 552 555 558 561 564 567 570 573 576 579 582 585 588 591 594 597 600 603 606 609 612 615 618 621 624 627 630 633 636 639 642 645 648 651 654 657 660 663 666 669 672 675 678 681 684 687 690 693 696 699 702 705 708 711 714 717 720 723 726 729 732 735 738 741 744 747 750 753 756 759 762 765 768 771 774 777 780 783 786 789 792 795 798 801 804 807 810 813 816 819 822 825 828 831 834 837 840 843 846 849 852 855 858 861 864 867 870 873 876 879 882 885 888 891 894 897 900 903 906 909 912 915 918 921 924 927 930 933 936 939 942 945 948 951 954 957 960 963 966 969 972 975 978 981 984 987 990 993 996 999 1002 1005 1008 1011 1014 1017 1020 1023 1026 1029 1032 1035 1038 1041 1044 1047 1050 1053 1056 1059 1062 1065 1068 1071 1074 1077 1080 1083 1086 1089 1092 1095 1098 1101 1104 1107 1110 1113 1116 1119 1122 1125 1128 1131 1134 1137 1140 1143 1146 1149 1152 1155 1158 1161 1164 1167 1170 1173 1176 1179 1182 1185 1188 1191 1194 1197 1200 1203 1206 1209 1212 1215 1218 1221 1224 1227 1230 1233 1236 1239 1242 1245 1248 1251 1254 1257 1260 1263 1266 1269 1272 1275 1278 1281 1284 1287 1290 1293 1296 1299 1302 1305 1308 1311 1314 1317 1320 1323 1326 1329 1332 1335 1338 1341 1344 1347 1350 1353 1356 1359 1362 1365 1368 1371 1374 1377 1380 1383 1386 1389 1392 1395 1398 1401 1404 1407 1410 1413 1416 1419 1422 1425 1428 1431 1434 1437 1440 1443 1446 1449 1452 1455 1458 1461 1464 1467 1470 1473 1476 1479 1482 1485 1488 1491 1494 1497 1500 1503 1506 1509 1512 1515 1518 1521 1524 1527 1530 1533 1536 1539 1542 1545 1548 1551 1554 1557 1560 1563 1566 1569 1572 1575 1578 1581 1584 1587 1590 1593 1596 1599 1602 1605 1608 1611 1614 1617 1620 1623 1626 1629 1632 1635 1638 1641 1644 1647 1650 1653 1656 1659 1662 1665 1668 1671 1674 1677 1680 1683 1686 1689 1692 1695 1698 1701 1704 1707 1710 1713 1716 1719 1722 1725 1728 1731 1734 1737 1740 1743 1746 1749 1752 1755 1758 1761 1764 1767 1770 1773 1776 1779 1782 1785 1788 1791 1794 1797 1800 1803 1806 1809 1812 1815 1818 1821 1824 1827 1830 1833 1836 1839 1842 1845 1848 1851 1854 1857 1860 1863 1866 1869 1872 1875 1878 1881 1884 1887 1890 1893 1896 1899 1902 1905 1908 1911 1914 1917 1920 1923 1926 1929 1932 1935 1938 1941 1944 1947 1950 1953 1956 1959 1962 1965 1968 1971 1974 1977 1980 1983 1986 1989 1992 1995 1998 2001 2004 2007 2010 2013 2016 2019 2022 2025 2028 2031 2034 2037 2040 2043 2046 2049 2052 2055 2058 2061 2064 2067 2070 2073 2076 2079 2082 2085 2088 2091 2094 2097 2100 2103 2106 2109 2112 2115 2118 2121 2124 2127 2130 2133 2136 2139 2142 2145 2148 2151 2154 2157 2160 2163 2166 2169 2172 2175 2178 2181 2184 2187 2190 2193 2196 2199 2202 2205 2208 2211 2214 2217 2220 2223 2226 2229 2232 2235 2238 2241 2244 2247 2250 2253 2256 2259 2262 2265 2268 2271 2274 2277 2280 2283 2286 2289 2292 2295 2298 2301 2304 2307 2310 2313 2316 2319 2322 2325 2328 2331 2334 2337 2340 2343 2346 2349 2352 2355 2358 2361 2364 2367 2370 2373 2376 2379 2382 2385 2388 2391 2394 2397 2400 2403 2406 2409 2412 2415 2418 2421 2424 2427 2430 2433 2436 2439 2442 2445 2448 2451 2454 2457 2460 2463 2466 2469 2472 2475 2478 2481 2484 2487 2490 2493 2496 2499 2502 2505 2508 2511 2514 2517 2520 2523 2526 2529 2532 2535 2538 2541 2544 2547 2550 2553 2556 2559 2562 2565 2568 2571 2574 2577 2580 2583 2586 2589 2592 2595 2598 2601 2604 2607 2610 2613 2616 2619 2622 2625 2628 2631 2634 2637 2640 2643 2646 2649 2652 2655 2658 2661 2664 2667 2670 2673 2676 2679 2682 2685 2688 2691 2694 2697 2700 2703 2706 2709 2712 2715 2718 2721 2724 2727 2730 2733 2736 2739 2742 2745 2748 2751 2754 2757 2760 2763 2766 2769 2772 2775 2778 2781 2784 2787 2790 2793 2796 2799 2802 2805 2808 2811 2814 2817 2820 2823 2826 2829 2832 2835 2838 2841 2844 2847 2850 2853 2856 2859 2862 2865 2868 2871 2874 2877 2880 2883 2886 2889 2892 2895 2898 2901 2904 2907 2910 2913 2916 2919 2922 2925 2928 2931 2934 2937 2940 2943 2946 2949 2952 2955 2958 2961 2964 2967 2970 2973 2976 2979 2982 2985 2988 2991 2994 2997 3000 3003 3006 3009 3012 3015 3018 3021 3024 3027 3030 3033 3036 3039 3042 3045 3048 3051 3054 3057 3060 3063 3066 3069 3072 3075 3078 3081 3084 3087 3090 3093 3096 3099 3102 3105 3108 3111 3114 3117 3120 3123 3126 3129 3132 3135 3138 3141 3144 3147 3150 3153 3156 3159 3162 3165 3168 3171 3174 3177 3180 3183 3186 3189 3192 3195 3198 3201 3204 3207 3210 3213 3216 3219 3222 3225 3228 3231 3234 3237 3240 3243 3246 3249 3252 3255 3258 3261 3264 3267 3270 3273 3276 3279 3282 3285 3288 3291 3294 3297 3300 3303 3306 3309 3312 3315 3318 3321 3324 3327 3330 3333 3336 3339 3342 3345 3348 3351 3354 3357 3360 3363 3366 3369 3372 3375 3378 3381 3384 3387 3390 3393 3396 3399 3402 3405 3408 3411 3414 3417 3420 3423 3426 3429 3432 3435 3438 3441 3444 3447 3450 3453 3456 3459 3462 3465 3468 3471 3474 3477 3480 3483 3486 3489 3492 3495 3498 3501 3504 3507 3510 3513 3516 3519 3522 3525 3528 3531 3534 3537 3540 3543 3546 3549 3552 3555 3558 3561 3564 3567 3570 3573 3576 3579 3582 3585 3588 3591 3594 3597 3600 3603 3606 3609 3612 3615 3618 3621 3624 3627 3630 3633 3636 3639 3642 3645 3648 3651 3654 3657 3660 3663 3666 3669 3672 3675 3678 3681 3684 3687 3690 3693 3696 3699 3702 3705 3708 3711 3714 3717 3720 3723 3726 3729 3732 3735 3738 3741 3744 3747 3750 3753 3756 3759 3762 3765 3768 3771 3774 3777 3780 3783 3786 3789 3792 3795 3798 3801 3804 3807 3810 3813 3816 3819 3822 3825 3828 3831 3834 3837 3840 3843 3846 3849 3852 3855 3858 3861 3864 3867 3870 3873 3876 3879 3882 3885 3888 3891 3894 3897 3900 3903 3906 3909 3912 3915 3918 3921 3924 3927 3930 3933 3936 3939 3942 3945 3948 3951 3954 3957 3960 3963 3966 3969 3972 3975 3978 3981 3984 3987 3990 3993 3996 3999 4002 4005 4008 4011 4014 4017 4020 4023 4026 4029 4032 4035 4038 4041 4044 4047 4050 4053 4056 4059 4062 4065 4068 4071 4074 4077 4080 4083 4086 4089 4092 4095 4098 4101 4104 4107 4110 4113 4116 4119 4122 4125 4128 4131 4134 4137 4140 4143 4146 4149 4152 4155 4158 4161 4164 4167 4170 4173 4176 4179 4182 4185 4188 4191 4194 4197 4200 4203 4206 4209 4212 4215 4218 4221 4224 4227 4230 4233 4236 4239 4242 4245 4248 4251 4254 4257 4260 4263 4266 4269 4272 4275 4278 4281 4284 4287 4290 4293 4296 4299 4302 4305 4308 4311 4314 4317 4320 4323 4326 4329 4332 4335 4338 4341 4344 4347 4350 4353 4356 4359 4362 4365 4368 4371 4374 4377 4380 4383 4386 4389 4392 4395 4398 4401 4404 4407 4410 4413 4416 4419 4422 4425 4428 4431 4434 4437 4440 4443 4446 4449 4452 4455 4458 4461 4464 4467 4470 4473 4476 4479 4482 4485 4488 4491 4494 4497 4500 4503 4506 4509 4512 4515 4518 4521 4524 4527 4530 4533 4536 4539 4542 4545 4548 4551 4554 4557 4560 4563 4566 4569 4572 4575 4578 4581 4584 4587 4590 4593 4596 4599 4602 4605 4608 4611 4614 4617 4620 4623 4626 4629 4632 4635 4638 4641 4644 4647 4650 4653 4656 4659 4662 4665 4668 4671 4674 4677 4680 4683 4686 4689 4692 4695 4698 4701 4704 4707 4710 4713 4716 4719 4722 4725 4728 4731 4734 4737 4740 4743 4746 4749 4752 4755 4758 4761 4764 4767 4770 4773 4776 4779 4782 4785 4788 4791 4794 4797 4800 4803 4806 4809 4812 4815 4818 4821 4824 4827 4830 4833 4836 4839 4842 4845 4848 4851 4854 4857 4860 4863 4866 4869 4872 4875 4878 4881 4884 4887 4890 4893 4896 4899 4902 4905 4908 4911 4914 4917 4920 4923 4926 4929 4932 4935 4938 4941 4944 4947 4950 4953 4956 4959 4962 4965 4968 4971 4974 4977 4980 4983 4986 4989 4992 4995 4998 5001 5004 5007 5010 5013 5016 5019 5022 5025 5028 5031 5034 5037 5040 5043 5046 5049 5052 5055 5058 5061 5064 5067 5070 5073 5076 5079 5082 5085 5088 5091 5094 5097 5100 5103 5106 5109 5112 5115 5118 5121 5124 5127 5130 5133 5136 5139 5142 5145 5148 5151 5154 5157 5160 5163 5166 5169 5172 5175 5178 5181 5184 5187 5190 5193 5196 5199 5202 5205 5208 5211 5214 5217 5220 5223 5226 5229 5232 5235 5238 5241 5244 5247 5250 5253 5256 5259 5262 5265 5268 5271 5274 5277 5280 5283 5286 5289 5292 5295 5298 5301 5304 5307 5310 5313 5316 5319 5322 5325 5328 5331 5334 5337 5340 5343 5346 5349 5352 5355 5358 5361 5364 5367 5370 5373 5376 5379 5382 5385 5388 5391 5394 5397 5400 5403 5406 5409 5412 5415 5418 5421 5424 5427 5430 5433 5436 5439 5442 5445 5448 5451 5454 5457 5460 5463 5466 5469 5472 5475 5478 5481 5484 5487 5490 5493 5496 5499 5502 5505 5508 5511 5514 5517 5520 5523 5526 5529 5532 5535 5538 5541 5544 5547 5550 5553 5556 5559 5562 5565 5568 5571 5574 5577 5580 5583 5586 5589 5592 5595 5598 5601 5604 5607 5610 5613 5616 5619 5622 5625 5628 5631 5634 5637 5640 5643 5646 5649 5652 5655 5658 5661 5664 5667 5670 5673 5676 5679 5682 5685 5688 5691 5694 5697 5700 5703 5706 5709 5712 5715 5718 5721 5724 5727 5730 5733 5736 5739 5742 5745 5748 5751 5754 5757 5760 5763 5766 5769 5772 5775 5778 5781 5784 5787 5790 5793 5796 5799 5802 5805 5808 5811 5814 5817 5820 5823 5826 5829 5832 5835 5838 5841 5844 5847 5850 5853 5856 5859 5862 5865 5868 5871 5874 5877 5880 5883 5886 5889 5892 5895 5898 5901 5904 5907 5910 5913 5916 5919 5922 5925 5928 5931 5934 5937 5940 5943 5946 5949 5952 5955 5958 5961 5964 5967 5970 5973 5976 5979 5982 5985 5988 5991 5994 5997 6000 6003 6006 6009 6012 6015 6018 6021 6024 6027 6030 6033 6036 6039 6042 6045 6048 6051 6054 6057 6060 6063 6066 6069 6072 6075 6078 6081 6084 6087 6090 6093 6096 6099 6102 6105 6108 6111 6114 6117 6120 6123 6126 6129 6132 6135 6138 6141 6144 6147 6150 6153 6156 6159 6162 6165 6168 6171 6174 6177 6180 6183 6186 6189 6192 6195 6198 6201 6204 6207 6210 6213 6216 6219 6222 6225 6228 6231 6234 6237 6240 6243 6246 6249 6252 6255 6258 6261 6264 6267 6270 6273 6276 6279 6282 6285 6288 6291 6294 6297 6300 6303 6306 6309 6312 6315 6318 6321 6324 6327 6330 6333 6336 6339 6342 6345 6348 6351 6354 6357 6360 6363 6366 6369 6372 6375 6378 6381 6384 6387 6390 6393 6396 6399 6402 6405 6408 6411 6414 6417 6420 6423 6426 6429 6432 6435 6438 6441 6444 6447 6450 6453 6456 6459 6462 6465 6468 6471 6474 6477 6480 6483 6486 6489 6492 6495 6498 6501 6504 6507 6510 6513 6516 6519 6522 6525 6528 6531 6534 6537 6540 6543 6546 6549 6552 6555 6558 6561 6564 6567 6570 6573 6576 6579 6582 6585 6588 6591 6594 6597 6600 6603 6606 6609 6612 6615 6618 6621 6624 6627 6630 6633 6636 6639 6642 6645 6648 6651 6654 6657 6660 6663 6666 6669 6672 6675 6678 6681 6684 6687 6690 6693 6696 6699 6702 6705 6708 6711 6714 6717 6720 6723 6726 6729 6732 6735 6738 6741 6744 6747 6750 6753 6756 6759 6762 6765 6768 6771 6774 6777 6780 6783 6786 6789 6792 6795 6798 6801 6804 6807 6810 6813 6816 6819 6822 6825 6828 6831 6834 6837 6840 6843 6846 6849 6852 6855 6858 6861 6864 6867 6870 6873 6876 6879 6882 6885 6888 6891 6894 6897 6900 6903 6906 6909 6912 6915 6918 6921 6924 6927 6930 6933 6936 6939 6942 6945 6948 6951 6954 6957 6960 6963 6966 6969 6972 6975 6978 6981 6984 6987 6990 6993 6996 6999 7002 7005 7008 7011 7014 7017 7020 7023 7026 7029 7032 7035 7038 7041 7044 7047 7050 7053 7056 7059 7062 7065 7068 7071 7074 7077 7080 7083 7086 7089 7092 7095 7098 7101 7104 7107 7110 7113 7116 7119 7122 7125 7128 7131 7134 7137 7140 7143 7146 7149 7152 7155 7158 7161 7164 7167 7170 7173 7176 7179 7182 7185 7188 7191 7194 7197 7200 7203 7206 7209 7212 7215 7218 7221 7224 7227 7230 7233 7236 7239 7242 7245 7248 7251 7254 7257 7260 7263 7266 7269 7272 7275 7278 7281 7284 7287 7290 7293 7296 7299 7302 7305 7308 7311 7314 7317 7320 7323 7326 7329 7332 7335 7338 7341 7344 7347 7350 7353 7356 7359 7362 7365 7368 7371 7374 7377 7380 7383 7386 7389 7392 7395 7398 7401 7404 7407 7410 7413 7416 7419 7422 7425 7428 7431 7434 7437 7440 7443 7446 7449 7452 7455 7458 7461 7464 7467 7470 7473 7476 7479 7482 7485 7488 7491 7494 7497 7500 7503 7506 7509 7512 7515 7518 7521 7524 7527 7530 7533 7536 7539 7542 7545 7548 7551 7554 7557 7560 7563 7566 7569 7572 7575 7578 7581 7584 7587 7590 7593 7596 7599 7602 7605 7608 7611 7614 7617 7620 7623 7626 7629 7632 7635 7638 7641 7644 7647 7650 7653 7656 7659 7662 7665 7668 7671 7674 7677 7680 7683 7686 7689 7692 7695 7698 7701 7704 7707 7710 7713 7716 7719 7722 7725 7728 7731 7734 7737 7740 7743 7746 7749 7752 7755 7758 7761 7764 7767 7770 7773 7776 7779 7782 7785 7788 7791 7794 7797 7800 7803 7806 7809 7812 7815 7818 7821 7824 7827 7830 7833 7836 7839 7842 7845 7848 7851 7854 7857 7860 7863 7866 7869 7872 7875 7878 7881 7884 7887 7890 7893 7896 7899 7902 7905 7908 7911 7914 7917 7920 7923 7926 7929 7932 7935 7938 7941 7944 7947 7950 7953 7956 7959 7962 7965 7968 7971 7974 7977 7980 7983 7986 7989 7992 7995 7998 8001 8004 8007 8010 8013 8016 8019 8022 8025 8028 8031 8034 8037 8040 8043 8046 8049 8052 8055 8058 8061 8064 8067 8070 8073 8076 8079 8082 8085 8088 8091 8094 8097 8100 8103 8106 8109 8112 8115 8118 8121 8124 8127 8130 8133 8136 8139 8142 8145 8148 8151 8154 8157 8160 8163 8166 8169 8172 8175 8178 8181 8184 8187 8190 8193 8196 8199 8202 8205 8208 8211 8214 8217 8220 8223 8226 8229 8232 8235 8238 8241 8244 8247 8250 8253 8256 8259 8262 8265 8268 8271 8274 8277 8280 8283 8286 8289 8292 8295 8298 8301 8304 8307 8310 8313 8316 8319 8322 8325 8328 8331 8334 8337 8340 8343 8346 8349 8352 8355 8358 8361 8364 8367 8370 8373 8376 8379 8382 8385 8388 8391 8394 8397 8400 8403 8406 8409 8412 8415 8418 8421 8424 8427 8430 8433 8436 8439 8442 8445 8448 8451 8454 8457 8460 8463 8466 8469 8472 8475 8478 8481 8484 8487 8490 8493 8496 8499 8502 8505 8508 8511 8514 8517 8520 8523 8526 8529 8532 8535 8538 8541 8544 8547 8550 8553 8556 8559 8562 8565 8568 8571 8574 8577 8580 8583 8586 8589 8592 8595 8598 8601 8604 8607 8610 8613 8616 8619 8622 8625 8628 8631 8634 8637 8640 8643 8646 8649 8652 8655 8658 8661 8664 8667 8670 8673 8676 8679 8682 8685 8688 8691 8694 8697 8700 8703 8706 8709 8712 8715 8718 8721 8724 8727 8730 8733 8736 8739 8742 8745 8748 8751 8754 8757 8760 8763 8766 8769 8772 8775 8778 8781 8784 8787 8790 8793 8796 8799 8802 8805 8808 8811 8814 8817 8820 8823 8826 8829 8832 8835 8838 8841 8844 8847 8850 8853 8856 8859 8862 8865 8868 8871 8874 8877 8880 8883 8886 8889 8892 8895 8898 8901 8904 8907 8910 8913 8916 8919 8922 8925 8928 8931 8934 8937 8940 8943 8946 8949 8952 8955 8958 8961 8964 8967 8970 8973 8976 8979 8982 8985 8988 8991 8994 8997 9000 9003 9006 9009 9012 9015 9018 9021 9024 9027 9030 9033 9036 9039 9042 9045 9048 9051 9054 9057 9060 9063 9066 9069 9072 9075 9078 9081 9084 9087 9090 9093 9096 9099 9102 9105 9108 9111 9114 9117 9120 9123 9126 9129 9132 9135 9138 9141 9144 9147 9150 9153 9156 9159 9162 9165 9168 9171 9174 9177 9180 9183 9186 9189 9192 9195 9198 9201 9204 9207 9210 9213 9216 9219 9222 9225 9228 9231 9234 9237 9240 9243 9246 9249 9252 9255 9258 9261 9264 9267 9270 9273 9276 9279 9282 9285 9288 9291 9294 9297 9300 9303 9306 9309 9312 9315 9318 9321 9324 9327 9330 9333 9336 9339 9342 9345 9348 9351 9354 9357 9360 9363 9366 9369 9372 9375 9378 9381 9384 9387 9390 9393 9396 9399 9402 9405 9408 9411 9414 9417 9420 9423 9426 9429 9432 9435 9438 9441 9444 9447 9450 9453 9456 9459 9462 9465 9468 9471 9474 9477 9480 9483 9486 9489 9492 9495 9498 9501 9504 9507 9510 9513 9516 9519 9522 9525 9528 9531 9534 9537 9540 9543 9546 9549 9552 9555 9558 9561 9564 9567 9570 9573 9576 9579 9582 9585 9588 9591 9594 9597 9600 9603 9606 9609 9612 9615 9618 9621 9624 9627 9630 9633 9636 9639 9642 9645 9648 9651 9654 9657 9660 9663 9666 9669 9672 9675 9678 9681 9684 9687 9690 9693 9696 9699 9702 9705 9708 9711 9714 9717 9720 9723 9726 9729 9732 9735 9738 9741 9744 9747 9750 9753 9756 9759 9762 9765 9768 9771 9774 9777 9780 9783 9786 9789 9792 9795 9798 9801 9804 9807 9810 9813 9816 9819 9822 9825 9828 9831 9834 9837 9840 9843 9846 9849 9852 9855 9858 9861 9864 9867 9870 9873 9876 9879 9882 9885 9888 9891 9894 9897 9900 9903 9906 9909 9912 9915 9918 9921 9924 9927 9930 9933 9936 9939 9942 9945 9948 9951 9954 9957 9960 9963 9966 9969 9972 9975 9978 9981 9984 9987 9990 9993 9996 9999 10002 10005 10008 10011 10014 10017 10020 10023 10026 10029 10032 10035 10038 10041 10044 10047 10050 10053 10056 10059 10062 10065 10068 10071 10074 10077 10080 10083 10086 10089 10092 10095 10098 10101 10104 10107 10110 10113 10116 10119 10122 10125 10128 10131 10134 10137 10140 10143 10146 10149 10152 10155 10158 10161 10164 10167 10170 10173 10176 10179 10182 10185 10188 10191 10194 10197 10200 10203 10206 10209 10212 10215 10218 10221 10224 10227 10230 10233 10236 10239 10242 10245 10248 10251 10254 10257 10260 10263 10266 10269 10272 10275 10278 10281 10284 10287 10290 10293 10296 10299 10302 10305 10308 10311 10314 10317 10320 10323 10326 10329 10332 10335 10338 10341 10344 10347 10350 10353 10356 10359 10362 10365 10368 10371 10374 10377 10380 10383 10386 10389 10392 10395 10398 10401 </DataArray>
        <DataArray type="Int8" Name="types" format="ascii">69 69 69 69 69 69 69 69 69 69 69 69 69 69 69 69 69 69 69 69 69 69 69 69 69 69 69 69 69 69 69 69 69 69 69 69 69 69 69 69 69 69 69 69 69 69 69 69 69 69 69 69 69 69 69 69 69 69 69 69 69 69 69 69 69 69 69 69 69 69 69 69 69 69 69 69 69 69 69 69 69 69 69 69 69 69 69 69 69 69 69 69 69 69 69 69 69 69 69 69 69 69 69 69 69 69 69 69 69 69 69 69 69 69 69 69 69 69 69 69 69 69 69 69 69 69 69 69 69 69 69 69 69 69 69 69 69 69 69 69 69 69 69 69 69 69 69 69 69 69 69 69 69 69 69 69 69 69 69 69 69 69 69 69 69 69 69 69 69 69 69 69 69 69 69 69 69 69 69 69 69 69 69 69 69 69 69 69 69 69 69 69 69 69 69 69 69 69 69 69 69 69 69 69 69 69 69 69 69 69 69 69 69 69 69 69 69 69 69 69 69 69 69 69 69 69 69 69 69 69 69 69 69 69 69 69 69 69 69 69 69 69 69 69 69 69 69 69 69 69 69 69 69 69 69 69 69 69 69 69 69 69 69 69 69 69 69 69 69 69 69 69 69 69 69 69 69 69 69 69 69 69 69 69 69 69 69 69 69 69 69 69 69 69 69 69 69 69 69 69 69 69 69 69 69 69 69 69 69 69 69 69 69 69 69 69 69 69 69 69 69 69 69 69 69 69 69 69 69 69 69 69 69 69 69 69 69 69 69 69 69 69 69 69 69 69 69 69 69 69 69 69 69 69 69 69 69 69 69 69 69 69 69 69 69 69 69 69 69 69 69 69 69 69 69 69 69 69 69 69 69 69 69 69 69 69 69 69 69 69 69 69 69 69 69 69 69 69 69 69 69 69 69 69 69 69 69 69 69 69 69 69 69 69 69 69 69 69 69 69 69 69 69 69 69 69 69 69 69 69 69 69 69 69 69 69 69 69 69 69 69 69 69 69 69 69 69 69 69 69 69 69 69 69 69 69 69 69 69 69 69 69 69 69 69 69 69 69 69 69 69 69 69 69 69 69 69 69 69 69 69 69 69 69 69 69 69 69 69 69 69 69 69 69 69 69 69 69 69 69 69 69 69 69 69 69 69 69 69 69 69 69 69 69 69 69 69 69 69 69 69 69 69 69 69 69 69 69 69 69 69 69 69 69 69 69 69 69 69 69 69 69 69 69 69 69 69 69 69 69 69 69 69 69 69 69 69 69 69 69 69 69 69 69 69 69 69 69 69 69 69 69 69 69 69 69 69 69 69 69 69 69 69 69 69 69 69 69 69 69 69 69 69 69 69 69 69 69 69 69 69 69 69 69 69 69 69 69 69 69 69 69 69 69 69 69 69 69 69 69 69 69 69 69 69 69 69 69 69 69 69 69 69 69 69 69 69 69 69 69 69 69 69 69 69 69 69 69 69 69 69 69 69 69 69 69 69 69 69 69 69 69 69 69 69 69 69 69 69 69 69 69 69 69 69 69 69 69 69 69 69 69 69 69 69 69 69 69 69 69 69 69 69 69 69 69 69 69 69 69 69 69 69 69 69 69 69 69 69 69 69 69 69 69 69 69 69 69 69 69 69 69 69 69 69 69 69 69 69 69 69 69 69 69 69 69 69 69 69 69 69 69 69 69 69 69 69 69 69 69 69 69 69 69 69 69 69 69 69 69 69 69 69 69 69 69 69 69 69 69 69 69 69 69 69 69 69 69 69 69 69 69 69 69 69 69 69 69 69 69 69 69 69 69 69 69 69 69 69 69 69 69 69 69 69 69 69 69 69 69 69 69 69 69 69 69 69 69 69 69 69 69 69 69 69 69 69 69 69 69 69 69 69 69 69 69 69 69 69 69 69 69 69 69 69 69 69 69 69 69 69 69 69 69 69 69 69 69 69 69 69 69 69 69 69 69 69 69 69 69 69 69 69 69 69 69 69 69 69 69 69 69 69 69 69 69 69 69 69 69 69 69 69 69 69 69 69 69 69 69 69 69 69 69 69 69 69 69 69 69 69 69 69 69 69 69 69 69 69 69 69 69 69 69 69 69 69 69 69 69 69 69 69 69 69 69 69 69 69 69 69 69 69 69 69 69 69 69 69 69 69 69 69 69 69 69 69 69 69 69 69 69 69 69 69 69 69 69 69 69 69 69 69 69 69 69 69 69 69 69 69 69 69 69 69 69 69 69 69 69 69 69 69 69 69 69 69 69 69 69 69 69 69 69 69 69 69 69 69 69 69 69 69 69 69 69 69 69 69 69 69 69 69 69 69 69 69 69 69 69 69 69 69 69 69 69 69 69 69 69 69 69 69 69 69 69 69 69 69 69 69 69 69 69 69 69 69 69 69 69 69 69 69 69 69 69 69 69 69 69 69 69 69 69 69 69 69 69 69 69 69 69 69 69 69 69 69 69 69 69 69 69 69 69 69 69 69 69 69 69 69 69 69 69 69 69 69 69 69 69 69 69 69 69 69 69 69 69 69 69 69 69 69 69 69 69 69 69 69 69 69 69 69 69 69 69 69 69 69 69 69 69 69 69 69 69 69 69 69 69 69 69 69 69 69 69 69 69 69 69 69 69 69 69 69 69 69 69 69 69 69 69 69 69 69 69 69 69 69 69 69 69 69 69 69 69 69 69 69 69 69 69 69 69 69 69 69 69 69 69 69 69 69 69 69 69 69 69 69 69 69 69 69 69 69 69 69 69 69 69 69 69 69 69 69 69 69 69 69 69 69 69 69 69 69 69 69 69 69 69 69 69 69 69 69 69 69 69 69 69 69 69 69 69 69 69 69 69 69 69 69 69 69 69 69 69 69 69 69 69 69 69 69 69 69 69 69 69 69 69 69 69 69 69 69 69 69 69 69 69 69 69 69 69 69 69 69 69 69 69 69 69 69 69 69 69 69 69 69 69 69 69 69 69 69 69 69 69 69 69 69 69 69 69 69 69 69 69 69 69 69 69 69 69 69 69 69 69 69 69 69 69 69 69 69 69 69 69 69 69 69 69 69 69 69 69 69 69 69 69 69 69 69 69 69 69 69 69 69 69 69 69 69 69 69 69 69 69 69 69 69 69 69 69 69 69 69 69 69 69 69 69 69 69 69 69 69 69 69 69 69 69 69 69 69 69 69 69 69 69 69 69 69 69 69 69 69 69 69 69 69 69 69 69 69 69 69 69 69 69 69 69 69 69 69 69 69 69 69 69 69 69 69 69 69 69 69 69 69 69 69 69 69 69 69 69 69 69 69 69 69 69 69 69 69 69 69 69 69 69 69 69 69 69 69 69 69 69 69 69 69 69 69 69 69 69 69 69 69 69 69 69 69 69 69 69 69 69 69 69 69 69 69 69 69 69 69 69 69 69 69 69 69 69 69 69 69 69 69 69 69 69 69 69 69 69 69 69 69 69 69 69 69 69 69 69 69 69 69 69 69 69 69 69 69 69 69 69 69 69 69 69 69 69 69 69 69 69 69 69 69 69 69 69 69 69 69 69 69 69 69 69 69 69 69 69 69 69 69 69 69 69 69 69 69 69 69 69 69 69 69 69 69 69 69 69 69 69 69 69 69 69 69 69 69 69 69 69 69 69 69 69 69 69 69 69 69 69 69 69 69 69 69 69 69 69 69 69 69 69 69 69 69 69 69 69 69 69 69 69 69 69 69 69 69 69 69 69 69 69 69 69 69 69 69 69 69 69 69 69 69 69 69 69 69 69 69 69 69 69 69 69 69 69 69 69 69 69 69 69 69 69 69 69 69 69 69 69 69 69 69 69 69 69 69 69 69 69 69 69 69 69 69 69 69 69 69 69 69 69 69 69 69 69 69 69 69 69 69 69 69 69 69 69 69 69 69 69 69 69 69 69 69 69 69 69 69 69 69 69 69 69 69 69 69 69 69 69 69 69 69 69 69 69 69 69 69 69 69 69 69 69 69 69 69 69 69 69 69 69 69 69 69 69 69 69 69 69 69 69 69 69 69 69 69 69 69 69 69 69 69 69 69 69 69 69 69 69 69 69 69 69 69 69 69 69 69 69 69 69 69 69 69 69 69 69 69 69 69 69 69 69 69 69 69 69 69 69 69 69 69 69 69 69 69 69 69 69 69 69 69 69 69 69 69 69 69 69 69 69 69 69 69 69 69 69 69 69 69 69 69 69 69 69 69 69 69 69 69 69 69 69 69 69 69 69 69 69 69 69 69 69 69 69 69 69 69 69 69 69 69 69 69 69 69 69 69 69 69 69 69 69 69 69 69 69 69 69 69 69 69 69 69 69 69 69 69 69 69 69 69 69 69 69 69 69 69 69 69 69 69 69 69 69 69 69 69 69 69 69 69 69 69 69 69 69 69 69 69 69 69 69 69 69 69 69 69 69 69 69 69 69 69 69 69 69 69 69 69 69 69 69 69 69 69 69 69 69 69 69 69 69 69 69 69 69 69 69 69 69 69 69 69 69 69 69 69 69 69 69 69 69 69 69 69 69 69 69 69 69 69 69 69 69 69 69 69 69 69 69 69 69 69 69 69 69 69 69 69 69 69 69 69 69 69 69 69 69 69 69 69 69 69 69 69 69 69 69 69 69 69 69 69 69 69 69 69 69 69 69 69 69 69 69 69 69 69 69 69 69 69 69 69 69 69 69 69 69 69 69 69 69 69 69 69 69 69 69 69 69 69 69 69 69 69 69 69 69 69 69 69 69 69 69 69 69 69 69 69 69 69 69 69 69 69 69 69 69 69 69 69 69 69 69 69 69 69 69 69 69 69 69 69 69 69 69 69 69 69 69 69 69 69 69 69 69 69 69 69 69 69 69 69 69 69 69 69 69 69 69 69 69 69 69 69 69 69 69 69 69 69 69 69 69 69 69 69 69 69 69 69 69 69 69 69 69 69 69 69 69 69 69 69 69 69 69 69 69 69 69 69 69 69 69 69 69 69 69 69 69 69 69 69 69 69 69 69 69 69 69 69 69 69 69 69 69 69 69 69 69 69 69 69 69 69 69 69 69 69 69 69 69 69 69 69 69 69 69 69 69 69 69 69 69 69 69 69 69 69 69 69 69 69 69 69 69 69 69 69 69 69 69 69 69 69 69 69 69 69 69 69 69 69 69 69 69 69 69 69 69 69 69 69 69 69 69 69 69 69 69 69 69 69 69 69 69 69 69 69 69 69 69 69 69 69 69 69 69 69 69 69 69 69 69 69 69 69 69 69 69 69 69 69 69 69 69 69 69 69 69 69 69 69 69 69 69 69 69 69 69 69 69 69 69 69 69 69 69 69 69 69 69 69 69 69 69 69 69 69 69 69 69 69 69 69 69 69 69 69 69 69 69 69 69 69 69 69 69 69 69 69 69 69 69 69 69 69 69 69 69 69 69 69 69 69 69 69 69 69 69 69 69 69 69 69 69 69 69 69 69 69 69 69 69 69 69 69 69 69 69 69 69 69 69 69 69 69 69 69 69 69 69 69 69 69 69 69 69 69 69 69 69 69 69 69 69 69 69 69 69 69 69 69 69 69 69 69 69 69 69 69 69 69 69 69 69 69 69 69 69 69 69 69 69 69 69 69 69 69 69 69 69 69 69 69 69 69 69 69 69 69 69 69 69 69 69 69 69 69 69 69 69 69 69 69 69 69 69 69 69 69 69 69 69 69 69 69 69 69 69 69 69 69 69 69 69 69 69 69 69 69 69 69 69 69 69 69 69 69 69 69 69 69 69 69 69 69 69 69 69 69 69 69 69 69 69 69 69 69 69 69 69 69 69 69 69 69 69 69 69 69 69 69 69 69 69 69 69 69 69 69 69 69 69 69 69 69 69 69 69 69 69 69 69 69 69 69 69 69 69 69 69 69 69 69 69 69 69 69 69 69 69 69 69 69 69 69 69 69 69 69 69 69 69 69 69 69 69 69 69 69 69 69 69 69 69 69 69 69 69 69 69 69 69 69 69 69 69 69 69 69 69 69 69 69 69 69 69 69 69 69 69 69 69 69 69 69 69 69 69 69 69 69 69 69 69 69 69 69 69 69 69 69 69 69 69 69 69 69 69 69 69 69 69 69 69 69 69 69 69 69 69 69 69 69 69 69 69 69 69 69 69 69 69 69 69 69 69 69 69 69 69 69 69 69 69 69 69 69 69 69 69 69 69 69 69 69 69 69 69 69 69 69 69 69 69 69 69 69 69 69 69 69 69 69 69 69 69 69 69 69 69 69 69 69 69 69 69 69 69 69 69 69 69 69 69 69 69 69 69 69 69 69 69 69 69 69 69 69 69 69 69 69 69 69 69 69 69 69 69 69 69 69 69 69 69 69 69 69 69 69 69 69 69 69 69 69 69 69 69 69 69 69 69 69 69 69 69 69 69 69 69 69 69 69 69 69 69 69 69 69 69 69 69 69 69 69 69 69 69 69 69 69 69 69 69 69 69 69 69 69 69 69 69 69 69 69 69 69 69 69 69 69 69 69 69 69 69 69 69 69 69 69 69 69 69 69 69 69 69 69 69 69 69 69 69 69 69 69 69 69 69 69 69 69 69 69 69 69 69 69 69 69 69 69 69 69 69 69 69 69 69 69 69 69 69 69 69 69 69 69 69 69 69 69 69 69 69 69 69 69 69 69 69 69 69 69 69 69 69 69 69 69 69 69 69 69 69 69 69 69 69 69 69 69 69 69 69 69 69 69 69 69 69 69 69 69 69 69 69 69 69 69 69 69 69 69 69 69 69 69 69 69 69 69 69 69 69 69 69 69 69 69 69 69 69 69 69 69 69 69 69 69 69 69 69 69 69 69 69 69 69 69 69 69 69 69 69 69 69 69 69 69 69 69 69 69 69 69 69 69 69 69 69 69 69 69 69 69 69 69 69 69 69 69 69 69 69 69 69 69 69 69 69 69 69 69 69 69 69 69 69 69 69 69 69 69 69 69 69 69 69 69 69 69 69 69 69 69 69 69 69 69 69 69 69 69 69 69 69 69 69 69 69 69 69 69 69 69 69 69 69 69 69 69 69 69 69 69 69 69 69 69 69 69 69 69 69 69 69 69 69 69 69 69 69 69 69 69 69 69 69 69 69 69 69 69 69 69 69 69 69 69 69 69 69 69 69 69 69 69 69 69 69 69 69 69 69 69 69 69 69 69 69 69 69 69 69 69 69 69 69 69 69 69 69 69 69 69 69 69 69 69 69 69 69 69 69 69 69 69 69 69 69 69 69 69 69 69 69 69 69 69 69 69 69 69 69 69 69 69 69 69 69 69 69 69 69 69 69 69 69 69 69 69 69 69 69 69 69 69 69 69 69 69 69 69 69 69 69 69 69 69 69 69 69 69 69 69 69 69 69 69 69 69 69 69 69 69 69 69 69 69 69 69 69 69 69 69 69 69 69 69 69 69 69 69 69 69 69 69 69 69 69 69 69 69 69 69 69 69 69 69 69 69 69 69 69 69 69 69 69 69 69 69 69 69 69 69 69 69 69 69 69 69 69 69 69 69 69 69 69 69 69 69 69 69 69 69 69 69 69 69 69 69 69 69 69 69 69 69 69 69 69 69 69 69 69 69 69 69 69 69 69 69 69 69 69 69 69 69 69 69 69 69 69 69 69 69 69 69 69 69 69 69 69 69 69 69 69 69 69 69 69 69 69 69 69 69 69 69 69 69 69 69 69 69 69 69 69 69 69 69 69 69 69 69 69 69 69 69 69 69 69 69 69 69 69 69 69 69 69 69 69 69 69 69 69 69 69 69 69 69 69 69 69 69 69 69 69 69 69 69 69 69 69 69 </DataArray>
      </Cells>
      <CellData Tensors="stress">
        <DataArray type="UInt8" Name="vtkGhostType" format="ascii" RangeMin="0" RangeMax="1">0 0 0 0 0 0 0 0 0 0 0 0 0 0 0 0 0 0 0 0 0 0 0 0 0 0 0 0 0 0 0 0 0 0 0 0 0 0 0 0 0 0 0 0 0 0 0 0 0 0 0 0 0 0 0 0 0 0 0 0 0 0 0 0 0 0 0 0 0 0 0 0 0 0 0 0 0 0 0 0 0 0 0 0 0 0 0 0 0 0 0 0 0 0 0 0 0 0 0 0 0 0 0 0 0 0 0 0 0 0 0 0 0 0 0 0 0 0 0 0 0 0 0 0 0 0 0 0 0 0 0 0 0 0 0 0 0 0 0 0 0 0 0 0 0 0 0 0 0 0 0 0 0 0 0 0 0 0 0 0 0 0 0 0 0 0 0 0 0 0 0 0 0 0 0 0 0 0 0 0 0 0 0 0 0 0 0 0 0 0 0 0 0 0 0 0 0 0 0 0 0 0 0 0 0 0 0 0 0 0 0 0 0 0 0 0 0 0 0 0 0 0 0 0 0 0 0 0 0 0 0 0 0 0 0 0 0 0 0 0 0 0 0 0 0 0 0 0 0 0 0 0 0 0 0 0 0 0 0 0 0 0 0 0 0 0 0 0 0 0 0 0 0 0 0 0 0 0 0 0 0 0 0 0 0 0 0 0 0 0 0 0 0 0 0 0 0 0 0 0 0 0 0 0 0 0 0 0 0 0 0 0 0 0 0 0 0 0 0 0 0 0 0 0 0 0 0 0 0 0 0 0 0 0 0 0 0 0 0 0 0 0 0 0 0 0 0 0 0 0 0 0 0 0 0 0 0 0 0 0 0 0 0 0 0 0 0 0 0 0 0 0 0 0 0 0 0 0 0 0 0 0 0 0 0 0 0 0 0 0 0 0 0 0 0 0 0 0 0 0 0 0 0 0 0 0 0 0 0 0 0 0 0 0 0 0 0 0 0 0 0 0 0 0 0 0 0 0 0 0 0 0 0 0 0 0 0 0 0 0 0 0 0 0 0 0 0 0 0 0 0 0 0 0 0 0 0 0 0 0 0 0 0 0 0 0 0 0 0 0 0 0 0 0 0 0 0 0 0 0 0 0 0 0 0 0 0 0 0 0 0 0 0 0 0 0 0 0 0 0 0 0 0 0 0 0 0 0 0 0 0 0 0 0 0 0 0 0 0 0 0 0 0 0 0 0 0 0 0 0 0 0 0 0 0 0 0 0 0 0 0 0 0 0 0 0 0 0 0 0 0 0 0 0 0 0 0 0 0 0 0 0 0 0 0 0 0 0 0 0 0 0 0 0 0 0 0 0 0 0 0 0 0 0 0 0 0 0 0 0 0 0 0 0 0 0 0 0 0 0 0 0 0 0 0 0 0 0 0 0 0 0 0 0 0 0 0 0 0 0 0 0 0 0 0 0 0 0 0 0 0 0 0 0 0 0 0 0 0 0 0 0 0 0 0 0 0 0 0 0 0 0 0 0 0 0 0 0 0 0 0 0 0 0 0 0 0 0 0 0 0 0 0 0 0 0 0 0 0 0 0 0 0 0 0 0 0 0 0 0 0 0 0 0 0 0 0 0 0 0 0 0 0 0 0 0 0 0 0 0 0 0 0 0 0 0 0 0 0 0 0 0 0 0 0 0 0 0 0 0 0 0 0 0 0 0 0 0 0 0 0 0 0 0 0 0 0 0 0 0 0 0 0 0 0 0 0 0 0 0 0 0 0 0 0 0 0 0 0 0 0 0 0 0 0 0 0 0 0 0 0 0 0 0 0 0 0 0 0 0 0 0 0 0 0 0 0 0 0 0 0 0 0 0 0 0 0 0 0 0 0 0 0 0 0 0 0 0 0 0 0 0 0 0 0 0 0 0 0 0 0 0 0 0 0 0 0 0 0 0 0 0 0 0 0 0 0 0 0 0 0 0 0 0 0 0 0 0 0 0 0 0 0 0 0 0 0 0 0 0 0 0 0 0 0 0 0 0 0 0 0 0 0 0 0 0 0 0 0 0 0 0 0 0 0 0 0 0 0 0 0 0 0 0 0 0 0 0 0 0 0 0 0 0 0 0 0 0 0 0 0 0 0 0 0 0 0 0 0 0 0 0 0 0 0 0 0 0 0 0 0 0 0 0 0 0 0 0 0 0 0 0 0 0 0 0 0 0 0 0 0 0 0 0 0 0 0 0 0 0 0 0 0 0 0 0 0 0 0 0 0 0 0 0 0 0 0 0 0 0 0 0 0 0 0 0 0 0 0 0 0 0 0 0 0 0 0 0 0 0 0 0 0 0 0 0 0 0 0 0 0 0 0 0 0 0 0 0 0 0 0 0 0 0 0 0 0 0 0 0 0 0 0 0 0 0 0 0 0 0 0 0 0 0 0 0 0 0 0 0 0 0 0 0 0 0 0 0 0 0 0 0 0 0 0 0 0 0 0 0 0 0 0 0 0 0 0 0 0 0 0 0 0 0 0 0 0 0 0 0 0 0 0 0 0 0 0 0 0 0 0 0 0 0 0 0 0 0 0 0 0 0 0 0 0 0 0 0 0 0 0 0 0 0 0 0 0 0 0 0 0 0 0 0 0 0 0 0 0 0 0 0 0 0 0 0 0 0 0 0 0 0 0 0 0 0 0 0 0 0 0 0 0 0 0 0 0 0 0 0 0 0 0 0 0 0 0 0 0 0 0 0 0 0 0 0 0 0 0 0 0 0 0 0 0 0 0 0 0 0 0 0 0 0 0 0 0 0 0 0 0 0 0 0 0 0 0 0 0 0 0 0 0 0 0 0 0 0 0 0 0 0 0 0 0 0 0 0 0 0 0 0 0 0 0 0 0 0 0 0 0 0 0 0 0 0 0 0 0 0 0 0 0 0 0 0 0 0 0 0 0 0 0 0 0 0 0 0 0 0 0 0 0 0 0 0 0 0 0 0 0 0 0 0 0 0 0 0 0 0 0 0 0 0 0 0 0 0 0 0 0 0 0 0 0 0 0 0 0 0 0 0 0 0 0 0 0 0 0 0 0 0 0 0 0 0 0 0 0 0 0 0 0 0 0 0 0 0 0 0 0 0 0 0 0 0 0 0 0 0 0 0 0 0 0 0 0 0 0 0 0 0 0 0 0 0 0 0 0 0 0 0 0 0 0 0 0 0 0 0 0 0 0 0 0 0 0 0 0 0 0 0 0 0 0 0 0 0 0 0 0 0 0 0 0 0 0 0 0 0 0 0 0 0 0 0 0 0 0 0 0 0 0 0 0 0 0 0 0 0 0 0 0 0 0 0 0 0 0 0 0 0 0 0 0 0 0 0 0 0 0 0 0 0 0 0 0 0 0 0 0 0 0 0 0 0 0 0 0 0 0 0 0 0 0 0 0 0 0 0 0 0 0 0 0 0 0 0 0 0 0 0 0 0 0 0 0 0 0 0 0 0 0 0 0 0 0 0 0 0 0 0 0 0 0 0 0 0 0 0 0 0 0 0 0 0 0 0 0 0 0 0 0 0 0 0 0 0 0 0 0 0 0 0 0 0 0 0 0 0 0 0 0 0 0 0 0 0 0 0 0 0 0 0 0 0 0 0 0 0 0 0 0 0 0 0 0 0 0 0 0 0 0 0 0 0 0 0 0 0 0 0 0 0 0 0 0 0 0 0 0 0 0 0 0 0 0 0 0 0 0 0 0 0 0 0 0 0 0 0 0 0 0 0 0 0 0 0 0 0 0 0 0 0 0 0 0 0 0 0 0 0 0 0 0 0 0 0 0 0 0 0 0 0 0 0 0 0 0 0 0 0 0 0 0 0 0 0 0 0 0 0 0 0 0 0 0 0 0 0 0 0 0 0 0 0 0 0 0 0 0 0 0 0 0 0 0 0 0 0 0 0 0 0 0 0 0 0 0 0 0 0 0 0 0 0 0 0 0 0 0 0 0 0 0 0 0 0 0 0 0 0 0 0 0 0 0 0 0 0 0 0 0 0 0 0 0 0 0 0 0 0 0 0 0 0 0 0 0 0 0 0 0 0 0 0 0 0 0 0 0 0 0 0 0 0 0 0 0 0 0 0 0 0 0 0 0 0 0 0 0 0 0 0 0 0 0 0 0 0 0 0 0 0 0 0 0 0 0 0 0 0 0 0 0 0 0 0 0 0 0 0 0 0 0 0 0 0 0 0 0 0 0 0 0 0 0 0 0 0 0 0 0 0 0 0 0 0 0 0 0 0 0 0 0 0 0 0 0 0 0 0 0 0 0 0 0 0 0 0 0 0 0 0 0 0 0 0 0 0 0 0 0 0 0 0 0 0 0 0 0 0 0 0 0 0 0 0 0 0 0 0 0 0 0 0 0 0 0 0 0 0 0 0 0 0 0 0 0 0 0 0 0 0 0 0 0 0 0 0 0 0 0 0 0 0 0 0 0 0 0 0 0 0 0 0 0 0 0 0 0 0 0 0 0 0 0 0 0 0 0 0 0 0 0 0 0 0 0 0 0 0 0 0 0 0 0 0 0 0 0 0 0 0 0 0 0 0 0 0 0 0 0 0 0 0 0 0 0 0 0 0 0 0 0 0 0 0 0 0 0 0 0 0 0 0 0 0 0 0 0 0 0 0 0 0 0 0 0 0 0 0 0 0 0 0 0 0 0 0 0 0 0 0 0 0 0 0 0 0 0 0 0 0 0 0 0 0 0 0 0 0 0 0 0 0 0 0 0 0 0 0 0 0 0 0 0 0 0 0 0 0 0 0 0 0 0 0 0 0 0 0 0 0 0 0 0 0 0 0 0 0 0 0 0 0 0 0 0 0 0 0 0 0 0 0 0 0 0 0 0 0 0 0 0 0 0 0 0 0 0 0 0 0 0 0 0 0 0 0 0 0 0 0 0 0 0 0 0 0 0 0 0 0 0 0 0 0 0 0 0 0 0 0 0 0 0 0 0 0 0 0 0 0 0 0 0 0 0 0 0 0 0 0 0 0 0 0 0 0 0 0 0 0 0 0 0 0 0 0 0 0 0 0 0 0 0 0 0 0 0 0 0 0 0 0 0 0 0 0 0 0 0 0 0 0 0 0 0 0 0 0 0 0 0 0 0 0 0 0 0 0 0 0 0 0 0 0 0 0 0 0 0 0 0 0 0 0 0 0 0 0 0 0 0 0 0 0 0 0 0 0 0 0 0 0 0 0 0 0 0 0 0 0 0 0 0 0 0 0 0 0 0 0 0 0 0 0 0 0 0 0 0 0 0 0 0 0 0 0 0 0 0 0 0 0 0 0 0 0 0 0 0 0 0 0 0 0 0 0 0 0 0 0 0 0 0 0 0 0 0 0 0 0 0 0 0 0 0 0 0 0 0 0 0 0 0 0 0 0 0 0 0 0 0 0 0 0 0 0 0 0 0 0 0 0 0 0 0 0 0 0 0 0 0 0 0 0 0 0 0 0 0 0 0 0 0 0 0 0 0 0 0 0 0 0 0 0 0 0 0 0 0 0 0 0 0 0 0 0 0 0 0 0 0 0 0 0 0 0 0 0 0 0 0 0 0 0 0 0 0 0 0 0 0 0 0 0 0 0 0 0 0 0 0 0 0 0 0 0 0 0 0 0 0 0 0 0 0 0 0 0 0 0 0 0 0 0 0 0 0 0 0 0 0 0 0 0 0 0 0 0 0 0 0 0 0 0 0 0 0 0 0 0 0 0 0 0 0 0 0 0 0 0 0 0 0 0 0 0 0 0 0 0 0 0 0 0 0 0 0 0 0 0 0 0 0 0 0 0 0 0 0 0 0 0 0 0 0 0 0 0 0 0 0 0 0 0 0 0 0 0 0 0 0 0 0 0 0 0 0 0 0 0 0 0 0 0 0 0 0 0 0 0 0 0 0 0 0 0 0 0 0 0 0 0 0 0 0 0 0 0 0 0 0 0 0 0 0 0 0 0 0 0 0 0 0 0 0 0 0 0 0 0 0 0 0 0 0 0 0 0 0 0 0 0 0 0 0 0 0 0 0 0 0 0 0 0 0 0 0 0 0 0 0 0 0 0 0 0 0 0 0 0 0 0 0 0 0 0 0 0 0 0 0 0 0 0 0 0 0 0 0 0 0 0 0 0 0 0 0 0 0 0 0 0 0 0 0 0 0 0 0 0 0 0 0 0 0 0 0 0 0 0 0 0 0 0 0 0 0 0 0 0 0 0 0 0 0 0 0 0 0 0 0 0 0 0 0 0 0 0 0 0 0 0 0 0 0 0 0 0 0 0 0 0 0 0 0 0 0 0 0 0 0 0 0 0 0 0 0 0 0 0 0 0 0 0 0 0 0 0 0 0 0 0 0 0 0 0 0 0 0 0 0 0 0 0 0 0 0 0 0 0 0 0 0 0 0 0 0 0 0 0 0 0 0 0 0 0 0 0 0 0 0 0 0 0 0 0 0 0 0 0 0 0 0 0 0 0 0 0 0 0 0 0 0 0 0 0 0 0 0 0 0 0 0 0 0 0 0 0 0 0 0 0 0 0 0 0 0 0 0 0 0 0 0 0 0 0 0 0 0 0 0 0 0 0 0 0 0 0 0 0 0 0 0 0 0 0 0 0 0 0 0 0 0 0 0 0 0 0 0 0 0 0 0 0 0 0 0 0 0 0 0 0 0 0 0 0 0 0 0 0 0 0 0 0 0 0 0 0 0 0 0 0 0 0 0 0 0 0 0 0 0 0 0 0 0 0 0 0 0 0 0 0 0 0 0 0 0 0 0 0 0 0 0 0 0 0 0 0 0 0 0 0 0 0 0 0 0 0 0 0 0 0 0 0 0 0 0 0 0 0 0 0 0 0 0 0 0 0 0 0 0 0 0 0 0 0 0 0 0 0 0 0 0 0 0 0 0 0 0 0 0 0 0 0 0 0 0 0 0 0 0 0 0 0 0 0 0 0 0 0 0 0 0 0 0 0 0 0 0 0 0 0 0 0 0 0 0 0 0 0 0 0 0 0 0 0 0 0 0 0 0 0 0 0 0 0 0 0 0 0 0 0 0 0 0 0 0 0 0 0 0 0 0 0 0 0 0 0 0 0 0 0 0 0 0 0 0 0 0 0 0 0 0 0 0 0 0 0 0 0 0 0 0 0 0 0 0 0 0 0 0 0 0 0 0 0 0 0 0 0 0 0 0 0 0 0 0 0 0 0 0 0 0 0 0 0 0 0 0 0 0 0 0 0 0 0 0 0 0 0 0 0 0 0 0 0 0 0 0 0 0 0 0 0 0 0 0 0 0 0 0 0 0 0 0 0 0 0 0 0 0 0 0 0 0 0 0 0 0 0 0 0 0 0 0 0 0 0 0 0 0 0 0 0 0 0 0 0 0 0 0 0 0 0 0 0 0 0 0 0 0 0 0 0 0 0 0 0 0 0 0 0 0 0 0 0 0 0 0 0 0 0 0 0 0 0 0 0 0 0 0 0 0 0 0 0 0 0 0 0 0 0 0 0 0 0 0 0 0 0 0 0 0 0 0 0 0 0 0 0 0 0 0 0 0 0 0 0 0 0 0 0 0 0 0 0 0 0 0 0 0 0 0 0 0 0 0 0 0 0 0 0 0 0 0 0 0 0 0 0 0 0 0 0 0 0 0 0 0 0 0 0 0 0 0 0 0 0 0 0 0 0 0 0 0 0 0 0 0 0 0 0 0 0 0 0 0 0 0 0 0 0 0 0 0 0 0 0 0 0 0 0 0 0 0 0 0 0 0 0 0 0 0 0 0 0 0 0 0 0 0 0 0 0 0 0 0 0 0 0 0 0 0 0 0 0 0 0 0 0 0 0 0 </DataArray>
        <DataArray type="Int64" IdType="1" Name="vtkOriginalCellIds" format="ascii" RangeMin="0" RangeMax="3466">0 1 2 3 4 5 6 7 8 9 10 11 12 13 14 15 16 17 18 19 20 21 22 23 24 25 26 27 28 29 30 31 32 33 34 35 36 37 38 39 40 41 42 43 44 45 46 47 48 49 50 51 52 53 54 55 56 57 58 59 60 61 62 63 64 65 66 67 68 69 70 71 72 73 74 75 76 77 78 79 80 81 82 83 84 85 86 87 88 89 90 91 92 93 94 95 96 97 98 99 100 101 102 103 104 105 106 107 108 109 110 111 112 113 114 115 116 117 118 119 120 121 122 123 124 125 126 127 128 129 130 131 132 133 134 135 136 137 138 139 140 141 142 143 144 145 146 147 148 149 150 151 152 153 154 155 156 157 158 159 160 161 162 163 164 165 166 167 168 169 170 171 172 173 174 175 176 177 178 179 180 181 182 183 184 185 186 187 188 189 190 191 192 193 194 195 196 197 198 199 200 201 202 203 204 205 206 207 208 209 210 211 212 213 214 215 216 217 218 219 220 221 222 223 224 225 226 227 228 229 230 231 232 233 234 235 236 237 238 239 240 241 242 243 244 245 246 247 248 249 250 251 252 253 254 255 256 257 258 259 260 261 262 263 264 265 266 267 268 269 270 271 272 273 274 275 276 277 278 279 280 281 282 283 284 285 286 287 288 289 290 291 292 293 294 295 296 297 298 299 300 301 302 303 304 305 306 307 308 309 310 311 312 313 314 315 316 317 318 319 320 321 322 323 324 325 326 327 328 329 330 331 332 333 334 335 336 337 338 339 340 341 342 343 344 345 346 347 348 349 350 351 352 353 354 355 356 357 358 359 360 361 362 363 364 365 366 367 368 369 370 371 372 373 374 375 376 377 378 379 380 381 382 383 384 385 386 387 388 389 390 391 392 393 394 395 396 397 398 399 400 401 402 403 404 405 406 407 408 409 410 411 412 413 414 415 416 417 418 419 420 421 422 423 424 425 426 427 428 429 430 431 432 433 434 435 436 437 438 439 440 441 442 443 444 445 446 447 448 449 450 451 452 453 454 455 456 457 458 459 460 461 462 463 464 465 466 467 468 469 470 471 472 473 474 475 476 477 478 479 480 481 482 483 484 485 486 487 488 489 490 491 492 493 494 495 496 497 498 499 500 501 502 503 504 505 506 507 508 509 510 511 512 513 514 515 516 517 518 519 520 521 522 523 524 525 526 527 528 529 530 531 532 533 534 535 536 537 538 539 540 541 542 543 544 545 546 547 548 549 550 551 552 553 554 555 556 557 558 559 560 561 562 563 564 565 566 567 568 569 570 571 572 573 574 575 576 577 578 579 580 581 582 583 584 585 586 587 588 589 590 591 592 593 594 595 596 597 598 599 600 601 602 603 604 605 606 607 608 609 610 611 612 613 614 615 616 617 618 619 620 621 622 623 624 625 626 627 628 629 630 631 632 633 634 635 636 637 638 639 640 641 642 643 644 645 646 647 648 649 650 651 652 653 654 655 656 657 658 659 660 661 662 663 664 665 666 667 668 669 670 671 672 673 674 675 676 677 678 679 680 681 682 683 684 685 686 687 688 689 690 691 692 693 694 695 696 697 698 699 700 701 702 703 704 705 706 707 708 709 710 711 712 713 714 715 716 717 718 719 720 721 722 723 724 725 726 727 728 729 730 731 732 733 734 735 736 737 738 739 740 741 742 743 744 745 746 747 748 749 750 751 752 753 754 755 756 757 758 759 760 761 762 763 764 765 766 767 768 769 770 771 772 773 774 775 776 777 778 779 780 781 782 783 784 785 786 787 788 789 790 791 792 793 794 795 796 797 798 799 800 801 802 803 804 805 806 807 808 809 810 811 812 813 814 815 816 817 818 819 820 821 822 823 824 825 826 827 828 829 830 831 832 833 834 835 836 837 838 839 840 841 842 843 844 845 846 847 848 849 850 851 852 853 854 855 856 857 858 859 860 861 862 863 864 865 866 867 868 869 870 871 872 873 874 875 876 877 878 879 880 881 882 883 884 885 886 887 888 889 890 891 892 893 894 895 896 897 898 899 900 901 902 903 904 905 906 907 908 909 910 911 912 913 914 915 916 917 918 919 920 921 922 923 924 925 926 927 928 929 930 931 932 933 934 935 936 937 938 939 940 941 942 943 944 945 946 947 948 949 950 951 952 953 954 955 956 957 958 959 960 961 962 963 964 965 966 967 968 969 970 971 972 973 974 975 976 977 978 979 980 981 982 983 984 985 986 987 988 989 990 991 992 993 994 995 996 997 998 999 1000 1001 1002 1003 1004 1005 1006 1007 1008 1009 1010 1011 1012 1013 1014 1015 1016 1017 1018 1019 1020 1021 1022 1023 1024 1025 1026 1027 1028 1029 1030 1031 1032 1033 1034 1035 1036 1037 1038 1039 1040 1041 1042 1043 1044 1045 1046 1047 1048 1049 1050 1051 1052 1053 1054 1055 1056 1057 1058 1059 1060 1061 1062 1063 1064 1065 1066 1067 1068 1069 1070 1071 1072 1073 1074 1075 1076 1077 1078 1079 1080 1081 1082 1083 1084 1085 1086 1087 1088 1089 1090 1091 1092 1093 1094 1095 1096 1097 1098 1099 1100 1101 1102 1103 1104 1105 1106 1107 1108 1109 1110 1111 1112 1113 1114 1115 1116 1117 1118 1119 1120 1121 1122 1123 1124 1125 1126 1127 1128 1129 1130 1131 1132 1133 1134 1135 1136 1137 1138 1139 1140 1141 1142 1143 1144 1145 1146 1147 1148 1149 1150 1151 1152 1153 1154 1155 1156 1157 1158 1159 1160 1161 1162 1163 1164 1165 1166 1167 1168 1169 1170 1171 1172 1173 1174 1175 1176 1177 1178 1179 1180 1181 1182 1183 1184 1185 1186 1187 1188 1189 1190 1191 1192 1193 1194 1195 1196 1197 1198 1199 1200 1201 1202 1203 1204 1205 1206 1207 1208 1209 1210 1211 1212 1213 1214 1215 1216 1217 1218 1219 1220 1221 1222 1223 1224 1225 1226 1227 1228 1229 1230 1231 1232 1233 1234 1235 1236 1237 1238 1239 1240 1241 1242 1243 1244 1245 1246 1247 1248 1249 1250 1251 1252 1253 1254 1255 1256 1257 1258 1259 1260 1261 1262 1263 1264 1265 1266 1267 1268 1269 1270 1271 1272 1273 1274 1275 1276 1277 1278 1279 1280 1281 1282 1283 1284 1285 1286 1287 1288 1289 1290 1291 1292 1293 1294 1295 1296 1297 1298 1299 1300 1301 1302 1303 1304 1305 1306 1307 1308 1309 1310 1311 1312 1313 1314 1315 1316 1317 1318 1319 1320 1321 1322 1323 1324 1325 1326 1327 1328 1329 1330 1331 1332 1333 1334 1335 1336 1337 1338 1339 1340 1341 1342 1343 1344 1345 1346 1347 1348 1349 1350 1351 1352 1353 1354 1355 1356 1357 1358 1359 1360 1361 1362 1363 1364 1365 1366 1367 1368 1369 1370 1371 1372 1373 1374 1375 1376 1377 1378 1379 1380 1381 1382 1383 1384 1385 1386 1387 1388 1389 1390 1391 1392 1393 1394 1395 1396 1397 1398 1399 1400 1401 1402 1403 1404 1405 1406 1407 1408 1409 1410 1411 1412 1413 1414 1415 1416 1417 1418 1419 1420 1421 1422 1423 1424 1425 1426 1427 1428 1429 1430 1431 1432 1433 1434 1435 1436 1437 1438 1439 1440 1441 1442 1443 1444 1445 1446 1447 1448 1449 1450 1451 1452 1453 1454 1455 1456 1457 1458 1459 1460 1461 1462 1463 1464 1465 1466 1467 1468 1469 1470 1471 1472 1473 1474 1475 1476 1477 1478 1479 1480 1481 1482 1483 1484 1485 1486 1487 1488 1489 1490 1491 1492 1493 1494 1495 1496 1497 1498 1499 1500 1501 1502 1503 1504 1505 1506 1507 1508 1509 1510 1511 1512 1513 1514 1515 1516 1517 1518 1519 1520 1521 1522 1523 1524 1525 1526 1527 1528 1529 1530 1531 1532 1533 1534 1535 1536 1537 1538 1539 1540 1541 1542 1543 1544 1545 1546 1547 1548 1549 1550 1551 1552 1553 1554 1555 1556 1557 1558 1559 1560 1561 1562 1563 1564 1565 1566 1567 1568 1569 1570 1571 1572 1573 1574 1575 1576 1577 1578 1579 1580 1581 1582 1583 1584 1585 1586 1587 1588 1589 1590 1591 1592 1593 1594 1595 1596 1597 1598 1599 1600 1601 1602 1603 1604 1605 1606 1607 1608 1609 1610 1611 1612 1613 1614 1615 1616 1617 1618 1619 1620 1621 1622 1623 1624 1625 1626 1627 1628 1629 1630 1631 1632 1633 1634 1635 1636 1637 1638 1639 1640 1641 1642 1643 1644 1645 1646 1647 1648 1649 1650 1651 1652 1653 1654 1655 1656 1657 1658 1659 1660 1661 1662 1663 1664 1665 1666 1667 1668 1669 1670 1671 1672 1673 1674 1675 1676 1677 1678 1679 1680 1681 1682 1683 1684 1685 1686 1687 1688 1689 1690 1691 1692 1693 1694 1695 1696 1697 1698 1699 1700 1701 1702 1703 1704 1705 1706 1707 1708 1709 1710 1711 1712 1713 1714 1715 1716 1717 1718 1719 1720 1721 1722 1723 1724 1725 1726 1727 1728 1729 1730 1731 1732 1733 1734 1735 1736 1737 1738 1739 1740 1741 1742 1743 1744 1745 1746 1747 1748 1749 1750 1751 1752 1753 1754 1755 1756 1757 1758 1759 1760 1761 1762 1763 1764 1765 1766 1767 1768 1769 1770 1771 1772 1773 1774 1775 1776 1777 1778 1779 1780 1781 1782 1783 1784 1785 1786 1787 1788 1789 1790 1791 1792 1793 1794 1795 1796 1797 1798 1799 1800 1801 1802 1803 1804 1805 1806 1807 1808 1809 1810 1811 1812 1813 1814 1815 1816 1817 1818 1819 1820 1821 1822 1823 1824 1825 1826 1827 1828 1829 1830 1831 1832 1833 1834 1835 1836 1837 1838 1839 1840 1841 1842 1843 1844 1845 1846 1847 1848 1849 1850 1851 1852 1853 1854 1855 1856 1857 1858 1859 1860 1861 1862 1863 1864 1865 1866 1867 1868 1869 1870 1871 1872 1873 1874 1875 1876 1877 1878 1879 1880 1881 1882 1883 1884 1885 1886 1887 1888 1889 1890 1891 1892 1893 1894 1895 1896 1897 1898 1899 1900 1901 1902 1903 1904 1905 1906 1907 1908 1909 1910 1911 1912 1913 1914 1915 1916 1917 1918 1919 1920 1921 1922 1923 1924 1925 1926 1927 1928 1929 1930 1931 1932 1933 1934 1935 1936 1937 1938 1939 1940 1941 1942 1943 1944 1945 1946 1947 1948 1949 1950 1951 1952 1953 1954 1955 1956 1957 1958 1959 1960 1961 1962 1963 1964 1965 1966 1967 1968 1969 1970 1971 1972 1973 1974 1975 1976 1977 1978 1979 1980 1981 1982 1983 1984 1985 1986 1987 1988 1989 1990 1991 1992 1993 1994 1995 1996 1997 1998 1999 2000 2001 2002 2003 2004 2005 2006 2007 2008 2009 2010 2011 2012 2013 2014 2015 2016 2017 2018 2019 2020 2021 2022 2023 2024 2025 2026 2027 2028 2029 2030 2031 2032 2033 2034 2035 2036 2037 2038 2039 2040 2041 2042 2043 2044 2045 2046 2047 2048 2049 2050 2051 2052 2053 2054 2055 2056 2057 2058 2059 2060 2061 2062 2063 2064 2065 2066 2067 2068 2069 2070 2071 2072 2073 2074 2075 2076 2077 2078 2079 2080 2081 2082 2083 2084 2085 2086 2087 2088 2089 2090 2091 2092 2093 2094 2095 2096 2097 2098 2099 2100 2101 2102 2103 2104 2105 2106 2107 2108 2109 2110 2111 2112 2113 2114 2115 2116 2117 2118 2119 2120 2121 2122 2123 2124 2125 2126 2127 2128 2129 2130 2131 2132 2133 2134 2135 2136 2137 2138 2139 2140 2141 2142 2143 2144 2145 2146 2147 2148 2149 2150 2151 2152 2153 2154 2155 2156 2157 2158 2159 2160 2161 2162 2163 2164 2165 2166 2167 2168 2169 2170 2171 2172 2173 2174 2175 2176 2177 2178 2179 2180 2181 2182 2183 2184 2185 2186 2187 2188 2189 2190 2191 2192 2193 2194 2195 2196 2197 2198 2199 2200 2201 2202 2203 2204 2205 2206 2207 2208 2209 2210 2211 2212 2213 2214 2215 2216 2217 2218 2219 2220 2221 2222 2223 2224 2225 2226 2227 2228 2229 2230 2231 2232 2233 2234 2235 2236 2237 2238 2239 2240 2241 2242 2243 2244 2245 2246 2247 2248 2249 2250 2251 2252 2253 2254 2255 2256 2257 2258 2259 2260 2261 2262 2263 2264 2265 2266 2267 2268 2269 2270 2271 2272 2273 2274 2275 2276 2277 2278 2279 2280 2281 2282 2283 2284 2285 2286 2287 2288 2289 2290 2291 2292 2293 2294 2295 2296 2297 2298 2299 2300 2301 2302 2303 2304 2305 2306 2307 2308 2309 2310 2311 2312 2313 2314 2315 2316 2317 2318 2319 2320 2321 2322 2323 2324 2325 2326 2327 2328 2329 2330 2331 2332 2333 2334 2335 2336 2337 2338 2339 2340 2341 2342 2343 2344 2345 2346 2347 2348 2349 2350 2351 2352 2353 2354 2355 2356 2357 2358 2359 2360 2361 2362 2363 2364 2365 2366 2367 2368 2369 2370 2371 2372 2373 2374 2375 2376 2377 2378 2379 2380 2381 2382 2383 2384 2385 2386 2387 2388 2389 2390 2391 2392 2393 2394 2395 2396 2397 2398 2399 2400 2401 2402 2403 2404 2405 2406 2407 2408 2409 2410 2411 2412 2413 2414 2415 2416 2417 2418 2419 2420 2421 2422 2423 2424 2425 2426 2427 2428 2429 2430 2431 2432 2433 2434 2435 2436 2437 2438 2439 2440 2441 2442 2443 2444 2445 2446 2447 2448 2449 2450 2451 2452 2453 2454 2455 2456 2457 2458 2459 2460 2461 2462 2463 2464 2465 2466 2467 2468 2469 2470 2471 2472 2473 2474 2475 2476 2477 2478 2479 2480 2481 2482 2483 2484 2485 2486 2487 2488 2489 2490 2491 2492 2493 2494 2495 2496 2497 2498 2499 2500 2501 2502 2503 2504 2505 2506 2507 2508 2509 2510 2511 2512 2513 2514 2515 2516 2517 2518 2519 2520 2521 2522 2523 2524 2525 2526 2527 2528 2529 2530 2531 2532 2533 2534 2535 2536 2537 2538 2539 2540 2541 2542 2543 2544 2545 2546 2547 2548 2549 2550 2551 2552 2553 2554 2555 2556 2557 2558 2559 2560 2561 2562 2563 2564 2565 2566 2567 2568 2569 2570 2571 2572 2573 2574 2575 2576 2577 2578 2579 2580 2581 2582 2583 2584 2585 2586 2587 2588 2589 2590 2591 2592 2593 2594 2595 2596 2597 2598 2599 2600 2601 2602 2603 2604 2605 2606 2607 2608 2609 2610 2611 2612 2613 2614 2615 2616 2617 2618 2619 2620 2621 2622 2623 2624 2625 2626 2627 2628 2629 2630 2631 2632 2633 2634 2635 2636 2637 2638 2639 2640 2641 2642 2643 2644 2645 2646 2647 2648 2649 2650 2651 2652 2653 2654 2655 2656 2657 2658 2659 2660 2661 2662 2663 2664 2665 2666 2667 2668 2669 2670 2671 2672 2673 2674 2675 2676 2677 2678 2679 2680 2681 2682 2683 2684 2685 2686 2687 2688 2689 2690 2691 2692 2693 2694 2695 2696 2697 2698 2699 2700 2701 2702 2703 2704 2705 2706 2707 2708 2709 2710 2711 2712 2713 2714 2715 2716 2717 2718 2719 2720 2721 2722 2723 2724 2725 2726 2727 2728 2729 2730 2731 2732 2733 2734 2735 2736 2737 2738 2739 2740 2741 2742 2743 2744 2745 2746 2747 2748 2749 2750 2751 2752 2753 2754 2755 2756 2757 2758 2759 2760 2761 2762 2763 2764 2765 2766 2767 2768 2769 2770 2771 2772 2773 2774 2775 2776 2777 2778 2779 2780 2781 2782 2783 2784 2785 2786 2787 2788 2789 2790 2791 2792 2793 2794 2795 2796 2797 2798 2799 2800 2801 2802 2803 2804 2805 2806 2807 2808 2809 2810 2811 2812 2813 2814 2815 2816 2817 2818 2819 2820 2821 2822 2823 2824 2825 2826 2827 2828 2829 2830 2831 2832 2833 2834 2835 2836 2837 2838 2839 2840 2841 2842 2843 2844 2845 2846 2847 2848 2849 2850 2851 2852 2853 2854 2855 2856 2857 2858 2859 2860 2861 2862 2863 2864 2865 2866 2867 2868 2869 2870 2871 2872 2873 2874 2875 2876 2877 2878 2879 2880 2881 2882 2883 2884 2885 2886 2887 2888 2889 2890 2891 2892 2893 2894 2895 2896 2897 2898 2899 2900 2901 2902 2903 2904 2905 2906 2907 2908 2909 2910 2911 2912 2913 2914 2915 2916 2917 2918 2919 2920 2921 2922 2923 2924 2925 2926 2927 2928 2929 2930 2931 2932 2933 2934 2935 2936 2937 2938 2939 2940 2941 2942 2943 2944 2945 2946 2947 2948 2949 2950 2951 2952 2953 2954 2955 2956 2957 2958 2959 2960 2961 2962 2963 2964 2965 2966 2967 2968 2969 2970 2971 2972 2973 2974 2975 2976 2977 2978 2979 2980 2981 2982 2983 2984 2985 2986 2987 2988 2989 2990 2991 2992 2993 2994 2995 2996 2997 2998 2999 3000 3001 3002 3003 3004 3005 3006 3007 3008 3009 3010 3011 3012 3013 3014 3015 3016 3017 3018 3019 3020 3021 3022 3023 3024 3025 3026 3027 3028 3029 3030 3031 3032 3033 3034 3035 3036 3037 3038 3039 3040 3041 3042 3043 3044 3045 3046 3047 3048 3049 3050 3051 3052 3053 3054 3055 3056 3057 3058 3059 3060 3061 3062 3063 3064 3065 3066 3067 3068 3069 3070 3071 3072 3073 3074 3075 3076 3077 3078 3079 3080 3081 3082 3083 3084 3085 3086 3087 3088 3089 3090 3091 3092 3093 3094 3095 3096 3097 3098 3099 3100 3101 3102 3103 3104 3105 3106 3107 3108 3109 3110 3111 3112 3113 3114 3115 3116 3117 3118 3119 3120 3121 3122 3123 3124 3125 3126 3127 3128 3129 3130 3131 3132 3133 3134 3135 3136 3137 3138 3139 3140 3141 3142 3143 3144 3145 3146 3147 3148 3149 3150 3151 3152 3153 3154 3155 3156 3157 3158 3159 3160 3161 3162 3163 3164 3165 3166 3167 3168 3169 3170 3171 3172 3173 3174 3175 3176 3177 3178 3179 3180 3181 3182 3183 3184 3185 3186 3187 3188 3189 3190 3191 3192 3193 3194 3195 3196 3197 3198 3199 3200 3201 3202 3203 3204 3205 3206 3207 3208 3209 3210 3211 3212 3213 3214 3215 3216 3217 3218 3219 3220 3221 3222 3223 3224 3225 3226 3227 3228 3229 3230 3231 3232 3233 3234 3235 3236 3237 3238 3239 3240 3241 3242 3243 3244 3245 3246 3247 3248 3249 3250 3251 3252 3253 3254 3255 3256 3257 3258 3259 3260 3261 3262 3263 3264 3265 3266 3267 3268 3269 3270 3271 3272 3273 3274 3275 3276 3277 3278 3279 3280 3281 3282 3283 3284 3285 3286 3287 3288 3289 3290 3291 3292 3293 3294 3295 3296 3297 3298 3299 3300 3301 3302 3303 3304 3305 3306 3307 3308 3309 3310 3311 3312 3313 3314 3315 3316 3317 3318 3319 3320 3321 3322 3323 3324 3325 3326 3327 3328 3329 3330 3331 3332 3333 3334 3335 3336 3337 3338 3339 3340 3341 3342 3343 3344 3345 3346 3347 3348 3349 3350 3351 3352 3353 3354 3355 3356 3357 3358 3359 3360 3361 3362 3363 3364 3365 3366 3367 3368 3369 3370 3371 3372 3373 3374 3375 3376 3377 3378 3379 3380 3381 3382 3383 3384 3385 3386 3387 3388 3389 3390 3391 3392 3393 3394 3395 3396 3397 3398 3399 3400 3401 3402 3403 3404 3405 3406 3407 3408 3409 3410 3411 3412 3413 3414 3415 3416 3417 3418 3419 3420 3421 3422 3423 3424 3425 3426 3427 3428 3429 3430 3431 3432 3433 3434 3435 3436 3437 3438 3439 3440 3441 3442 3443 3444 3445 3446 3447 3448 3449 3450 3451 3452 3453 3454 3455 3456 3457 3458 3459 3460 3461 3462 3463 3464 3465 3466 </DataArray>
        <DataArray type="Float64" Name="stress" format="ascii" NumberOfComponents="9">-4195826.886428569 5171137.853785304 5171137.853785304 -100954928.4905691 0 0 0 0 0 -2783748.900826476 -2710352.462895608 -2710352.462895608 -74736992.33249789 0 0 0 0 0 618892.586108219 3844700.174626889 3844700.174626889 -70001504.33496752 0 0 0 0 0 -4890953.51003415 4101833.816700735 4101833.816700735 -67969815.56812143 0 0 0 0 0 -3042917.339219579 7970658.82990111 7970658.82990111 -92186453.886694 0 0 0 0 0 -2256413.168221303 -2556325.039913271 -2556325.039913271 -68473419.9465286 0 0 0 0 0 -2832470.793538356 -2994519.044532256 -2994519.044532256 -56213631.45278766 0 0 0 0 0 -1153195.350179957 5056232.064399105 5056232.064399105 -63333670.24635272 0 0 0 0 0 -3646007.519339805 1338776.488256095 1338776.488256095 -55867206.83430423 0 0 0 0 0 -3173890.213793253 1851444.731358903 1851444.731358903 -48118399.53875337 0 0 0 0 0 -1231750.478256945 -3460264.016487121 -3460264.016487121 -39388721.12905488 0 0 0 0 0 -4130293.901966679 10827676.75974489 10827676.75974489 -84754693.49603097 0 0 0 0 0 -1362739.071434936 1965191.659687001 1965191.659687001 -65258570.03025827 0 0 0 0 0 -591628.3693428452 -4771599.250531001 -4771599.250531001 -50357968.24939357 0 0 0 0 0 -2257106.298449972 -5996065.877161497 -5996065.877161497 -45133309.43652734 0 0 0 0 0 858060.0294911664 281918.8313531352 281918.8313531352 -33203292.54353888 0 0 0 0 0 2488908.407281063 -3361025.128624475 -3361025.128624475 -27073489.03962234 0 0 0 0 0 -1124430.14062217 6898119.334521719 6898119.334521719 -53851866.74391945 0 0 0 0 0 -861377.9425558505 -1998037.219346162 -1998037.219346162 -46116302.70624415 0 0 0 0 0 -1048297.686676588 -2563785.120386906 -2563785.120386906 -44902240.29566286 0 0 0 0 0 240566.9064535503 -2515728.09759231 -2515728.09759231 -38628703.7492497 0 0 0 0 0 783465.6259930846 -7209296.708625712 -7209296.708625712 -30960711.70550633 0 0 0 0 0 5135241.812507221 -875992.1915389772 -875992.1915389772 -22809668.82254426 0 0 0 0 0 -3236491.544135279 11821030.76566819 11821030.76566819 -71265438.03402416 0 0 0 0 0 1204539.928885567 -318463.9477552414 -318463.9477552414 -57801677.65180012 0 0 0 0 0 4073369.002666577 -9124969.389356382 -9124969.389356382 -44717241.24640756 0 0 0 0 0 3069513.343230378 -9861517.99252912 -9861517.99252912 -37049083.95958893 0 0 0 0 0 6361963.489901832 -4982550.934413568 -4982550.934413568 -27664823.8344897 0 0 0 0 0 7639082.69198586 -3321121.211717497 -3321121.211717497 -19002546.76499458 0 0 0 0 0 5365021.479926276 -7368256.23084095 -7368256.23084095 -22559509.75564132 0 0 0 0 0 -1484084.523667664 6666372.984733026 6666372.984733026 -43669968.45539679 0 0 0 0 0 2412640.514424306 -5150893.058774666 -5150893.058774666 -39652890.76649311 0 0 0 0 0 3659067.671652596 -7819629.88993975 -7819629.88993975 -36455580.56869618 0 0 0 0 0 2913728.166531768 -8030880.08655914 -8030880.08655914 -30429251.03417452 0 0 0 0 0 3661650.807815747 -8870125.548452193 -8870125.548452193 -23008682.66174373 0 0 0 0 0 10633596.00012231 -1255496.072905476 -1255496.072905476 -15428776.94311119 0 0 0 0 0 7943164.296687355 -5360292.391374193 -5360292.391374193 -18886069.81746511 0 0 0 0 0 -2057632.157379749 10572429.68672878 10572429.68672878 -54548138.66819987 0 0 0 0 0 5551001.804703767 -3026660.883628583 -3026660.883628583 -49888157.75487138 0 0 0 0 0 6018718.577847089 -6640199.160885123 -6640199.160885123 -41980157.53509057 0 0 0 0 0 9057305.19313084 -14970489.38852393 -14970489.38852393 -31388002.50268949 0 0 0 0 0 9576181.241417404 -14779569.48475045 -14779569.48475045 -34069630.30307102 0 0 0 0 0 9746447.261412418 -12605586.66640709 -12605586.66640709 -26798351.39516472 0 0 0 0 0 10899258.91022343 -10738550.87753594 -10738550.87753594 -20868952.59350097 0 0 0 0 0 12711198.74050026 -3103369.275157725 -3103369.275157725 -12407101.90602871 0 0 0 0 0 11226255.81634211 -7849840.404487812 -7849840.404487812 -15997934.07364568 0 0 0 0 0 598879.4337571026 2510787.557072105 2510787.557072105 -29471849.77522498 0 0 0 0 0 3992268.986694159 -4476981.82185423 -4476981.82185423 -37776658.27211469 0 0 0 0 0 11811990.2955135 -14443146.14825404 -14443146.14825404 -33192682.07336012 0 0 0 0 0 10260955.70921461 -13449703.35201238 -13449703.35201238 -26627755.13041005 0 0 0 0 0 11144859.08161804 -13517328.62713635 -13517328.62713635 -30608694.1505665 0 0 0 0 0 9069098.20362097 -12084842.68451634 -12084842.68451634 -22288662.79743278 0 0 0 0 0 10785606.75068576 -10199246.27557978 -10199246.27557978 -17333421.93321441 0 0 0 0 0 17055416.39103749 -1544392.672640188 -1544392.672640188 -9967408.102256544 0 0 0 0 0 12107147.64310132 -6739284.437890517 -6739284.437890517 -13160546.00245579 0 0 0 0 0 17876135.21676229 -2412779.884639749 -2412779.884639749 -7947386.359987228 0 0 0 0 0 914715.1716621571 7843920.497810134 7843920.497810134 -37660681.7812503 0 0 0 0 0 6098417.968939341 -1767726.610974519 -1767726.610974519 -38084595.71273801 0 0 0 0 0 12763988.49566112 -11576575.90711151 -11576575.90711151 -29693957.87989358 0 0 0 0 0 14088801.43960606 -13482910.7615853 -13482910.7615853 -31969084.29340968 0 0 0 0 0 15356905.03727074 -18149198.36653159 -18149198.36653159 -22827693.76354391 0 0 0 0 0 16343141.4772283 -19900862.11326988 -19900862.11326988 -25805017.02680893 0 0 0 0 0 18158883.28915142 -20580669.72003047 -20580669.72003047 -27059053.26987011 0 0 0 0 0 15402113.37453508 -15619316.50058684 -15619316.50058684 -18716089.78102237 0 0 0 0 0 16373737.67301312 -12660985.28779864 -12660985.28779864 -14668543.29556806 0 0 0 0 0 14348034.2037115 -5063479.839460475 -5063479.839460475 -9190825.497180415 0 0 0 0 0 18971766.40208453 -8217060.441243385 -8217060.441243385 -10673788.77292905 0 0 0 0 0 19421470.62546735 -1559162.945498902 -1559162.945498902 -6369835.717365385 0 0 0 0 0 1654636.593844362 447320.7105815914 447320.7105815914 -17282602.06457018 0 0 0 0 0 14218617.34995386 -10991698.69146601 -10991698.69146601 -21288046.69062086 0 0 0 0 0 14136307.69254968 -11732660.95693199 -11732660.95693199 -31845609.14019983 0 0 0 0 0 21087507.1467252 -20323427.12849081 -20323427.12849081 -26019353.56453972 0 0 0 0 0 17140658.2006747 -16944643.37679237 -16944643.37679237 -19926212.36555268 0 0 0 0 0 18887733.46875796 -18511577.37363608 -18511577.37363608 -23215204.33120121 0 0 0 0 0 21541313.79297155 -19203937.01449984 -19203937.01449984 -25793312.52707222 0 0 0 0 0 16360793.04308331 -14757517.48438106 -14757517.48438106 -16058298.39058856 0 0 0 0 0 16778445.9279926 -12005794.41559711 -12005794.41559711 -12336389.77532662 0 0 0 0 0 22605718.95257752 -5437686.248117911 -5437686.248117911 -6699998.052830785 0 0 0 0 0 17324537.69735799 -8821162.749693474 -8821162.749693474 -9178349.26518991 0 0 0 0 0 23059084.3617645 -2697892.862387304 -2697892.862387304 -4582122.717097474 0 0 0 0 0 6713851.616982573 -18788.65125541711 -18788.65125541711 -16504580.26542451 0 0 0 0 0 16866523.47708349 -8266479.328577382 -8266479.328577382 -24350211.67310913 0 0 0 0 0 18168241.88090069 -12904667.42316622 -12904667.42316622 -27214049.52356807 0 0 0 0 0 23802181.18083405 -20107310.60900046 -20107310.60900046 -22074514.32517143 0 0 0 0 0 24424167.92806765 -19350606.53773669 -19350606.53773669 -26533670.56346181 0 0 0 0 0 21195778.45527376 -20388295.84063448 -20388295.84063448 -16998132.27640421 0 0 0 0 0 22405038.00106629 -22853327.99237165 -22853327.99237165 -19937004.76170369 0 0 0 0 0 24603253.19371861 -24655265.32519913 -24655265.32519913 -22024219.83580799 0 0 0 0 0 27834848.40183717 -25541239.14560254 -25541239.14560254 -22286757.44619646 0 0 0 0 0 21162538.22345972 -17250771.38892662 -17250771.38892662 -13501387.51065043 0 0 0 0 0 22103340.44649972 -13697747.5762797 -13697747.5762797 -10075510.35052494 0 0 0 0 0 20237603.97883908 -6993756.662124282 -6993756.662124282 -6126821.679608276 0 0 0 0 0 24696189.33217269 -9829304.369079292 -9829304.369079292 -6775164.72031276 0 0 0 0 0 26275549.27933349 -1740269.6024503 -1740269.6024503 -3113400.238874999 0 0 0 0 0 27871735.57152345 -2359101.161727423 -2359101.161727423 -2140359.857646061 0 0 0 0 0 8332228.172915049 -7547626.889136606 -7547626.889136606 -2810024.168743714 0 0 0 0 0 16057110.52320863 -12594656.86146896 -12594656.86146896 -16558868.94207718 0 0 0 0 0 29450376.12637062 -21030108.98076871 -21030108.98076871 -15574513.13920032 0 0 0 0 0 28560085.66521063 -19719692.72483921 -19719692.72483921 -25249112.51025445 0 0 0 0 0 31527751.18843601 -26326170.2244188 -26326170.2244188 -21002673.69644401 0 0 0 0 0 23723980.78180355 -19128028.80585175 -19128028.80585175 -14990158.24565744 0 0 0 0 0 25810203.94729788 -21343197.44569515 -21343197.44569515 -18116939.58320441 0 0 0 0 0 28883383.03886809 -22970733.83802405 -22970733.83802405 -20725334.45010368 0 0 0 0 0 32688821.98627521 -23980346.4893051 -23980346.4893051 -22435911.01619102 0 0 0 0 0 22653958.19966927 -16390241.8994535 -16390241.8994535 -11765399.68256306 0 0 0 0 0 22564359.29924924 -13291908.81701332 -13291908.81701332 -8853745.823073173 0 0 0 0 0 26867154.83029243 -6574714.192523011 -6574714.192523011 -4183037.6386727 0 0 0 0 0 23565980.28167098 -10215378.52164766 -10215378.52164766 -6248703.653085565 0 0 0 0 0 25873704.82642391 -6718295.529020535 -6718295.529020535 -3431880.286307331 0 0 0 0 0 30854506.90481786 -1692387.430245998 -1692387.430245998 -1138762.471081175 0 0 0 0 0 17679182.22806844 -10385691.49909868 -10385691.49909868 1564473.425403355 0 0 0 0 0 27314310.63727023 -16153846.3538871 -16153846.3538871 -11838584.3208367 0 0 0 0 0 33163829.79615065 -20341571.91266188 -20341571.91266188 -20118322.310379 0 0 0 0 0 36997348.20258133 -26800448.67789028 -26800448.67789028 -17008210.50478213 0 0 0 0 0 37799608.09110557 -24705464.43820688 -24705464.43820688 -22666659.19319711 0 0 0 0 0 28319143.49701516 -24450223.79310394 -24450223.79310394 -15775572.27183797 0 0 0 0 0 27012645.16465851 -21514130.88427239 -21514130.88427239 -12837504.93571726 0 0 0 0 0 30674311.46695258 -26796777.61311359 -26796777.61311359 -18181347.61916693 0 0 0 0 0 34041218.75467336 -28498837.45372552 -28498837.45372552 -19639702.43840863 0 0 0 0 0 38271381.37581801 -29702595.25613492 -29702595.25613492 -19881953.96674883 0 0 0 0 0 26701901.32673323 -18133799.04727664 -18133799.04727664 -9763284.294812817 0 0 0 0 0 27109980.73591884 -14611551.71973863 -14611551.71973863 -6935452.872458534 0 0 0 0 0 27061444.87671011 -11358174.48028492 -11358174.48028492 -4534866.029407412 0 0 0 0 0 31765271.50094336 -6197478.193430042 -6197478.193430042 -1697024.820122135 0 0 0 0 0 32493070.52760307 -2105737.82315064 -2105737.82315064 -534271.436307465 0 0 0 0 0 30163445.80702358 -5917172.653098012 -5917172.653098012 -1719425.970809771 0 0 0 0 0 19258799.02167048 -17733158.02523956 -17733158.02523956 9440067.34115072 0 0 0 0 0 27560240.85843439 -21061089.43060447 -21061089.43060447 -5867390.566462149 0 0 0 0 0 42271950.23474651 -27825605.7614983 -27825605.7614983 -11166136.06157226 0 0 0 0 0 44004769.86381786 -25538519.76909178 -25538519.76909178 -20979125.23295921 0 0 0 0 0 43505482.53072394 -30495655.34435862 -30495655.34435862 -18529018.84322082 0 0 0 0 0 32083967.8112662 -22899597.92241769 -22899597.92241769 -14320298.00025774 0 0 0 0 0 29821119.38899531 -20305780.33958616 -20305780.33958616 -11510524.70360558 0 0 0 0 0 35346339.59741843 -24995530.00532961 -24995530.00532961 -16950835.37937177 0 0 0 0 0 39529174.28178509 -26566496.5110423 -26566496.5110423 -19061160.23325117 0 0 0 0 0 44811413.33736003 -27671225.40099949 -27671225.40099949 -20319031.53183953 0 0 0 0 0 28564506.92038509 -17322226.50517114 -17322226.50517114 -8835639.291744037 0 0 0 0 0 28273971.17574086 -14124252.72236288 -14124252.72236288 -6429029.992253016 0 0 0 0 0 28909077.60874283 -10805313.52420906 -10805313.52420906 -3987470.741662154 0 0 0 0 0 29376144.45453877 -8157209.942352616 -8157209.942352616 -2182438.047812388 0 0 0 0 0 34921663.24592482 -1533624.433207796 -1533624.433207796 289224.0474559545 0 0 0 0 0 33209891.01686148 -5050608.945592779 -5050608.945592779 -542461.8541883007 0 0 0 0 0 36767671.90268639 -1964973.651378183 -1964973.651378183 933897.7601961173 0 0 0 0 0 29572872.45804319 -22452351.04860616 -22452351.04860616 16767669.79228322 0 0 0 0 0 42100850.70379779 -25760639.83991938 -25760639.83991938 960089.6404742014 0 0 0 0 0 42290788.72018204 -23225154.64586679 -23225154.64586679 -13365580.29545732 0 0 0 0 0 50940841.34287488 -26292717.16321073 -26292717.16321073 -17688583.22883882 0 0 0 0 0 50028638.37564389 -31131574.76449504 -31131574.76449504 -15406711.00923993 0 0 0 0 0 51396325.6543969 -28465391.57714471 -28465391.57714471 -20334986.27978025 0 0 0 0 0 36218953.18914139 -27737587.0804526 -27737587.0804526 -15234837.7608799 0 0 0 0 0 33867546.13025799 -25099017.75443229 -25099017.75443229 -12659702.95080008 0 0 0 0 0 32540433.62892545 -22011622.57316088 -22011622.57316088 -9874210.934407538 0 0 0 0 0 39588542.89193382 -29820943.57450762 -29820943.57450762 -17282804.43705799 0 0 0 0 0 43907136.80972797 -31357973.29229641 -31357973.29229641 -18559187.41785514 0 0 0 0 0 49172075.30841821 -32358091.17662054 -32358091.17662054 -18839571.15136717 0 0 0 0 0 32166697.22372551 -18661931.10423747 -18661931.10423747 -7169297.697450765 0 0 0 0 0 32589848.27207924 -15231896.58468234 -15231896.58468234 -4693654.124538077 0 0 0 0 0 33697597.28348354 -11475198.36234501 -11475198.36234501 -2386304.378275604 0 0 0 0 0 34795363.49294127 -8764089.603179893 -8764089.603179893 -496434.0408750066 0 0 0 0 0 35306000.77775381 -5552899.474794853 -5552899.474794853 278025.0536992364 0 0 0 0 0 39288803.11700383 -1479786.097628199 -1479786.097628199 1639742.939791557 0 0 0 0 0 40695346.89017041 -1730378.012813565 -1730378.012813565 2012394.811232163 0 0 0 0 0 35234198.43375358 -31193790.59337007 -31193790.59337007 24043030.35938743 0 0 0 0 0 42649601.38680553 -24115726.79142359 -24115726.79142359 -5080783.975545735 0 0 0 0 0 49722113.06119534 -29586722.2785056 -29586722.2785056 -2628893.360510925 0 0 0 0 0 57168734.69198593 -31686710.11662249 -31686710.11662249 -10307418.50552772 0 0 0 0 0 58586508.91613538 -29041376.59488708 -29041376.59488708 -19033898.88941443 0 0 0 0 0 55464893.16725991 -32871359.10234427 -32871359.10234427 -17760475.59276833 0 0 0 0 0 40999561.56319527 -25908831.70082578 -25908831.70082578 -14047528.11410411 0 0 0 0 0 37718397.61749865 -23584003.6285498 -23584003.6285498 -11509726.45420278 0 0 0 0 0 35420531.67172169 -20867888.77525637 -20867888.77525637 -8962199.740319148 0 0 0 0 0 45235390.30971549 -27758262.77252074 -27758262.77252074 -16342344.78311589 0 0 0 0 0 50429291.17314003 -29115435.9603559 -29115435.9603559 -18138887.37370354 0 0 0 0 0 56727727.07853474 -29997955.05730175 -29997955.05730175 -19169544.80413942 0 0 0 0 0 34096360.4996786 -17890967.47374596 -17890967.47374596 -6537536.531797049 0 0 0 0 0 33671965.96764843 -14780666.22153147 -14780666.22153147 -4238117.93937275 0 0 0 0 0 33800127.45089584 -11471284.05679001 -11471284.05679001 -2561785.457285232 0 0 0 0 0 35642172.82820759 -8588049.152316529 -8588049.152316529 -671902.2297599569 0 0 0 0 0 37700225.59094229 -5019329.013641455 -5019329.013641455 807680.8149259354 0 0 0 0 0 38947903.01964392 -5259122.612906196 -5259122.612906196 1180629.957126033 0 0 0 0 0 42865118.67041017 -1381453.978022286 -1381453.978022286 2429173.026632913 0 0 0 0 0 45525204.80250677 -35268335.61382183 -35268335.61382183 29737960.0474913 0 0 0 0 0 56090781.77525753 -30171836.58354238 -30171836.58354238 5931233.305225224 0 0 0 0 0 55385754.9779257 -32520816.40357384 -32520816.40357384 6609004.489016583 0 0 0 0 0 58935899.33516578 -28310147.75282452 -28310147.75282452 -11497037.01515724 0 0 0 0 0 66331643.69247761 -29491336.25016936 -29491336.25016936 -16374974.96946006 0 0 0 0 0 62813786.12918746 -33014963.4165074 -33014963.4165074 -15347398.31456714 0 0 0 0 0 64007360.43888029 -30497707.58144259 -30497707.58144259 -19171483.71307565 0 0 0 0 0 44535297.55541433 -30134806.45850677 -30134806.45850677 -15236705.86963146 0 0 0 0 0 41271955.65115532 -27878946.26394755 -27878946.26394755 -12906269.02861245 0 0 0 0 0 38978110.69376389 -25157822.89997929 -25157822.89997929 -10325443.21146991 0 0 0 0 0 37594142.71017894 -22104682.64222676 -22104682.64222676 -7722746.119172052 0 0 0 0 0 48744257.65536667 -31855048.31568081 -31855048.31568081 -17094550.17425958 0 0 0 0 0 53872291.87448855 -33002633.3453145 -33002633.3453145 -18287058.97864547 0 0 0 0 0 59868965.3570524 -33563322.56930731 -33563322.56930731 -18608982.17544831 0 0 0 0 0 37024356.1551388 -18854804.16687397 -18854804.16687397 -5249006.434459627 0 0 0 0 0 37254588.8626698 -15437607.57591085 -15437607.57591085 -2947360.668377641 0 0 0 0 0 38162405.64939299 -12144925.92905697 -12144925.92905697 -1057022.026134592 0 0 0 0 0 39073896.8086406 -9032988.983378951 -9032988.983378951 409685.710262693 0 0 0 0 0 42867259.36782949 -4804253.135857492 -4804253.135857492 2124951.488003985 0 0 0 0 0 44391063.01720998 -1555790.339932986 -1555790.339932986 2674131.096700363 0 0 0 0 0 42324912.33386467 -4613602.921833589 -4613602.921833589 1831779.686980085 0 0 0 0 0 49207128.37886267 -40915610.17668002 -40915610.17668002 32162014.97379722 0 0 0 0 0 63229520.97116754 -36141544.29901668 -36141544.29901668 13637705.02635422 0 0 0 0 0 67017408.28265355 -29479692.79133903 -29479692.79133903 -6360324.583840175 0 0 0 0 0 64486908.30998144 -32860380.30859061 -32860380.30859061 -5593061.414135241 0 0 0 0 0 70552101.63919684 -33086446.01570383 -33086446.01570383 -11939472.59793232 0 0 0 0 0 71896854.16110039 -30666978.97628501 -30666978.97628501 -18169070.67805087 0 0 0 0 0 66809061.52910999 -33595812.95604063 -33595812.95604063 -17896387.9987891 0 0 0 0 0 50078367.38853219 -28068554.97267563 -28068554.97267563 -14125017.9498615 0 0 0 0 0 45967205.73869297 -26094100.02284895 -26094100.02284895 -11796388.47131838 0 0 0 0 0 42777248.7856032 -23704849.56457595 -23704849.56457595 -9388838.081398781 0 0 0 0 0 40512034.22209997 -20997847.95645695 -20997847.95645695 -7039333.276100195 0 0 0 0 0 55097684.3189498 -29563309.81725584 -29563309.81725584 -16184485.20043374 0 0 0 0 0 61005348.0022987 -30536951.61202368 -30536951.61202368 -17768006.77092734 0 0 0 0 0 67852519.72219424 -31011527.50148566 -31011527.50148566 -18640308.93124251 0 0 0 0 0 39122535.91660662 -18078007.50997694 -18078007.50997694 -4834889.260064602 0 0 0 0 0 38530823.26716048 -15017649.95120898 -15017649.95120898 -2948592.416044659 0 0 0 0 0 38731915.19438947 -11993084.67664401 -11993084.67664401 -1238137.253931764 0 0 0 0 0 39602560.47881065 -8952407.384111654 -8952407.384111654 131162.9490537091 0 0 0 0 0 40738957.61732174 -6843413.181947509 -6843413.181947509 1170682.906905211 0 0 0 0 0 45794451.51518571 -1352260.004863263 -1352260.004863263 2811154.629364997 0 0 0 0 0 44078245.22271533 -4205091.720340785 -4205091.720340785 2187985.214714508 0 0 0 0 0 66430933.60765353 -47822696.88810072 -47822696.88810072 40832127.85432975 0 0 0 0 0 74604919.59529722 -38723752.0071528 -38723752.0071528 17998137.29947631 0 0 0 0 0 81769825.391389 -34188637.8457533 -34188637.8457533 2516272.691065651 0 0 0 0 0 73134971.56860282 -34276199.18916273 -34276199.18916273 331532.6209241154 0 0 0 0 0 75695643.60405594 -30762474.80897684 -30762474.80897684 -12004063.97457025 0 0 0 0 0 80491300.35508691 -30678977.12835272 -30678977.12835272 -16062963.77363062 0 0 0 0 0 74518674.94217104 -33239930.74533078 -33239930.74533078 -16232921.97617014 0 0 0 0 0 75432560.59453839 -31036218.48577227 -31036218.48577227 -18693978.01052536 0 0 0 0 0 48953324.64407635 -29812288.61815327 -29812288.61815327 -13473171.74414947 0 0 0 0 0 52952013.17300259 -31614068.04917163 -31614068.04917163 -15631898.62429839 0 0 0 0 0 45850046.49050291 -27520980.16113554 -27520980.16113554 -11051151.67818888 0 0 0 0 0 43631698.95007227 -24842079.26262985 -24842079.26262985 -8546054.785326824 0 0 0 0 0 42256476.06175938 -21885807.25074832 -21885807.25074832 -6102569.4945733 0 0 0 0 0 57815159.76831473 -32856970.47328666 -32856970.47328666 -17344574.84605162 0 0 0 0 0 63509709.35537387 -33494355.24444356 -33494355.24444356 -18475122.45961187 0 0 0 0 0 70015887.18177886 -33537233.37588443 -33537233.37588443 -18837415.82782274 0 0 0 0 0 41678567.09532841 -18738917.00147969 -18738917.00147969 -3810691.32540572 0 0 0 0 0 41803964.9458449 -15562392.11424525 -15562392.11424525 -1799324.198637832 0 0 0 0 0 42682617.63129167 -12349962.63143976 -12349962.63143976 -8348.703495109379 0 0 0 0 0 44101866.0732397 -9112153.789658269 -9112153.789658269 1472998.539827523 0 0 0 0 0 45649947.22596876 -6876274.801849552 -6876274.801849552 2639872.485369964 0 0 0 0 0 47684526.82902338 -1557125.852333617 -1557125.852333617 3160665.493136866 0 0 0 0 0 47005999.24384518 -4431548.610544806 -4431548.610544806 2998155.828071117 0 0 0 0 0 68393387.04300915 -51396177.52286942 -51396177.52286942 37632330.15215524 0 0 0 0 0 77196102.65862076 -41535345.67482799 -41535345.67482799 19056301.45485523 0 0 0 0 0 84155255.25539784 -36163549.49285088 -36163549.49285088 5427658.929188944 0 0 0 0 0 86888157.09146164 -31785507.75403866 -31785507.75403866 -7531287.173415769 0 0 0 0 0 78984867.3303743 -33540496.26281004 -33540496.26281004 -8666938.454931391 0 0 0 0 0 82665768.93385638 -32630535.72607375 -32630535.72607375 -13863582.66895053 0 0 0 0 0 83541962.06632863 -30672010.68994093 -30672010.68994093 -17951083.63686669 0 0 0 0 0 77237578.1864066 -33023413.93399303 -33023413.93399303 -18353570.35040228 0 0 0 0 0 54256677.96540277 -27813743.85198667 -27813743.85198667 -12304255.12483775 0 0 0 0 0 58999605.57325281 -29367171.65377061 -29367171.65377061 -14461136.81077339 0 0 0 0 0 50352677.89986209 -25816186.4100511 -25816186.4100511 -10020500.20356018 0 0 0 0 0 47310138.66132757 -23457741.50929184 -23457741.50929184 -7741519.000671385 0 0 0 0 0 45113778.35895097 -20829971.98227888 -20829971.98227888 -5566997.784904334 0 0 0 0 0 64534107.56566273 -30417749.58700117 -30417749.58700117 -16330677.3192529 0 0 0 0 0 70899642.2180052 -30934786.75756136 -30934786.75756136 -17737140.76196515 0 0 0 0 0 77973061.93798696 -30927188.19963485 -30927188.19963485 -18519662.41507677 0 0 0 0 0 43722792.61448826 -18021237.84878791 -18021237.84878791 -3596286.817942368 0 0 0 0 0 43077653.15588218 -15150166.51528273 -15150166.51528273 -1833330.103213262 0 0 0 0 0 43122287.45281015 -12284391.79911877 -12284391.79911877 -382556.2427886983 0 0 0 0 0 43609137.60896132 -9435564.443311399 -9435564.443311399 666929.8024037555 0 0 0 0 0 45344291.17993216 -7127486.94690621 -7127486.94690621 1824040.595890149 0 0 0 0 0 49947010.11906341 -1353247.39613781 -1353247.39613781 3514605.56713362 0 0 0 0 0 46754263.19145638 -4636533.613566304 -4636533.613566304 2444497.114138887 0 0 0 0 0 91352232.60313576 -59752923.33607786 -59752923.33607786 47756045.0654695 0 0 0 0 0 93938515.26756839 -45803981.67933227 -45803981.67933227 25674592.12560037 0 0 0 0 0 96644678.90137173 -37596505.39931348 -37596505.39931348 9463104.313369688 0 0 0 0 0 98682899.59768151 -32868345.16948818 -32868345.16948818 -1915026.213660361 0 0 0 0 0 88780227.53552788 -33196397.12601335 -33196397.12601335 -4331637.752844629 0 0 0 0 0 90183958.81013982 -30728670.00097508 -30728670.00097508 -12923773.80146345 0 0 0 0 0 92183237.65982562 -29994758.78604627 -29994758.78604627 -16296985.6150456 0 0 0 0 0 84947518.89936379 -32054775.75726536 -32054775.75726536 -17083126.50822106 0 0 0 0 0 85529714.52451812 -30425077.34470715 -30425077.34470715 -18618779.30597091 0 0 0 0 0 52901854.93772069 -29100378.21158472 -29100378.21158472 -11959471.3082744 0 0 0 0 0 56641771.50168071 -30912517.39294993 -30912517.39294993 -14236883.65108149 0 0 0 0 0 61187947.19522776 -32204534.22551017 -32204534.22551017 -16237820.36399452 0 0 0 0 0 49980187.59426557 -26853822.85053154 -26853822.85053154 -9553963.638057312 0 0 0 0 0 47862508.02041662 -24271028.26017493 -24271028.26017493 -7154793.02996931 0 0 0 0 0 46512003.88037489 -21447906.33080108 -21447906.33080108 -4867138.184822933 0 0 0 0 0 66493314.24224845 -32924061.10381589 -32924061.10381589 -17822266.59878284 0 0 0 0 0 72504588.50770052 -33028680.39980651 -33028680.39980651 -18845831.4360001 0 0 0 0 0 79173239.78385523 -32514771.29090324 -32514771.29090324 -19165534.12370143 0 0 0 0 0 45867835.20613954 -18493659.90074558 -18493659.90074558 -2780751.26759231 0 0 0 0 0 45868749.54993818 -15482457.82777471 -15482457.82777471 -924823.1126609803 0 0 0 0 0 46373739.3143066 -12548211.67025384 -12548211.67025384 608798.1014440218 0 0 0 0 0 47597530.01401407 -9730532.065670673 -9730532.065670673 1884974.782387983 0 0 0 0 0 49149654.13108312 -7162547.732645193 -7162547.732645193 2896258.950566483 0 0 0 0 0 50781358.73800317 -1352772.563566123 -1352772.563566123 3341974.024946359 0 0 0 0 0 48945179.75749069 -3867477.53196016 -3867477.53196016 3052857.635679432 0 0 0 0 0 50846063.90060805 -4710323.740406397 -4710323.740406397 3656188.95520152 0 0 0 0 0 89758720.46920215 -59800486.18572422 -59800486.18572422 39333009.11324153 0 0 0 0 0 93199256.42933075 -45705504.62455787 -45705504.62455787 22497445.96960571 0 0 0 0 0 96543421.92926741 -37486773.77624959 -37486773.77624959 9409331.50444841 0 0 0 0 0 99092420.22537114 -32974809.44785411 -32974809.44785411 -310392.1573402994 0 0 0 0 0 100377372.7555217 -30374372.88003625 -30374372.88003625 -9289895.76748028 0 0 0 0 0 91399914.21387352 -31660882.54716537 -31660882.54716537 -10976399.651685 0 0 0 0 0 92914851.88561077 -30564878.31907769 -30564878.31907769 -15152471.49506945 0 0 0 0 0 93363950.71686995 -29430852.03580606 -29430852.03580606 -18002669.97318125 0 0 0 0 0 86327648.17128655 -31415776.46122133 -31415776.46122133 -18782299.05263899 0 0 0 0 0 57895375.53276455 -27204754.97302403 -27204754.97302403 -10793605.19530131 0 0 0 0 0 62317436.57748803 -28764867.67845836 -28764867.67845836 -12951797.59009431 0 0 0 0 0 67471625.18678778 -29854035.71978253 -29854035.71978253 -14947096.51834999 0 0 0 0 0 54241625.24396677 -25243769.71924802 -25243769.71924802 -8593363.683541931 0 0 0 0 0 51372650.50945628 -22964086.71949346 -22964086.71949346 -6452925.561637709 0 0 0 0 0 49273093.40770785 -20450675.83075928 -20450675.83075928 -4455095.494370986 0 0 0 0 0 73308519.74942844 -30426597.58804754 -30426597.58804754 -16645911.46720826 0 0 0 0 0 79779979.39786921 -30453803.50170432 -30453803.50170432 -17899798.16810787 0 0 0 0 0 86698512.23256908 -29934678.12405759 -29934678.12405759 -18601042.18460259 0 0 0 0 0 47901180.36440679 -17796013.45773199 -17796013.45773199 -2649871.975314771 0 0 0 0 0 47206767.80212224 -15078094.12272749 -15078094.12272749 -1097925.147623044 0 0 0 0 0 47123604.07287681 -12388493.01974015 -12388493.01974015 196583.1070405089 0 0 0 0 0 47589524.19317991 -9838477.114292733 -9838477.114292733 1349163.640353884 0 0 0 0 0 48681733.30150187 -7469518.236354698 -7469518.236354698 2149513.367486289 0 0 0 0 0 53002681.63407395 -1028444.331457096 -1028444.331457096 3841574.061735386 0 0 0 0 0 52032389.25756148 -3528631.026241609 -3528631.026241609 3848975.191864915 0 0 0 0 0 49763723.19757739 -5336004.272687446 -5336004.272687446 2718478.701850892 0 0 0 0 0 53692138.54314552 -1101031.511851544 -1101031.511851544 3834410.317804979 0 0 0 0 0 56300055.09297684 -1129809.730085579 -1129809.730085579 4077155.720952607 0 0 0 0 0 120535199.8709741 -68979013.47817151 -68979013.47817151 51217709.12663042 0 0 0 0 0 114967532.6462315 -51580220.68717513 -51580220.68717513 31358482.54935784 0 0 0 0 0 112934647.9793815 -40483234.84805293 -40483234.84805293 15327883.35721838 0 0 0 0 0 111703857.6439519 -33885352.4969211 -33885352.4969211 3472025.282917068 0 0 0 0 0 110992931.6617292 -29822072.4764956 -29822072.4764956 -5058781.37057967 0 0 0 0 0 100608216.4869939 -30260768.44681786 -30260768.44681786 -7573522.984292408 0 0 0 0 0 101244698.8889718 -28977592.45953048 -28977592.45953048 -13838580.45908763 0 0 0 0 0 101507452.9527473 -28063632.29146421 -28063632.29146421 -16597160.79597877 0 0 0 0 0 93722242.93371563 -29769290.12479074 -29769290.12479074 -17684467.38549143 0 0 0 0 0 93923606.13794422 -28906970.01633833 -28906970.01633833 -18681460.78760255 0 0 0 0 0 59910058.77799442 -29932857.79437243 -29932857.79437243 -12946827.99247519 0 0 0 0 0 56435449.03002042 -28156778.87681215 -28156778.87681215 -10657958.93478367 0 0 0 0 0 64117198.17133421 -31239629.03187664 -31239629.03187664 -15072463.84252051 0 0 0 0 0 69015629.48511167 -32009048.03112556 -32009048.03112556 -16908127.6055662 0 0 0 0 0 53705478.33877579 -25994907.19110776 -25994907.19110776 -8325661.702334793 0 0 0 0 0 51701535.47743034 -23537916.08217992 -23537916.08217992 -6055142.663290462 0 0 0 0 0 50389818.58110318 -20880297.7518905 -20880297.7518905 -3930882.171262452 0 0 0 0 0 74546041.18682869 -32189690.02223008 -32189690.02223008 -18315824.05462657 0 0 0 0 0 80630457.49957137 -31753471.60548403 -31753471.60548403 -19170320.62408496 0 0 0 0 0 87181439.99200979 -30713861.46345592 -30713861.46345592 -19402713.88341094 0 0 0 0 0 49721380.28683317 -18106052.42803654 -18106052.42803654 -2006858.927019201 0 0 0 0 0 49625796.09885923 -15313287.3491181 -15313287.3491181 -339301.2271867147 0 0 0 0 0 50012760.50317515 -12583602.93372682 -12583602.93372682 1055938.214750834 0 0 0 0 0 50827449.46710115 -9926119.522630585 -9926119.522630585 2242324.596615624 0 0 0 0 0 51770934.9501332 -7603589.811026064 -7603589.811026064 3014722.309731601 0 0 0 0 0 52263372.26915259 -3368478.916234313 -3368478.916234313 3509730.601680061 0 0 0 0 0 52514779.34786172 -5653444.121407277 -5653444.121407277 3476305.216952253 0 0 0 0 0 54780330.73155634 -967906.6475420404 -967906.6475420404 3863403.531132886 0 0 0 0 0 57867186.4040997 -1053751.948525653 -1053751.948525653 4145970.653551472 0 0 0 0 0 58811200.0890817 -1018778.618052716 -1018778.618052716 4003553.735027123 0 0 0 0 0 113546250.720773 -64396176.87082839 -64396176.87082839 37694544.79979056 0 0 0 0 0 110618787.7184862 -48377940.4794202 -48377940.4794202 23540283.17678468 0 0 0 0 0 110182705.4823506 -37992085.6121188 -37992085.6121188 12252116.03761562 0 0 0 0 0 110109476.0426931 -31980307.18605083 -31980307.18605083 3111803.723453646 0 0 0 0 0 109976601.5205314 -28544276.22389956 -28544276.22389956 -4091640.289089836 0 0 0 0 0 110483541.7968735 -27590992.62809345 -27590992.62809345 -10764385.9341754 0 0 0 0 0 101245198.7268908 -28705105.62562311 -28705105.62562311 -12613926.04236205 0 0 0 0 0 101304058.6195537 -27680890.72142083 -27680890.72142083 -15919224.27042882 0 0 0 0 0 101356909.5252857 -27406109.31519328 -27406109.31519328 -18060257.80007385 0 0 0 0 0 94013816.26160114 -29096138.14328504 -29096138.14328504 -19005888.66799553 0 0 0 0 0 65191203.63576031 -27910369.75506401 -27910369.75506401 -11632399.98449042 0 0 0 0 0 61098756.61893658 -26378609.87304439 -26378609.87304439 -9527129.299325818 0 0 0 0 0 69947555.7699005 -29012068.86971908 -29012068.86971908 -13655536.34495271 0 0 0 0 0 75314390.28213239 -29624533.29937294 -29624533.29937294 -15483081.93115831 0 0 0 0 0 57704553.19897345 -24486115.92085514 -24486115.92085514 -7435715.687722023 0 0 0 0 0 55021255.53100669 -22312289.93983563 -22312289.93983563 -5438515.202145838 0 0 0 0 0 53030137.67852656 -19938652.3221591 -19938652.3221591 -3596256.769971504 0 0 0 0 0 81203327.39940868 -29715786.19168248 -29715786.19168248 -17002338.90532214 0 0 0 0 0 87506621.10274129 -29258224.50272908 -29258224.50272908 -18084057.51341132 0 0 0 0 0 94095405.56823274 -28277262.57026875 -28277262.57026875 -18665039.41119619 0 0 0 0 0 51697890.52874343 -17444043.90407822 -17444043.90407822 -1957747.215898432 0 0 0 0 0 50975783.65444517 -14911084.36593024 -14911084.36593024 -543453.7726883717 0 0 0 0 0 50805950.24260015 -12401738.70150779 -12401738.70150779 659869.5271010983 0 0 0 0 0 51140922.55971161 -9959722.358911429 -9959722.358911429 1593191.764481846 0 0 0 0 0 51912815.76787523 -7688456.62501085 -7688456.62501085 2299821.150008938 0 0 0 0 0 54545116.06222822 -3307005.643227299 -3307005.643227299 3831071.68530217 0 0 0 0 0 53215623.74394783 -5630828.728333682 -5630828.728333682 3125020.897574458 0 0 0 0 0 55715575.72183802 -3309542.504051388 -3309542.504051388 3672902.664843456 0 0 0 0 0 57474483.62633542 -3049652.782221891 -3049652.782221891 3689353.512859996 0 0 0 0 0 59990863.2298734 -912064.6226859407 -912064.6226859407 4095395.912125254 0 0 0 0 0 61089065.418098 -985832.5293902062 -985832.5293902062 4177759.305963789 0 0 0 0 0 66857704.16580684 -824458.0071816 -824458.0071816 4108621.754763158 0 0 0 0 0 65709421.56843422 -713196.4618183457 -713196.4618183457 3975093.483437515 0 0 0 0 0 65002418.77038012 -777998.419515925 -777998.419515925 4026414.080542014 0 0 0 0 0 63190166.7639203 -1008579.180792914 -1008579.180792914 4099799.220630323 0 0 0 0 0 148112952.8557654 -74582766.99645539 -74582766.99645539 49400005.73137296 0 0 0 0 0 138573573.7960868 -55786564.57986808 -55786564.57986808 35016515.54458078 0 0 0 0 0 130450871.4949041 -42187388.00538427 -42187388.00538427 19890201.2467831 0 0 0 0 0 125397709.0791493 -33897340.21776786 -33897340.21776786 8142420.858850624 0 0 0 0 0 122012687.3393526 -28986715.58681045 -28986715.58681045 -667159.7348805849 0 0 0 0 0 119769302.1378589 -25882964.44277376 -25882964.44277376 -7184928.629843115 0 0 0 0 0 109632561.5587858 -26408709.68150984 -26408709.68150984 -9612047.493567055 0 0 0 0 0 109668747.044992 -26260004.74515599 -26260004.74515599 -14498181.66912133 0 0 0 0 0 108715477.1378799 -25421125.77446537 -25421125.77446537 -16758719.76898781 0 0 0 0 0 100993795.1472932 -26949138.3188221 -26949138.3188221 -17927030.01358463 0 0 0 0 0 100896275.9935835 -26798109.10901803 -26798109.10901803 -18639931.62611192 0 0 0 0 0 62814845.71219251 -28795945.35078075 -28795945.35078075 -11772066.80863002 0 0 0 0 0 66688848.30305581 -30088404.36362026 -30088404.36362026 -13922971.40781102 0 0 0 0 0 59605531.05271805 -27081604.87961988 -27081604.87961988 -9534202.212001393 0 0 0 0 0 71194165.75588688 -30888838.83956159 -30888838.83956159 -15873944.26580679 0 0 0 0 0 76276991.19348364 -31140992.20977849 -31140992.20977849 -17516469.88934024 0 0 0 0 0 57066297.950443 -25025279.91049328 -25025279.91049328 -7308849.349776994 0 0 0 0 0 55183289.11039394 -22712168.96682708 -22712168.96682708 -5178659.691061057 0 0 0 0 0 53923494.99763954 -20225051.12175478 -20225051.12175478 -3207798.65518388 0 0 0 0 0 81847546.01436827 -30810467.22420201 -30810467.22420201 -18721180.36055529 0 0 0 0 0 87802234.67364229 -29893839.92587297 -29893839.92587297 -19397108.94063012 0 0 0 0 0 94037383.74281168 -28409169.5213222 -28409169.5213222 -19506354.3080905 0 0 0 0 0 53240007.05121767 -17647632.91234461 -17647632.91234461 -1444984.990713922 0 0 0 0 0 53057755.05615868 -15058760.79780282 -15058760.79780282 79737.61913240871 0 0 0 0 0 53343081.09309002 -12498705.76345676 -12498705.76345676 1373705.661393984 0 0 0 0 0 53972932.12785762 -10057306.18726121 -10057306.18726121 2381733.839072118 0 0 0 0 0 54814720.88381395 -7853189.463077324 -7853189.463077324 3122782.324342565 0 0 0 0 0 55503209.02686954 -5823653.282137554 -5823653.282137554 3585992.703776104 0 0 0 0 0 58046563.95802697 -3324688.43309659 -3324688.43309659 4156067.128718776 0 0 0 0 0 58749462.3080877 -2747258.234676545 -2747258.234676545 3929425.279503293 0 0 0 0 0 60258392.2603718 -2827894.960639231 -2827894.960639231 4166236.887573663 0 0 0 0 0 62098405.63104545 -991814.6772773889 -991814.6772773889 4130398.706000387 0 0 0 0 0 68314141.35151415 -728849.3669839891 -728849.3669839891 4293645.828748014 0 0 0 0 0 66667920.15213922 -2100066.477557316 -2100066.477557316 4496346.967459158 0 0 0 0 0 65025054.34620591 -955538.7942380173 -955538.7942380173 4440174.871388243 0 0 0 0 0 68542775.7201699 -638057.7342293927 -638057.7342293927 3990027.74839871 0 0 0 0 0 70099038.67553437 -664532.2836229992 -664532.2836229992 3972737.62884871 0 0 0 0 0 143447026.9395505 -71378827.58250795 -71378827.58250795 37427096.47401095 0 0 0 0 0 130104828.1555675 -46857400.07624678 -46857400.07624678 23861181.68447803 0 0 0 0 0 124774834.2479862 -36615120.57001985 -36615120.57001985 14867752.5660746 0 0 0 0 0 121788565.796482 -30061682.04251868 -30061682.04251868 6477092.688853144 0 0 0 0 0 119542740.8680552 -26080287.40591252 -26080287.40591252 -579140.736135185 0 0 0 0 0 117886550.6552123 -23648825.11625293 -23648825.11625293 -6238755.475483096 0 0 0 0 0 117739076.5019817 -24121474.99616541 -24121474.99616541 -11780320.80824193 0 0 0 0 0 108880538.5987947 -25141863.50506644 -25141863.50506644 -13524806.87722389 0 0 0 0 0 107910011.5790305 -24360582.50142214 -24360582.50142214 -16177581.14470964 0 0 0 0 0 107649886.5144394 -24811456.55428212 -24811456.55428212 -17969640.11756316 0 0 0 0 0 100447921.7466944 -26351955.21013904 -26351955.21013904 -18991042.13469134 0 0 0 0 0 67702454.87796178 -26908061.63606584 -26908061.63606584 -10477726.32576461 0 0 0 0 0 72073508.85411577 -28001322.36205726 -28001322.36205726 -12468905.47211989 0 0 0 0 0 63934485.03172525 -25424592.97517042 -25424592.97517042 -8457829.192706518 0 0 0 0 0 76992467.30589885 -28647347.70098239 -28647347.70098239 -14339891.1052964 0 0 0 0 0 82394339.66729586 -28796261.29878318 -28796261.29878318 -15985526.63218606 0 0 0 0 0 60799020.4113001 -23619680.64974102 -23619680.64974102 -6487237.482673141 0 0 0 0 0 58300557.40489841 -21567320.5657621 -21567320.5657621 -4630393.120433073 0 0 0 0 0 56425985.41118944 -19342016.45638195 -19342016.45638195 -2935905.861141408 0 0 0 0 0 88147976.30017608 -28429540.25624355 -28429540.25624355 -17307080.07841886 0 0 0 0 0 94143423.1759893 -27546538.87606202 -27546538.87606202 -18205346.60547059 0 0 0 0 0 100303980.6909111 -26161753.25886811 -26161753.25886811 -18609304.53604729 0 0 0 0 0 55142577.32207119 -17017671.27758113 -17017671.27758113 -1435101.597002005 0 0 0 0 0 54411299.44628346 -14658108.94891771 -14658108.94891771 -136018.7848609796 0 0 0 0 0 54175767.05437731 -12315523.74926605 -12315523.74926605 934217.287616986 0 0 0 0 0 54389557.36605488 -10045811.76422058 -10045811.76422058 1795626.119517295 0 0 0 0 0 54986271.76398937 -7921170.68639609 -7921170.68639609 2536406.161795858 0 0 0 0 0 55853540.40333791 -5869480.070618168 -5869480.070618168 3088767.886391533 0 0 0 0 0 56754556.56977823 -4277902.652516793 -4277902.652516793 3407252.254813177 0 0 0 0 0 59680657.57274684 -4424824.058771404 -4424824.058771404 4197582.596041506 0 0 0 0 0 60896950.54650484 -2828414.189690668 -2828414.189690668 3827772.407022396 0 0 0 0 0 62827522.71282762 -2915123.41761749 -2915123.41761749 4229785.749857821 0 0 0 0 0 67477531.7089169 -1704761.695093027 -1704761.695093027 3624120.586043566 0 0 0 0 0 63688490.40788273 -2112597.673115663 -2112597.673115663 3628575.183128956 0 0 0 0 0 66121659.0312448 -2449398.839561296 -2449398.839561296 3625399.414860987 0 0 0 0 0 69119847.52010278 -596762.6896189161 -596762.6896189161 3883770.672414973 0 0 0 0 0 71188907.93736884 -582953.6959643557 -582953.6959643557 4092254.484459913 0 0 0 0 0 71508018.80455302 -539243.9929193493 -539243.9929193493 3925248.524356986 0 0 0 0 0 72825751.67915945 -586665.6395212971 -586665.6395212971 3892660.928459451 0 0 0 0 0 181660343.4235581 -79148529.15982306 -79148529.15982306 46281698.44638126 0 0 0 0 0 160320696.3484004 -54829227.01566468 -54829227.01566468 30972686.42035007 0 0 0 0 0 152110186.0654142 -52259874.83721993 -52259874.83721993 32955437.91782213 0 0 0 0 0 146037469.8965734 -41897746.83883417 -41897746.83883417 23495831.02253564 0 0 0 0 0 137791130.5018622 -32640256.85126723 -32640256.85126723 12035088.16521329 0 0 0 0 0 132399512.854725 -27232361.23185688 -27232361.23185688 3411726.333640633 0 0 0 0 0 128511433.1709558 -23735916.97418148 -23735916.97418148 -3361108.292727889 0 0 0 0 0 125367789.0963868 -21629587.69032199 -21629587.69032199 -8540242.979612976 0 0 0 0 0 116286167.1155988 -22191023.22252632 -22191023.22252632 -10597000.68641242 0 0 0 0 0 115874796.7582135 -23067586.3967663 -23067586.3967663 -14814132.16960262 0 0 0 0 0 114158408.0408833 -22417334.40021392 -22417334.40021392 -16657882.94084657 0 0 0 0 0 106831777.5340783 -23835662.05310075 -23835662.05310075 -17817703.43332419 0 0 0 0 0 106496432.3936013 -24292501.89531516 -24292501.89531516 -18445014.71551482 0 0 0 0 0 65414008.11477856 -27579051.75223278 -27579051.75223278 -10710948.22730451 0 0 0 0 0 68967713.2918501 -28840015.7366729 -28840015.7366729 -12825035.66049058 0 0 0 0 0 73095000.66209346 -29656389.77715608 -29656389.77715608 -14811428.17190358 0 0 0 0 0 62458838.3635462 -25941329.14851351 -25941329.14851351 -8561829.566849859 0 0 0 0 0 77748415.74267487 -29973479.98223098 -29973479.98223098 -16561468.50573795 0 0 0 0 0 82853099.36708443 -29746281.02296117 -29746281.02296117 -17989746.34258026 0 0 0 0 0 60107132.59682129 -24001758.75450718 -24001758.75450718 -6459774.670981398 0 0 0 0 0 58345015.84282748 -21837921.85985441 -21837921.85985441 -4471613.197949248 0 0 0 0 0 57142899.52127534 -19525836.43123187 -19525836.43123187 -2649159.246818063 0 0 0 0 0 88315350.73301513 -28965086.29275725 -28965086.29275725 -18967113.86689533 0 0 0 0 0 93987457.25515075 -27642976.56866303 -27642976.56866303 -19455511.594113 0 0 0 0 0 99816195.50168766 -25781321.55300412 -25781321.55300412 -19382382.00272225 0 0 0 0 0 56450111.89685063 -17139773.72489197 -17139773.72489197 -1027752.252707734 0 0 0 0 0 56224644.54144581 -14734636.69760429 -14734636.69760429 378602.3122597128 0 0 0 0 0 56404364.48670958 -12378881.19229914 -12378881.19229914 1549340.009952607 0 0 0 0 0 56934821.87346852 -10114570.1213236 -10114570.1213236 2496855.395399834 0 0 0 0 0 57759904.11345553 -7953452.335198171 -7953452.335198171 3277215.880755079 0 0 0 0 0 58748386.73001104 -5905412.414448028 -5905412.414448028 3842225.154239872 0 0 0 0 0 59789527.34280428 -4546146.873124393 -4546146.873124393 3563875.124725708 0 0 0 0 0 61826768.50033207 -4596786.415971973 -4596786.415971973 4020349.573938734 0 0 0 0 0 62724344.72362821 -3112243.85568821 -3112243.85568821 3636269.281907809 0 0 0 0 0 68646630.11978224 -2468326.001632781 -2468326.001632781 4372532.297095921 0 0 0 0 0 69936178.00935438 -1688539.192965143 -1688539.192965143 4351210.897932479 0 0 0 0 0 65413780.26095399 -3158860.953458584 -3158860.953458584 4378228.30164502 0 0 0 0 0 67172253.38278385 -3695719.940702429 -3695719.940702429 4191081.387854559 0 0 0 0 0 70415343.87397055 -1591626.712622011 -1591626.712622011 3543597.810136514 0 0 0 0 0 71826813.94259565 -555210.1727402746 -555210.1727402746 3744956.171540182 0 0 0 0 0 73547396.39221001 -568954.671281202 -568954.671281202 3822628.074009413 0 0 0 0 0 74124901.59146555 -481266.9300115855 -481266.9300115855 3834646.991176598 0 0 0 0 0 165252805.5831764 -69426990.07393403 -69426990.07393403 29986352.18611787 0 0 0 0 0 156566858.8378354 -52739572.21280389 -52739572.21280389 27932986.31761151 0 0 0 0 0 146527850.0619275 -41040423.85597248 -41040423.85597248 22405115.71981269 0 0 0 0 0 137522485.4822439 -34314850.26536062 -34314850.26536062 15532136.58128026 0 0 0 0 0 132577964.090345 -27454795.21399971 -27454795.21399971 9398858.779581845 0 0 0 0 0 128820224.0597884 -23073442.80572833 -23073442.80572833 2988228.279342704 0 0 0 0 0 125715019.0168246 -20482002.9855292 -20482002.9855292 -2663282.931851804 0 0 0 0 0 123249569.3672158 -18921250.19035345 -18921250.19035345 -7248755.922773031 0 0 0 0 0 122624644.2221118 -20405086.60961128 -20405086.60961128 -12270484.6234593 0 0 0 0 0 114610959.9175705 -21397848.23936292 -21397848.23936292 -13808479.74374078 0 0 0 0 0 112984016.2778519 -20959751.74572184 -20959751.74572184 -16006803.60828549 0 0 0 0 0 112490488.5784214 -21973299.68328944 -21973299.68328944 -17681160.85500202 0 0 0 0 0 105700620.0900411 -23412968.53991708 -23412968.53991708 -18690520.25143616 0 0 0 0 0 69920760.33205949 -25827282.55561163 -25827282.55561163 -9466462.788344292 0 0 0 0 0 73923625.4067971 -26898934.43451915 -26898934.43451915 -11390009.38033777 0 0 0 0 0 78429953.32396194 -27562578.7563636 -27562578.7563636 -13244110.42569284 0 0 0 0 0 66462219.01714738 -24405383.17796273 -24405383.17796273 -7549651.296988763 0 0 0 0 0 83360665.56839816 -27774099.00018089 -27774099.00018089 -14945556.39661117 0 0 0 0 0 88678547.80826691 -27491622.3384109 -27491622.3384109 -16387183.19214341 0 0 0 0 0 63572471.67293675 -22698134.06484277 -22698134.06484277 -5704428.757004919 0 0 0 0 0 61255467.97474967 -20773628.70146908 -20773628.70146908 -3981938.382453187 0 0 0 0 0 59499048.91955583 -18699503.8505507 -18699503.8505507 -2419326.970665799 0 0 0 0 0 94198530.67937621 -26699895.06089043 -26699895.06089043 -17490453.63944459 0 0 0 0 0 99822784.7505143 -25437162.11189701 -25437162.11189701 -18173162.39915081 0 0 0 0 0 105438596.0513594 -23731971.9198588 -23731971.9198588 -18381078.80826231 0 0 0 0 0 58274845.7155899 -16539334.71555174 -16539334.71555174 -1035657.850671929 0 0 0 0 0 57542551.21012056 -14347997.0325709 -14347997.0325709 152035.2147904719 0 0 0 0 0 57258638.76216725 -12181898.65805785 -12181898.65805785 1150032.672047162 0 0 0 0 0 57365722.89888576 -10081584.49344289 -10081584.49344289 1983082.764183688 0 0 0 0 0 57814762.76060214 -8072792.596884065 -8072792.596884065 2637848.727005444 0 0 0 0 0 58467471.96887244 -6147905.3200051 -6147905.3200051 3017384.904916788 0 0 0 0 0 61120781.9766972 -6236879.430508126 -6236879.430508126 3755729.195364604 0 0 0 0 0 61962061.43622147 -4716296.737008268 -4716296.737008268 3469369.916623422 0 0 0 0 0 64312554.24211466 -4735172.46274275 -4735172.46274275 4053594.722242001 0 0 0 0 0 67757799.79964915 -3095890.02838843 -3095890.02838843 3414762.008034334 0 0 0 0 0 69127455.37005582 -2190601.081799496 -2190601.081799496 3564031.598787756 0 0 0 0 0 64685047.17562621 -3593950.34765499 -3593950.34765499 3507477.54455303 0 0 0 0 0 66839093.96812856 -3951223.298225675 -3951223.298225675 3391341.554269588 0 0 0 0 0 71512401.86644943 -2198502.502777771 -2198502.502777771 4279396.859021176 0 0 0 0 0 72624436.25217983 -1531995.48452585 -1531995.48452585 4208861.295121627 0 0 0 0 0 72974048.45375641 -1465894.534581038 -1465894.534581038 3497095.079445974 0 0 0 0 0 73952393.07721813 -627692.3690714692 -627692.3690714692 3464306.811782522 0 0 0 0 0 211882850.6139707 -75709182.42649381 -75709182.42649381 42210496.99647783 0 0 0 0 0 185817563.8841608 -56961341.1485867 -56961341.1485867 35017822.64863297 0 0 0 0 0 170197412.6878698 -45621056.38178167 -45621056.38178167 29825786.92036511 0 0 0 0 0 157563415.6987449 -37744941.76310606 -37744941.76310606 22619308.35738634 0 0 0 0 0 148888000.8578567 -30545188.12095281 -30545188.12095281 15332240.03574817 0 0 0 0 0 141704704.3115363 -24786896.02954338 -24786896.02954338 7279389.382093005 0 0 0 0 0 136345664.5651202 -21109328.36780436 -21109328.36780436 468437.2092269551 0 0 0 0 0 132232398.5178829 -18813981.0587487 -18813981.0587487 -4959516.600998102 0 0 0 0 0 128757474.6548438 -17467193.39368056 -17467193.39368056 -9181178.741148068 0 0 0 0 0 120912886.2094753 -18123003.21985943 -18123003.21985943 -10884473.72966443 0 0 0 0 0 120254078.5780444 -19707845.35978596 -19707845.35978596 -14731124.41314933 0 0 0 0 0 118075228.5317195 -19318321.98576798 -19318321.98576798 -16322718.01204872 0 0 0 0 0 111407751.0198548 -20657425.21337107 -20657425.21337107 -17362521.83135664 0 0 0 0 0 110907842.6894826 -21609637.26777099 -21609637.26777099 -18069507.56953289 0 0 0 0 0 67750076.77099922 -26334437.23254216 -26334437.23254216 -9757759.693917889 0 0 0 0 0 71003609.2611464 -27552412.74883246 -27552412.74883246 -11797867.56504506 0 0 0 0 0 74776352.12380134 -28371470.13537476 -28371470.13537476 -13760769.95216738 0 0 0 0 0 79029032.63731408 -28736132.53380024 -28736132.53380024 -15559636.44480246 0 0 0 0 0 65036133.96552088 -24781525.85822733 -24781525.85822733 -7717625.025115258 0 0 0 0 0 83696620.85354108 -28607366.8662532 -28607366.8662532 -17098269.40869633 0 0 0 0 0 88715405.73310755 -27943993.431995 -27943993.431995 -18295212.10177751 0 0 0 0 0 62863421.29883448 -22962873.85190516 -22962873.85190516 -5745881.949962297 0 0 0 0 0 61216822.49762751 -20948733.27843864 -20948733.27843864 -3897076.453190457 0 0 0 0 0 60067555.46962675 -18807346.43528137 -18807346.43528137 -2212505.896732628 0 0 0 0 0 93986142.07293898 -26773922.35359994 -26773922.35359994 -19052871.78587564 0 0 0 0 0 99318595.36959207 -25128056.24552981 -25128056.24552981 -19315777.0332705 0 0 0 0 0 104623940.8129308 -23009013.43928691 -23009013.43928691 -19015139.05452694 0 0 0 0 0 59379518.63335297 -16598038.87705605 -16598038.87705605 -715651.1101748802 0 0 0 0 0 59106755.07006861 -14379480.66872604 -14379480.66872604 577188.0569474226 0 0 0 0 0 59192124.49322122 -12199362.74717108 -12199362.74717108 1663874.78791404 0 0 0 0 0 59591434.22299204 -10081813.59100791 -10081813.59100791 2563664.595736866 0 0 0 0 0 60217149.59122109 -8070738.633921006 -8070738.633921006 3258943.520860808 0 0 0 0 0 61051832.59740271 -6391250.958771685 -6391250.958771685 3088946.861203004 0 0 0 0 0 63433342.99226609 -6394679.211758723 -6394679.211758723 3716660.683087066 0 0 0 0 0 64074406.60859129 -4963702.519453206 -4963702.519453206 3413925.32036745 0 0 0 0 0 70714330.68636605 -3142236.291172242 -3142236.291172242 4265999.381588452 0 0 0 0 0 69237290.48042792 -3979116.006618953 -3979116.006618953 4055795.894064917 0 0 0 0 0 66175051.6913873 -4985809.23545219 -4985809.23545219 3934298.150185918 0 0 0 0 0 68240916.62430352 -5220898.311599518 -5220898.311599518 3827460.986851059 0 0 0 0 0 70529836.20207313 -2815699.662971245 -2815699.662971245 3341966.805604003 0 0 0 0 0 71863748.32928655 -1993525.204396772 -1993525.204396772 3463800.861773665 0 0 0 0 0 73910403.25603104 -1918674.314331999 -1918674.314331999 4077714.507787585 0 0 0 0 0 74818359.01215662 -1380553.286354462 -1380553.286354462 4053554.171286016 0 0 0 0 0 188268526.7800815 -62992899.83183106 -62992899.83183106 24355489.79308068 0 0 0 0 0 170616347.9455069 -47781789.95610172 -47781789.95610172 23872041.9053056 0 0 0 0 0 160852550.9448727 -36700630.65191465 -36700630.65191465 22241023.07639723 0 0 0 0 0 149522814.457381 -29425079.16634859 -29425079.16634859 17627056.92148052 0 0 0 0 0 142203895.5497115 -23960378.49088861 -23960378.49088861 11769881.36338992 0 0 0 0 0 136999464.666163 -19702833.26395422 -19702833.26395422 6375557.225404195 0 0 0 0 0 132857829.3313735 -17006261.23837852 -17006261.23837852 1055027.635155158 0 0 0 0 0 129496338.5173621 -15447825.18308879 -15447825.18308879 -3641681.016377451 0 0 0 0 0 126604396.2689767 -14649542.46323642 -14649542.46323642 -7528917.717717967 0 0 0 0 0 125806185.3119895 -16735592.59757698 -16735592.59757698 -12209280.88213741 0 0 0 0 0 118743367.5185065 -17775223.90419509 -17775223.90419509 -13599705.65188441 0 0 0 0 0 116741003.318817 -17612766.34323747 -17612766.34323747 -15441219.90463374 0 0 0 0 0 116064709.142005 -19087433.31878456 -19087433.31878456 -17196270.54992436 0 0 0 0 0 109846368.7000048 -20434413.98004876 -20434413.98004876 -18114246.95993261 0 0 0 0 0 71896834.33610103 -24715460.78416524 -24715460.78416524 -8578266.616693616 0 0 0 0 0 75555508.36586283 -25756127.48711456 -25756127.48711456 -10414336.64496464 0 0 0 0 0 79669254.23132549 -26428927.90407944 -26428927.90407944 -12217224.29498514 0 0 0 0 0 84180641.79081658 -26687722.91803909 -26687722.91803909 -13914512.5294504 0 0 0 0 0 68728737.92911391 -23362555.1712718 -23362555.1712718 -6773269.79877086 0 0 0 0 0 89008836.84079055 -26503655.51278733 -26503655.51278733 -15429059.08646073 0 0 0 0 0 94107255.16342987 -25844871.74508642 -25844871.74508642 -16663203.43628636 0 0 0 0 0 66071728.94554379 -21756665.51236982 -21756665.51236982 -5051942.579798928 0 0 0 0 0 63928132.85853578 -19960071.90720662 -19960071.90720662 -3455184.374161831 0 0 0 0 0 62286005.62689359 -18032199.10348008 -18032199.10348008 -2009880.343933119 0 0 0 0 0 99314125.23813362 -24715143.54103711 -24715143.54103711 -17566686.61842041 0 0 0 0 0 104480391.3117734 -23155481.32635346 -23155481.32635346 -18050910.04987467 0 0 0 0 0 109481600.687091 -21194615.63995165 -21194615.63995165 -18061406.56419715 0 0 0 0 0 61119884.79643013 -16027762.05236244 -16027762.05236244 -734335.9311175256 0 0 0 0 0 60394415.79547643 -13999666.91203401 -13999666.91203401 364978.0080768618 0 0 0 0 0 60069761.83563122 -11988630.85317315 -11988630.85317315 1293068.462441993 0 0 0 0 0 60096339.42374495 -10026041.32488645 -10026041.32488645 2042081.414598514 0 0 0 0 0 60429217.46773878 -8138606.93458747 -8138606.93458747 2610162.01285493 0 0 0 0 0 62642084.17973182 -8151977.410892514 -8151977.410892514 3194482.648712792 0 0 0 0 0 63379789.23791549 -6542985.895293103 -6542985.895293103 3098139.837687303 0 0 0 0 0 65454271.50695889 -6509893.489021204 -6509893.489021204 3620581.068543493 0 0 0 0 0 69635277.45105006 -3790190.866717843 -3790190.866717843 3266744.443214628 0 0 0 0 0 68561544.21722738 -4488387.956752698 -4488387.956752698 3173372.239121333 0 0 0 0 0 66072919.77349576 -5147800.52989111 -5147800.52989111 3236231.945739179 0 0 0 0 0 67965008.92445779 -5416168.587548182 -5416168.587548182 3222899.219414908 0 0 0 0 0 72054199.15304603 -3744970.508301007 -3744970.508301007 3993770.120619561 0 0 0 0 0 73026508.15915912 -2708924.19417335 -2708924.19417335 4097398.912989832 0 0 0 0 0 73010975.03386429 -2509709.16485923 -2509709.16485923 3307266.781276809 0 0 0 0 0 74114137.18581563 -1793534.126791491 -1793534.126791491 3385143.752065609 0 0 0 0 0 234459018.7480079 -68515978.62096997 -68515978.62096997 34178600.73971282 0 0 0 0 0 205343355.0223723 -52069773.63820694 -52069773.63820694 33296861.88547076 0 0 0 0 0 184181946.4224146 -40577220.02174168 -40577220.02174168 29576031.70872954 0 0 0 0 0 168823739.960012 -33517263.86696816 -33517263.86696816 24803034.08715854 0 0 0 0 0 157902113.4917255 -26706673.45661304 -26706673.45661304 17354239.13493899 0 0 0 0 0 149521576.1920713 -21732476.75799459 -21732476.75799459 10745320.15182948 0 0 0 0 0 143097998.6988145 -18098319.50570888 -18098319.50570888 4316349.603488089 0 0 0 0 0 138090452.8087389 -15759022.13132355 -15759022.13132355 -1231938.261735476 0 0 0 0 0 134044105.1746176 -14391360.32060264 -14391360.32060264 -5732442.718042617 0 0 0 0 0 130611541.5201861 -13670702.78705678 -13670702.78705678 -9249884.037119359 0 0 0 0 0 123970298.7079172 -14350596.44346498 -14350596.44346498 -10638963.16699874 0 0 0 0 0 123173711.943939 -16422841.5905096 -16422841.5905096 -14361290.93665599 0 0 0 0 0 120788703.0364638 -16311158.02548872 -16311158.02548872 -15739450.74470315 0 0 0 0 0 114824777.0832756 -17572889.36271866 -17572889.36271866 -16651387.28217015 0 0 0 0 0 114213720.0352106 -18885311.74182454 -18885311.74182454 -17564734.76022118 0 0 0 0 0 72834234.40921576 -26264827.33600726 -26264827.33600726 -10848736.09198092 0 0 0 0 0 69857949.0810999 -25096586.17655711 -25096586.17655711 -8903279.653290406 0 0 0 0 0 76278399.0375016 -27077796.21945228 -27077796.21945228 -12751289.72911366 0 0 0 0 0 80158320.36668718 -27482972.01612099 -27482972.01612099 -14536112.14291292 0 0 0 0 0 84421098.89134878 -27440421.81093943 -27440421.81093943 -16131678.93706811 0 0 0 0 0 67367119.98454383 -23632410.26381679 -23632410.26381679 -6982033.597260474 0 0 0 0 0 88997770.4822634 -26922788.25448078 -26922788.25448078 -17434540.10689926 0 0 0 0 0 93816006.84079516 -25904051.37119243 -25904051.37119243 -18374178.63598938 0 0 0 0 0 65360089.20445832 -21934421.29065217 -21934421.29065217 -5141178.040219125 0 0 0 0 0 63821919.88881902 -20064835.07512108 -20064835.07512108 -3426046.642751485 0 0 0 0 0 62728074.04979957 -18082138.32248228 -18082138.32248228 -1867464.563774275 0 0 0 0 0 98789576.50370316 -24413144.20042164 -24413144.20042164 -18866020.81942526 0 0 0 0 0 103719952.575969 -22487632.68906718 -22487632.68906718 -18874422.93461483 0 0 0 0 0 108501652.3771569 -20182421.78234039 -20182421.78234039 -18370636.94207986 0 0 0 0 0 62049810.90789815 -16042257.7371152 -16042257.7371152 -483873.8086516268 0 0 0 0 0 61740383.52672686 -13992701.35811135 -13992701.35811135 712367.6631298651 0 0 0 0 0 61768631.25449441 -11970044.50085216 -11970044.50085216 1726242.142280736 0 0 0 0 0 62086448.42576921 -10010180.35579576 -10010180.35579576 2552470.992645058 0 0 0 0 0 62865427.64217156 -8195013.676971564 -8195013.676971564 2645220.464507689 0 0 0 0 0 64813727.01229641 -8164997.032778882 -8164997.032778882 3136493.877657516 0 0 0 0 0 65513219.58453015 -6619402.972668242 -6619402.972668242 3011770.709969268 0 0 0 0 0 71031623.96699055 -4413440.711697837 -4413440.711697837 3916420.162885459 0 0 0 0 0 69914917.83654423 -5414635.47407335 -5414635.47407335 3739954.588166219 0 0 0 0 0 67411832.81881893 -6596902.256697169 -6596902.256697169 3494639.153790953 0 0 0 0 0 69235145.45951131 -6651147.298701564 -6651147.298701564 3385126.831847091 0 0 0 0 0 71353883.597684 -4148378.375601916 -4148378.375601916 3206034.016476009 0 0 0 0 0 72142424.83819802 -3261954.379139265 -3261954.379139265 3270842.337865295 0 0 0 0 0 74245454.28551772 -3219445.717826459 -3219445.717826459 3903039.275512102 0 0 0 0 0 75169298.62231225 -2441962.658328506 -2441962.658328506 3958710.110450012 0 0 0 0 0 212618192.3268844 -58507483.95711886 -58507483.95711886 17815145.63825112 0 0 0 0 0 186324034.0099161 -37616919.31661754 -37616919.31661754 23615718.362821 0 0 0 0 0 171211125.0116328 -30099963.07982482 -30099963.07982482 23300566.83977456 0 0 0 0 0 159597375.6236105 -23752824.25532948 -23752824.25532948 19882581.06418294 0 0 0 0 0 150660311.7018718 -19149295.29684999 -19149295.29684999 14987377.38112033 0 0 0 0 0 144024065.4596428 -15771425.92404306 -15771425.92404306 9809784.639172861 0 0 0 0 0 138950546.5145355 -13343396.657661 -13343396.657661 4852745.971470706 0 0 0 0 0 134894516.6366053 -11870335.58332596 -11870335.58332596 199164.0868453872 0 0 0 0 0 131496289.7746081 -11127399.94790884 -11127399.94790884 -3882041.01957193 0 0 0 0 0 128519588.9087371 -10890464.69597396 -10890464.69597396 -7289427.968379287 0 0 0 0 0 127641875.7691317 -13399601.63916992 -13399601.63916992 -11871913.94616264 0 0 0 0 0 121613969.6094874 -14330024.90565726 -14330024.90565726 -12940881.07860934 0 0 0 0 0 119383163.4580624 -14474470.71399944 -14474470.71399944 -14624909.06379066 0 0 0 0 0 118605969.9101267 -16282208.40520545 -16282208.40520545 -16545930.10824724 0 0 0 0 0 113065577.8107991 -17549155.88927669 -17549155.88927669 -17328277.40951256 0 0 0 0 0 77011291.19960417 -24607276.75387767 -24607276.75387767 -9534560.80879784 0 0 0 0 0 73669552.03538534 -23604157.05786868 -23604157.05786868 -7796555.320095585 0 0 0 0 0 80763824.39651817 -25282449.42270312 -25282449.42270312 -11265526.09592826 0 0 0 0 0 84881460.57863902 -25583443.33786544 -25583443.33786544 -12926217.03743741 0 0 0 0 0 89315456.96521109 -25472939.604655 -25472939.604655 -14445764.44171265 0 0 0 0 0 70769581.75285175 -22323159.6485067 -22323159.6485067 -6105363.534015014 0 0 0 0 0 93947660.8016118 -24939978.94249666 -24939978.94249666 -15761043.30533711 0 0 0 0 0 98714143.76155713 -23969102.48393841 -23969102.48393841 -16785202.88111255 0 0 0 0 0 68327856.43624687 -20818844.92767708 -20818844.92767708 -4502912.787373913 0 0 0 0 0 66347739.84645012 -19145127.01324261 -19145127.01324261 -3020519.146480079 0 0 0 0 0 64816468.64503504 -17354737.89766734 -17354737.89766734 -1681906.024174768 0 0 0 0 0 103462747.4468351 -22577366.62822242 -22577366.62822242 -17477955.42629527 0 0 0 0 0 108092030.4612232 -20804708.85490622 -20804708.85490622 -17749651.63176652 0 0 0 0 0 112510014.4351087 -18692325.84750189 -18692325.84750189 -17562114.28688445 0 0 0 0 0 63705154.38841395 -15499236.62743513 -15499236.62743513 -501880.8410203095 0 0 0 0 0 62996491.21655283 -13620223.30432802 -13620223.30432802 518196.5286142554 0 0 0 0 0 62641403.27931488 -11756237.33545973 -11756237.33545973 1372728.259186063 0 0 0 0 0 62611911.661212 -9939291.059247835 -9939291.059247835 2070394.582797994 0 0 0 0 0 64357010.83113621 -9907646.015998211 -9907646.015998211 2508257.90957787 0 0 0 0 0 65101589.56349893 -8179827.942025186 -8179827.942025186 2618435.541104991 0 0 0 0 0 66840304.86468457 -8133582.205502249 -8133582.205502249 3046315.127670885 0 0 0 0 0 70496545.77935965 -5453444.340131158 -5453444.340131158 3314194.260275757 0 0 0 0 0 69833870.21638179 -5499190.873875828 -5499190.873875828 3254086.449025166 0 0 0 0 0 67494222.87335059 -6683187.476270555 -6683187.476270555 2950831.488844575 0 0 0 0 0 69303364.50012946 -6719588.32922377 -6719588.32922377 2901966.401953672 0 0 0 0 0 73432179.9945832 -4093740.175549857 -4093740.175549857 3784585.282032468 0 0 0 0 0 72590185.74726714 -5349527.194114539 -5349527.194114539 3381982.677831489 0 0 0 0 0 73513907.77631339 -3686907.343057824 -3686907.343057824 3144577.643815603 0 0 0 0 0 74330960.02085872 -2954728.870376473 -2954728.870376473 3197322.922448248 0 0 0 0 0 263370254.5490291 -59942653.89975587 -59942653.89975587 28630035.62117656 0 0 0 0 0 221997763.6988447 -38769154.53025582 -38769154.53025582 27313475.50463109 0 0 0 0 0 191626359.0187425 -34461911.5571642 -34461911.5571642 30314394.25402886 0 0 0 0 0 204956859.1100208 -40086258.56118138 -40086258.56118138 29785298.91878832 0 0 0 0 0 176007870.3301789 -27813078.36834022 -27813078.36834022 26270521.53068002 0 0 0 0 0 164235439.0172708 -22158779.05767589 -22158779.05767589 20159248.22175428 0 0 0 0 0 155293470.3779988 -17849205.6016397 -17849205.6016397 13876621.59512144 0 0 0 0 0 148326244.8322826 -14721589.72089111 -14721589.72089111 8046287.234537355 0 0 0 0 0 142788677.2007922 -12545948.28139589 -12545948.28139589 2625399.459541155 0 0 0 0 0 138306493.8652881 -11221931.98056592 -11221931.98056592 -2055396.171913075 0 0 0 0 0 134556830.3790624 -10545523.68565783 -10545523.68565783 -5903741.849658801 0 0 0 0 0 131325224.9989764 -10316677.23755199 -10316677.23755199 -8953739.603574146 0 0 0 0 0 125850796.8732989 -10983539.59797347 -10983539.59797347 -10019666.73654315 0 0 0 0 0 124959175.9759137 -13374266.03203805 -13374266.03203805 -13741579.87677708 0 0 0 0 0 122536640.3037816 -13489436.06886058 -13489436.06886058 -14986351.24505427 0 0 0 0 0 117333627.411168 -14667487.95222376 -14667487.95222376 -15740597.08350807 0 0 0 0 0 116607692.276701 -16280823.94001328 -16280823.94001328 -16894844.33719989 0 0 0 0 0 77632255.60775113 -25801387.10649091 -25801387.10649091 -11801686.64277386 0 0 0 0 0 74489114.48762637 -25002368.94977476 -25002368.94977476 -9978291.167371806 0 0 0 0 0 71767172.50376405 -23888288.24054946 -23888288.24054946 -8138366.821130295 0 0 0 0 0 81168177.85180309 -26236029.0565505 -26236029.0565505 -13542028.06618187 0 0 0 0 0 85055548.63416275 -26266925.69625453 -26266925.69625453 -15135232.85263548 0 0 0 0 0 89256450.20187525 -25863560.75721733 -25863560.75721733 -16514664.36379454 0 0 0 0 0 69482763.46191867 -22512592.61489519 -22512592.61489519 -6338130.704255927 0 0 0 0 0 93666486.77582681 -25009019.60877484 -25009019.60877484 -17566688.42212081 0 0 0 0 0 98199338.32514198 -23713766.89986501 -23713766.89986501 -18245972.57823684 0 0 0 0 0 67626189.28315268 -20930720.27280304 -20930720.27280304 -4625372.064187078 0 0 0 0 0 66184644.17209389 -19196956.14373884 -19196956.14373884 -3034962.346903867 0 0 0 0 0 65145881.67042774 -17362998.18100479 -17362998.18100479 -1591580.828061691 0 0 0 0 0 102748213.5491669 -21998377.24732234 -21998377.24732234 -18494840.01630202 0 0 0 0 0 107195944.9590175 -19910671.83356191 -19910671.83356191 -18285350.25726018 0 0 0 0 0 111448173.2739334 -17497626.34630727 -17497626.34630727 -17586223.92735064 0 0 0 0 0 64480718.49573657 -15480595.22241318 -15480595.22241318 -309513.0903492842 0 0 0 0 0 64156759.1325504 -13584647.91279311 -13584647.91279311 801284.7769881998 0 0 0 0 0 64132736.38457184 -11716995.85983229 -11716995.85983229 1740209.990799177 0 0 0 0 0 64925675.45668864 -9810932.685429974 -9810932.685429974 2086184.783727491 0 0 0 0 0 66455057.0912921 -9757004.499100054 -9757004.499100054 2454392.922925955 0 0 0 0 0 67163601.20524019 -8128008.847956185 -8128008.847956185 2565993.555051124 0 0 0 0 0 71391924.56652237 -5438224.502553363 -5438224.502553363 3182877.285132029 0 0 0 0 0 70704491.75667545 -6653926.195459413 -6653926.195459413 3214997.093956788 0 0 0 0 0 68705838.50163825 -8074956.118380887 -8074956.118380887 2938694.74462592 0 0 0 0 0 70395420.37979643 -7966492.18130111 -7966492.18130111 2822302.600808804 0 0 0 0 0 72819774.37397459 -4453685.552563296 -4453685.552563296 3046266.621858383 0 0 0 0 0 72670245.21048406 -5460250.682652589 -5460250.682652589 2923567.748438708 0 0 0 0 0 75467140.21081343 -3654956.02349351 -3654956.02349351 3728391.685332541 0 0 0 0 0 74745599.45843683 -4440231.511381755 -4440231.511381755 3599602.16079969 0 0 0 0 0 229324553.7219581 -46501233.36996756 -46501233.36996756 12750460.24613854 0 0 0 0 0 206763216.9547294 -35695943.57244429 -35695943.57244429 21730221.32448682 0 0 0 0 0 178092801.824211 -22630978.45444222 -22630978.45444222 23939055.12627527 0 0 0 0 0 194057213.8271865 -24593393.47782416 -24593393.47782416 24261653.23606534 0 0 0 0 0 166447589.1402719 -17908090.5823793 -17908090.5823793 22333902.63053291 0 0 0 0 0 156782188.0867251 -14235197.80486882 -14235197.80486882 18343184.54946545 0 0 0 0 0 149543041.8291623 -11487025.03313071 -11487025.03313071 13597794.08999637 0 0 0 0 0 143828871.6628707 -9545553.843292912 -9545553.843292912 8780367.213262999 0 0 0 0 0 139286068.0732467 -8281500.35382077 -8281500.35382077 4204201.427266487 0 0 0 0 0 135517293.3243054 -7645738.909707609 -7645738.909707609 11685.78370241381 0 0 0 0 0 132274424.9493601 -7490799.308073504 -7490799.308073504 -3648432.048691534 0 0 0 0 0 129402628.4466832 -7671243.247205704 -7671243.247205704 -6717944.949698713 0 0 0 0 0 128469351.5160881 -10382950.17670724 -10382950.17670724 -11265924.24028185 0 0 0 0 0 123407837.7360078 -11261852.01523808 -11261852.01523808 -12109869.06033483 0 0 0 0 0 121147702.6683326 -11629912.17829975 -11629912.17829975 -13646311.24217016 0 0 0 0 0 120301685.0505305 -13667784.15216486 -13667784.15216486 -15750571.42622444 0 0 0 0 0 115429578.1042851 -14847616.13431454 -14847616.13431454 -16389423.51970494 0 0 0 0 0 81743978.73379453 -24144300.94072072 -24144300.94072072 -10388933.07504188 0 0 0 0 0 78321840.59302798 -23475388.4784096 -23475388.4784096 -8742163.002172071 0 0 0 0 0 75269984.50020365 -22513505.58462108 -22513505.58462108 -7106239.044505095 0 0 0 0 0 85491560.7790558 -24480113.85627554 -24480113.85627554 -11994304.429346 0 0 0 0 0 89526550.803772 -24448950.90316714 -24448950.90316714 -13497365.42782205 0 0 0 0 0 93808368.80467184 -24021649.16244141 -24021649.16244141 -14837709.6168301 0 0 0 0 0 72616017.61000369 -21304865.69779374 -21304865.69779374 -5526272.424247298 0 0 0 0 0 98176613.41788998 -23177952.76717576 -23177952.76717576 -15940702.41719954 0 0 0 0 0 102521868.0991427 -21971650.89511799 -21971650.89511799 -16765440.10269503 0 0 0 0 0 70375657.4046735 -19898043.21562926 -19898043.21562926 -4033993.471600171 0 0 0 0 0 68545985.26731107 -18338985.54210545 -18338985.54210545 -2655235.339707174 0 0 0 0 0 67116445.34992017 -16677791.60281928 -16677791.60281928 -1414426.467873998 0 0 0 0 0 106796686.4889601 -20386653.6152906 -20386653.6152906 -17236376.23930584 0 0 0 0 0 110906239.2064728 -18482172.8284339 -18482172.8284339 -17304561.32022674 0 0 0 0 0 114767230.0518239 -16270586.75096851 -16270586.75096851 -16920146.38978308 0 0 0 0 0 66061181.75946366 -14960750.08060445 -14960750.08060445 -321619.2747324398 0 0 0 0 0 65366983.6117435 -13221672.55165099 -13221672.55165099 622343.2133379424 0 0 0 0 0 64999202.68790625 -11498082.22903964 -11498082.22903964 1419162.358986238 0 0 0 0 0 66291033.40401376 -11442583.94804735 -11442583.94804735 1724502.771794277 0 0 0 0 0 67051623.11273313 -9642233.6387452 -9642233.6387452 2072406.173017626 0 0 0 0 0 68393620.52429689 -9577895.958131686 -9577895.958131686 2382254.565810826 0 0 0 0 0 72220237.04455481 -6630151.873265192 -6630151.873265192 3039840.003057883 0 0 0 0 0 70999623.50534484 -6657428.229477476 -6657428.229477476 2733637.277944196 0 0 0 0 0 69053564.05620217 -8049387.767940234 -8049387.767940234 2516601.797020273 0 0 0 0 0 70808180.18536212 -7918294.096782936 -7918294.096782936 2411222.701125791 0 0 0 0 0 74131243.71906875 -5405379.541106476 -5405379.541106476 3249189.726122614 0 0 0 0 0 73673465.97407311 -6539335.062300414 -6539335.062300414 2947492.612838192 0 0 0 0 0 74791818.11062831 -4081148.897390163 -4081148.897390163 2962455.888868034 0 0 0 0 0 74160405.45576766 -4795091.074029457 -4795091.074029457 2890027.719154567 0 0 0 0 0 282692101.0366842 -44714688.46260794 -44714688.46260794 22882742.91237154 0 0 0 0 0 240491527.4701793 -34270196.82736138 -34270196.82736138 26281844.4919885 0 0 0 0 0 215738290.5444206 -26874930.89029162 -26874930.89029162 30689358.35617987 0 0 0 0 0 178848051.9175598 -21572158.88916974 -21572158.88916974 27568406.53146244 0 0 0 0 0 190365376.6805572 -24919529.34667129 -24919529.34667129 28359596.84007127 0 0 0 0 0 167705117.2338376 -17376982.41825007 -17376982.41825007 22893101.74659801 0 0 0 0 0 158827381.8968959 -13786067.08783172 -13786067.08783172 17264769.26865 0 0 0 0 0 151806711.3340379 -11135630.99013562 -11135630.99013562 11723268.77319545 0 0 0 0 0 146125462.2798733 -9266194.165590441 -9266194.165590441 6522693.358481028 0 0 0 0 0 141461927.6157243 -8073202.349379844 -8073202.349379844 1794723.147786373 0 0 0 0 0 137555620.1602868 -7459486.384243079 -7459486.384243079 -2287652.013055131 0 0 0 0 0 134200174.8258828 -7284194.884159112 -7284194.884159112 -5675713.570551825 0 0 0 0 0 131246554.7347078 -7416699.127087617 -7416699.127087617 -8389565.840160433 0 0 0 0 0 126802640.0518745 -8061836.658802622 -8061836.658802622 -9198210.404273175 0 0 0 0 0 125884495.0120073 -10614913.14611851 -10614913.14611851 -12952567.70442171 0 0 0 0 0 123502906.8038165 -10949172.34167328 -10949172.34167328 -14141463.08548966 0 0 0 0 0 119049380.955079 -12005546.28374397 -12005546.28374397 -14685637.07363732 0 0 0 0 0 118269599.7053283 -13840801.03155596 -13840801.03155596 -16100939.7549478 0 0 0 0 0 78863167.85511857 -24560008.08748441 -24560008.08748441 -10915501.37502308 0 0 0 0 0 82089541.14618248 -25014951.1930718 -25014951.1930718 -12592583.9647353 0 0 0 0 0 75992654.99064073 -23781107.27484491 -23781107.27484491 -9183467.677865157 0 0 0 0 0 73502688.77761135 -22722353.43256449 -22722353.43256449 -7453069.834514574 0 0 0 0 0 85631133.57359518 -25110691.79216934 -25110691.79216934 -14155727.42968684 0 0 0 0 0 89441778.701325 -24815325.97430435 -24815325.97430435 -15543741.02893451 0 0 0 0 0 93489648.44879545 -24093540.04526787 -24093540.04526787 -16681678.51075337 0 0 0 0 0 71400304.97676426 -21432856.05987083 -21432856.05987083 -5773225.010027959 0 0 0 0 0 97691681.9649736 -22973550.86245037 -22973550.86245037 -17487277.04495253 0 0 0 0 0 101846423.7871762 -21467713.85004856 -21467713.85004856 -17923197.80838346 0 0 0 0 0 69678985.52487755 -19960840.34447203 -19960840.34447203 -4181416.530816343 0 0 0 0 0 68331093.70844147 -18352483.07529727 -18352483.07529727 -2703787.308145089 0 0 0 0 0 67349086.77343327 -16657215.86538632 -16657215.86538632 -1365721.545358517 0 0 0 0 0 105971019.3702779 -19610869.54163661 -19610869.54163661 -17952687.70575206 0 0 0 0 0 109937573.0629165 -17424120.29830878 -17424120.29830878 -17548265.69971054 0 0 0 0 0 113684968.6342235 -14984293.29761304 -14984293.29761304 -16684815.56680202 0 0 0 0 0 66706748.75349966 -14916251.97153232 -14916251.97153232 -178599.0143035846 0 0 0 0 0 66368942.83396462 -13167736.56234063 -13167736.56234063 852873.7450716938 0 0 0 0 0 67163179.01691256 -11214544.38396643 -11214544.38396643 1447711.664902333 0 0 0 0 0 68276648.68397616 -11144213.0520119 -11144213.0520119 1696863.530360491 0 0 0 0 0 68984263.34147201 -9457790.830170995 -9457790.830170995 2031796.606312991 0 0 0 0 0 72593897.64244328 -6620214.17052336 -6620214.17052336 2743525.205756534 0 0 0 0 0 72009399.19495216 -7845994.121301971 -7845994.121301971 2685278.019063722 0 0 0 0 0 70181382.2622541 -9378895.725594431 -9378895.725594431 2299240.538755203 0 0 0 0 0 71820224.62941645 -9164926.68679974 -9164926.68679974 2195862.212309002 0 0 0 0 0 73868046.19979385 -5617722.39302903 -5617722.39302903 2736195.805469743 0 0 0 0 0 74021433.65351278 -6538030.83485581 -6538030.83485581 2597239.531665251 0 0 0 0 0 76007173.05971427 -4770154.782231575 -4770154.782231575 3440087.326590101 0 0 0 0 0 75601491.75385566 -5580731.450449097 -5580731.450449097 3217007.784640199 0 0 0 0 0 241929140.367221 -32043986.76337348 -32043986.76337348 6520040.292793915 0 0 0 0 0 215034674.6593854 -26952630.85912331 -26952630.85912331 18595701.1183278 0 0 0 0 0 195695599.1863066 -19720863.94702834 -19720863.94702834 26532822.60470981 0 0 0 0 0 169483041.4060113 -12468609.98898811 -12468609.98898811 24755462.60042497 0 0 0 0 0 183488135.5729031 -13925012.94691502 -13925012.94691502 27458576.09741835 0 0 0 0 0 160441775.8100746 -9632783.072016086 -9632783.072016086 21495226.14016386 0 0 0 0 0 153152970.129066 -7433390.8184658 -7433390.8184658 17391927.22658601 0 0 0 0 0 147282784.7764993 -5860796.152127961 -5860796.152127961 12816466.63410085 0 0 0 0 0 142514418.4805954 -4848651.216438812 -4848651.216438812 8289174.595381781 0 0 0 0 0 138559950.5359246 -4334879.154480558 -4334879.154480558 4042918.298067553 0 0 0 0 0 135178996.2401036 -4251897.050762942 -4251897.050762942 203722.2268629854 0 0 0 0 0 132206423.1195487 -4495762.873696046 -4495762.873696046 -3141707.255986061 0 0 0 0 0 129533537.7391993 -4963144.496519044 -4963144.496519044 -5959137.140856862 0 0 0 0 0 128585156.6240068 -7749267.286225989 -7749267.286225989 -10496289.44626122 0 0 0 0 0 124412847.7453897 -8560152.26064566 -8560152.26064566 -11127485.70357201 0 0 0 0 0 122203951.3845148 -9108512.09205028 -9108512.09205028 -12567950.69185498 0 0 0 0 0 121333798.4427859 -11285654.50429513 -11285654.50429513 -14851639.63131837 0 0 0 0 0 117105486.8144762 -12364427.72667979 -12364427.72667979 -15358265.25314844 0 0 0 0 0 82635359.78718267 -23032881.6186653 -23032881.6186653 -9586327.411180012 0 0 0 0 0 86058058.4144703 -23392233.64862434 -23392233.64862434 -11122014.7812228 0 0 0 0 0 79510773.13524792 -22375084.34942752 -22375084.34942752 -8029159.442431129 0 0 0 0 0 76722194.08674659 -21456161.14927086 -21456161.14927086 -6495153.348274721 0 0 0 0 0 89733341.67911868 -23422091.59332133 -23422091.59332133 -12584224.38388884 0 0 0 0 0 93609809.92694935 -23096231.85220537 -23096231.85220537 -13915558.26759826 0 0 0 0 0 97640614.6169672 -22399622.91700115 -22399622.91700115 -15058883.31843814 0 0 0 0 0 74292703.64869395 -20318165.66840412 -20318165.66840412 -5020172.720394662 0 0 0 0 0 101671913.090322 -21333765.79923363 -21333765.79923363 -15983639.63647966 0 0 0 0 0 105616733.7140167 -19933282.8995428 -19933282.8995428 -16579774.21907922 0 0 0 0 0 72231677.19831349 -19002609.62140285 -19002609.62140285 -3631155.858031429 0 0 0 0 0 70532492.03924598 -17553117.51797511 -17553117.51797511 -2352073.560608449 0 0 0 0 0 69194505.39443837 -16013880.34165843 -16013880.34165843 -1200350.478334934 0 0 0 0 0 109428048.0072327 -18230161.78632833 -18230161.78632833 -16847223.79548634 0 0 0 0 0 113056263.5614854 -16224802.28891562 -16224802.28891562 -16709005.93861792 0 0 0 0 0 116383342.3200252 -13988204.99030135 -13988204.99030135 -16173132.76738022 0 0 0 0 0 68207248.75069563 -14422028.5203679 -14422028.5203679 -185032.3723148043 0 0 0 0 0 67533443.31984831 -12815416.12222875 -12815416.12222875 693408.6010800374 0 0 0 0 0 68391494.765559 -12745662.39575494 -12745662.39575494 877369.5217082563 0 0 0 0 0 69132714.77665506 -10915841.7478301 -10915841.7478301 1444485.950036767 0 0 0 0 0 70128108.48730251 -10830104.1698381 -10830104.1698381 1657697.988365596 0 0 0 0 0 73458748.35201541 -7730241.325870568 -7730241.325870568 2554306.526747515 0 0 0 0 0 72454872.10049205 -7775964.687146434 -7775964.687146434 2331147.003772328 0 0 0 0 0 70774331.22819202 -9253291.161827689 -9253291.161827689 1969441.680957558 0 0 0 0 0 72462014.39274837 -9021393.087470485 -9021393.087470485 1917000.036218335 0 0 0 0 0 74906417.23948713 -6423921.926578575 -6423921.926578575 2710450.795883276 0 0 0 0 0 74848846.66476981 -7577923.891289097 -7577923.891289097 2480540.087405822 0 0 0 0 0 75368003.62197225 -5169670.389349286 -5169670.389349286 2649108.709605018 0 0 0 0 0 74885075.1451056 -6000210.341385952 -6000210.341385952 2442334.880982467 0 0 0 0 0 290489602.584731 -29356946.35641571 -29356946.35641571 15925051.84209705 0 0 0 0 0 251349724.1033359 -24990928.39380832 -24990928.39380832 26390011.47609977 0 0 0 0 0 222754071.8469368 -19895105.26935451 -19895105.26935451 31499481.60317346 0 0 0 0 0 199808017.9408832 -14990053.02398522 -14990053.02398522 31035978.61582819 0 0 0 0 0 178638714.9573194 -14786735.03478277 -14786735.03478277 28220356.53926244 0 0 0 0 0 168600094.6974263 -12673198.3072468 -12673198.3072468 25210968.12843794 0 0 0 0 0 180156798.1864698 -14409283.73345274 -14409283.73345274 28165334.02718849 0 0 0 0 0 160261169.5909035 -9888471.936774882 -9888471.936774882 20565485.44436803 0 0 0 0 0 153585245.4714478 -7699964.433419918 -7699964.433419918 15452674.39934813 0 0 0 0 0 148069949.9241733 -6107118.736220883 -6107118.736220883 10419622.70783384 0 0 0 0 0 143471804.8913398 -5074853.600243973 -5074853.600243973 5725706.312597369 0 0 0 0 0 139581617.0438585 -4534540.65910685 -4534540.65910685 1506093.300245539 0 0 0 0 0 136230966.5700876 -4401194.888046317 -4401194.888046317 -2142218.822596834 0 0 0 0 0 133283565.3620739 -4574380.701467679 -4574380.701467679 -5191181.308345193 0 0 0 0 0 130634736.7119726 -4961576.47211385 -4961576.47211385 -7667849.663356067 0 0 0 0 0 127089020.0786228 -5565832.319008716 -5565832.319008716 -8259894.153940856 0 0 0 0 0 126159355.8913488 -8185474.116908177 -8185474.116908177 -12066880.21766066 0 0 0 0 0 123921176.4198924 -8655943.408881303 -8655943.408881303 -13162167.47867674 0 0 0 0 0 120124327.6479817 -9652055.545305446 -9652055.545305446 -13618121.37560345 0 0 0 0 0 119335025.5304916 -11601984.47779853 -11601984.47779853 -15227073.64990844 0 0 0 0 0 79988897.27644882 -23365082.35942277 -23365082.35942277 -10096979.21075362 0 0 0 0 0 82934700.44269514 -23831431.08838268 -23831431.08838268 -11699282.54655199 0 0 0 0 0 86169313.75297475 -23975453.48071884 -23975453.48071884 -13215081.37697094 0 0 0 0 0 77365621.39697671 -22609875.50517169 -22609875.50517169 -8460811.360171443 0 0 0 0 0 75083201.97955666 -21606969.1067704 -21606969.1067704 -6839850.034614242 0 0 0 0 0 89650844.50716169 -23768338.55131691 -23768338.55131691 -14585602.65211484 0 0 0 0 0 93332809.12283158 -23196321.28731536 -23196321.28731536 -15768495.39080526 0 0 0 0 0 97163964.58463219 -22225110.26314398 -22225110.26314398 -16656595.11925596 0 0 0 0 0 73145066.77047563 -20399375.50567701 -20399375.50567701 -5274498.489755971 0 0 0 0 0 101043114.0519981 -20900012.92733626 -20900012.92733626 -17228988.62889151 0 0 0 0 0 104846940.014802 -19262132.13307436 -19262132.13307436 -17451381.64705069 0 0 0 0 0 71555544.78288391 -19028845.82117779 -19028845.82117779 -3793120.029229908 0 0 0 0 0 70306881.83292733 -17536272.92972133 -17536272.92972133 -2420090.848530243 0 0 0 0 0 69374177.40506005 -15968845.74777022 -15968845.74777022 -1178596.872573456 0 0 0 0 0 108535964.9227391 -17307203.95883312 -17307203.95883312 -17292185.64600918 0 0 0 0 0 112068485.184411 -15079100.03585522 -15079100.03585522 -16703207.35968819 0 0 0 0 0 115322414.5285724 -12662360.09469832 -12662360.09469832 -15692830.67802505 0 0 0 0 0 68750130.69502144 -14360031.2109865 -14360031.2109865 -78987.28814671827 0 0 0 0 0 69520703.74501227 -12401607.7747926 -12401607.7747926 741551.9972140676 0 0 0 0 0 70261833.54436468 -12320070.78203269 -12320070.78203269 888812.2652903518 0 0 0 0 0 70945672.05790746 -10611175.69154089 -10611175.69154089 1419531.383518878 0 0 0 0 0 73910456.89847732 -7640779.573493105 -7640779.573493105 2279137.551407927 0 0 0 0 0 73320403.69754826 -8936919.992235672 -8936919.992235672 2088725.441509599 0 0 0 0 0 71821752.22331944 -10519661.67560633 -10519661.67560633 1599553.64947213 0 0 0 0 0 73339737.66275644 -10205676.66749427 -10205676.66749427 1525640.645062086 0 0 0 0 0 75839532.13442366 -6288069.978139964 -6288069.978139964 2777813.114744732 0 0 0 0 0 75335993.37176703 -7456272.635909995 -7456272.635909995 2291997.124895124 0 0 0 0 0 76682697.5485522 -5872260.908383058 -5872260.908383058 2997086.841164068 0 0 0 0 0 255469828.0683061 -18812418.31314376 -18812418.31314376 -150570.3237259934 0 0 0 0 0 220796994.153124 -16278582.52843379 -16278582.52843379 20241339.06561202 0 0 0 0 0 200171410.0199504 -13952701.52954799 -13952701.52954799 27476706.29317927 0 0 0 0 0 184689347.2609153 -9785882.725556785 -9785882.725556785 30611894.21212817 0 0 0 0 0 168864237.7380155 -8034866.982534789 -8034866.982534789 26886706.88180593 0 0 0 0 0 162029198.0294928 -5492802.700083666 -5492802.700083666 24268159.55986409 0 0 0 0 0 182073081.9358817 -9226709.113433285 -9226709.113433285 30272458.90304204 0 0 0 0 0 154963748.064635 -3867897.677010005 -3867897.677010005 20952835.25403536 0 0 0 0 0 149246165.8347544 -2580943.876636637 -2580943.876636637 16727117.31227365 0 0 0 0 0 144534478.5235913 -1738285.12680474 -1738285.12680474 12346716.7032705 0 0 0 0 0 140579403.961114 -1325713.66286716 -1325713.66286716 8096831.250847343 0 0 0 0 0 137196536.9243223 -1288480.130124161 -1288480.130124161 4147661.773070435 0 0 0 0 0 134229643.230284 -1561693.838674072 -1561693.838674072 599128.6730957498 0 0 0 0 0 131569549.4122229 -2063818.752658717 -2063818.752658717 -2495096.255160967 0 0 0 0 0 129142906.5820473 -2720361.677099515 -2720361.677099515 -5114788.531333453 0 0 0 0 0 128214228.8020954 -5479315.382849414 -5479315.382849414 -9619036.720990179 0 0 0 0 0 124820112.868136 -6235765.31999333 -6235765.31999333 -10084151.80388261 0 0 0 0 0 122704259.7319583 -6910678.566627582 -6910678.566627582 -11475813.2704943 0 0 0 0 0 121859692.2659547 -9128131.532371344 -9128131.532371344 -13879455.70667457 0 0 0 0 0 118225377.0517989 -10131933.18168305 -10131933.18168305 -14283009.42473967 0 0 0 0 0 83451989.62108137 -21957994.07673474 -21957994.07673474 -8853978.082290934 0 0 0 0 0 86580007.66859698 -22333266.78516335 -22333266.78516335 -10313245.52550906 0 0 0 0 0 89939419.11486675 -22412364.10056457 -22412364.10056457 -11721065.64827414 0 0 0 0 0 80596632.9871379 -21315633.72194512 -21315633.72194512 -7387795.907589927 0 0 0 0 0 78045995.76754569 -20440074.52697357 -20440074.52697357 -5951256.546312813 0 0 0 0 0 93479205.71099788 -22173488.86102958 -22173488.86102958 -13028836.96280258 0 0 0 0 0 97164351.35524523 -21600116.03511189 -21600116.03511189 -14187144.35909358 0 0 0 0 0 100869845.953302 -20684578.99831868 -20684578.99831868 -15140513.22734004 0 0 0 0 0 75819055.83886875 -19369128.77661696 -19369128.77661696 -4573607.679848801 0 0 0 0 0 104553583.3888112 -19451868.97613451 -19451868.97613451 -15850502.00050692 0 0 0 0 0 108106145.6025131 -17918129.88442025 -17918129.88442025 -16252964.17408564 0 0 0 0 0 73918343.73326421 -18142130.13272813 -18142130.13272813 -3283842.774577579 0 0 0 0 0 72345739.31789923 -16795334.8943276 -16795334.8943276 -2099396.62658125 0 0 0 0 0 71096674.65272728 -15368901.69573943 -15368901.69573943 -1030038.343444705 0 0 0 0 0 111502008.6242443 -16122718.21284874 -16122718.21284874 -16313573.18703641 0 0 0 0 0 114653548.8416838 -14086782.75272174 -14086782.75272174 -16016045.91291186 0 0 0 0 0 117489688.4544658 -11873926.26981805 -11873926.26981805 -15337206.2262859 0 0 0 0 0 70162534.76629429 -13894669.08756717 -13894669.08756717 -83829.05622386929 0 0 0 0 0 70620506.9599085 -13819186.21073392 -13819186.21073392 -6566.023568220227 0 0 0 0 0 71331809.6311413 -11993905.70621308 -11993905.70621308 763150.284611177 0 0 0 0 0 71978173.49130496 -11901284.38671988 -11901284.38671988 881439.2576940214 0 0 0 0 0 74781158.82798629 -8700928.185943687 -8700928.185943687 2018588.601191916 0 0 0 0 0 73957910.57748556 -8786201.517920911 -8786201.517920911 1849816.922811836 0 0 0 0 0 72636612.31233191 -10294843.51045162 -10294843.51045162 1395293.42567756 0 0 0 0 0 74162965.82063253 -9972759.158779606 -9972759.158779606 1361126.143282077 0 0 0 0 0 75728049.00606252 -7329318.964294295 -7329318.964294295 2299413.48341404 0 0 0 0 0 76149500.75015393 -8459126.31035536 -8459126.31035536 1941350.295260817 0 0 0 0 0 76210408.31880565 -6168083.671747134 -6168083.671747134 2311743.18084324 0 0 0 0 0 305591946.1418427 -13891242.51469402 -13891242.51469402 14029190.34120731 0 0 0 0 0 255544235.8190105 -9410142.406993696 -9410142.406993696 20012503.42574954 0 0 0 0 0 236130741.3850092 -15584279.02631723 -15584279.02631723 24899894.29359353 0 0 0 0 0 225571159.4954922 -13699576.53649963 -13699576.53649963 32896750.86043699 0 0 0 0 0 203532342.7868918 -10636550.13984922 -10636550.13984922 33278204.82221748 0 0 0 0 0 185751522.730315 -8955828.980711207 -8955828.980711207 32525105.78923745 0 0 0 0 0 168701202.2869144 -8080282.477702378 -8080282.477702378 27408994.37201367 0 0 0 0 0 159974756.0578359 -6318723.626026892 -6318723.626026892 23580758.35120688 0 0 0 0 0 172406224.7607687 -7721268.403289936 -7721268.403289936 30900549.91571109 0 0 0 0 0 153895982.20558 -4625023.887383333 -4625023.887383333 19041348.61600744 0 0 0 0 0 148743249.7524844 -3266646.016113143 -3266646.016113143 14269134.51740969 0 0 0 0 0 144380904.6253129 -2359923.299185592 -2359923.299185592 9648147.221930699 0 0 0 0 0 140655339.4221246 -1878527.862340366 -1878527.862340366 5369985.553021285 0 0 0 0 0 137428307.8400506 -1763970.32783333 -1763970.32783333 1543782.595849573 0 0 0 0 0 134580777.8462913 -1947773.698315669 -1947773.698315669 -1771615.846282193 0 0 0 0 0 132022914.1822516 -2352134.61015447 -2352134.61015447 -4562680.135738204 0 0 0 0 0 129680653.3468963 -2910433.034243864 -2910433.034243864 -6857032.045539838 0 0 0 0 0 126894267.3484832 -3464853.610570571 -3464853.610570571 -7279189.826645244 0 0 0 0 0 125993168.1853396 -6057341.507574641 -6057341.507574641 -11087662.54865188 0 0 0 0 0 123921168.8807188 -6648832.459487362 -6648832.459487362 -12158647.27005247 0 0 0 0 0 120734063.7954825 -7552809.036373933 -7552809.036373933 -12487186.26864491 0 0 0 0 0 119946570.6226265 -9568439.31435184 -9568439.31435184 -14288132.77124641 0 0 0 0 0 81022028.29200026 -22222707.8430411 -22222707.8430411 -9344628.001436817 0 0 0 0 0 83714603.4704248 -22693688.77879682 -22693688.77879682 -10865621.21476235 0 0 0 0 0 86671948.87853533 -22876237.71533322 -22876237.71533322 -12322902.82037114 0 0 0 0 0 89857190.8838038 -22745265.23916334 -22745265.23916334 -13665890.41166301 0 0 0 0 0 78621545.51977813 -21494470.7086535 -21494470.7086535 -7805626.787191278 0 0 0 0 0 76523909.67840599 -20545776.66219173 -20545776.66219173 -6290252.905537105 0 0 0 0 0 93222847.79706098 -22284697.35488743 -22284697.35488743 -14848480.41748746 0 0 0 0 0 96726850.07937002 -21467651.88960676 -21467651.88960676 -15792927.74009185 0 0 0 0 0 100287182.6835823 -20325275.00948802 -20325275.00948802 -16481260.51096787 0 0 0 0 0 74740229.71323486 -19414949.8464417 -19414949.8464417 -4829427.160037298 0 0 0 0 0 103833521.5150348 -18855372.40825211 -18855372.40825211 -16840021.21691954 0 0 0 0 0 107271033.5066694 -17123824.89075267 -17123824.89075267 -16876622.80965289 0 0 0 0 0 73271997.68150571 -18139676.33354012 -18139676.33354012 -3453585.172064525 0 0 0 0 0 72109880.50019567 -16757865.10069517 -16757865.10069517 -2181249.954750837 0 0 0 0 0 71235296.50080533 -15304923.49331531 -15304923.49331531 -1028524.428181684 0 0 0 0 0 110571881.9490032 -15116445.48032762 -15116445.48032762 -16524234.53087236 0 0 0 0 0 113663478.6195472 -12900101.36493357 -12900101.36493357 -15782458.23833649 0 0 0 0 0 116455406.7307455 -10554619.93653278 -10554619.93653278 -14661011.57670511 0 0 0 0 0 71957262.67987818 -13377836.38639742 -13377836.38639742 -5795.114886771551 0 0 0 0 0 72345155.12023444 -13291590.67447602 -13291590.67447602 49511.60991988204 0 0 0 0 0 73024522.15461393 -11578936.97242773 -11578936.97242773 784017.9972095434 0 0 0 0 0 75319259.27734052 -8577100.629679877 -8577100.629679877 1774985.858058075 0 0 0 0 0 74789755.37693308 -9879788.541784795 -9879788.541784795 1468485.112407907 0 0 0 0 0 73519790.54598501 -11485864.52144478 -11485864.52144478 857290.1807990941 0 0 0 0 0 74976016.06651196 -11076171.13131122 -11076171.13131122 841146.9198402398 0 0 0 0 0 77007015.69721536 -7147976.069613184 -7147976.069613184 2344057.791804507 0 0 0 0 0 76365744.02095112 -8444453.920807401 -8444453.920807401 1488196.773570453 0 0 0 0 0 77211061.88321488 -6999185.367259202 -6999185.367259202 2301737.481774469 0 0 0 0 0 263118640.1567651 -572971.2403364446 -572971.2403364446 9556294.020379873 0 0 0 0 0 255017926.1218324 -9949445.161356475 -9949445.161356475 19942098.46233383 0 0 0 0 0 223610616.2377363 -6296702.533014469 -6296702.533014469 28857425.52558292 0 0 0 0 0 204381745.0583641 -9672052.423089534 -9672052.423089534 27278970.50353446 0 0 0 0 0 187655426.4237711 -7436661.54973896 -7436661.54973896 30893766.68561121 0 0 0 0 0 176051318.9962998 -3247009.368942547 -3247009.368942547 32920835.19055345 0 0 0 0 0 161799908.6691532 -2027774.92946794 -2027774.92946794 27881098.97229286 0 0 0 0 0 155230388.7617165 -837657.361195673 -837657.361195673 24323947.56590601 0 0 0 0 0 172261029.9914593 -2931668.006402213 -2931668.006402213 31041310.59128067 0 0 0 0 0 149868359.2316161 174086.3213092969 174086.3213092969 20372250.97066995 0 0 0 0 0 145388295.3518824 900000.9040284413 900000.9040284413 16218769.98422129 0 0 0 0 0 141601937.6328807 1270964.053977822 1270964.053977822 12051246.36670428 0 0 0 0 0 138340304.8961925 1301389.909177129 1301389.909177129 8064897.85018864 0 0 0 0 0 135475663.6350511 1040496.60363645 1040496.60363645 4385074.957674361 0 0 0 0 0 132908905.9590556 547313.9780073353 547313.9780073353 1088359.06745756 0 0 0 0 0 130565687.7587464 -113542.9190985493 -113542.9190985493 -1793458.206799368 0 0 0 0 0 128397688.4335581 -884501.3445971393 -884501.3445971393 -4249517.221677768 0 0 0 0 0 127523854.7281941 -3550249.884266364 -3550249.884266364 -8676632.14490713 0 0 0 0 0 124784442.3954057 -4245907.087703804 -4245907.087703804 -9019678.801557127 0 0 0 0 0 122813806.3767626 -5007734.061982002 -5007734.061982002 -10363340.09624656 0 0 0 0 0 121996687.458195 -7218154.152871337 -7218154.152871337 -12873416.68308728 0 0 0 0 0 118902991.3397637 -8139700.415167515 -8139700.415167515 -13180922.43018948 0 0 0 0 0 84204414.81285524 -20926662.23421939 -20926662.23421939 -8187153.821542697 0 0 0 0 0 87066241.91789298 -21311164.33455419 -21311164.33455419 -9566705.476624137 0 0 0 0 0 90142029.69144003 -21430444.08372845 -21430444.08372845 -10912744.74110957 0 0 0 0 0 93386591.00183402 -21263359.19963035 -21263359.19963035 -12182530.74017311 0 0 0 0 0 81591781.01491226 -20302802.23046295 -20302802.23046295 -6811004.068830697 0 0 0 0 0 79256314.55828492 -19468999.57360979 -19468999.57360979 -5463305.459068423 0 0 0 0 0 96756049.52222221 -20795319.5113426 -20795319.5113426 -13330904.15104698 0 0 0 0 0 100168660.4721105 -20016587.30741535 -20016587.30741535 -14309692.04354981 0 0 0 0 0 103582060.2545267 -18941196.47903278 -18941196.47903278 -15080606.71974539 0 0 0 0 0 77205631.71410486 -18465068.18887649 -18465068.18887649 -4182409.7592581 0 0 0 0 0 106902994.7622036 -17575250.31523032 -17575250.31523032 -15590087.70390528 0 0 0 0 0 110096059.7136922 -15961582.2946649 -15961582.2946649 -15802811.03528737 0 0 0 0 0 75455105.30407678 -17319871.27127353 -17319871.27127353 -2984036.960317313 0 0 0 0 0 74002041.32707161 -16069940.49238343 -16069940.49238343 -1884643.308509369 0 0 0 0 0 72840954.98176941 -14744961.09908369 -14744961.09908369 -890075.0928289549 0 0 0 0 0 113074671.0359101 -14116628.02670925 -14116628.02670925 -15694720.29658528 0 0 0 0 0 115786607.6099231 -12090643.05553742 -12090643.05553742 -15247171.57517274 0 0 0 0 0 118180739.8064419 -9943606.948386176 -9943606.948386176 -14450400.73532219 0 0 0 0 0 72924757.23549673 -14671605.11048422 -14671605.11048422 -907550.8602950061 0 0 0 0 0 73607732.20300837 -12869505.7613431 -12869505.7613431 60470.86543540648 0 0 0 0 0 73888342.60117975 -12780040.25439306 -12780040.25439306 84950.1842482959 0 0 0 0 0 76144199.86589971 -9562334.503438141 -9562334.503438141 1410111.969414763 0 0 0 0 0 75582311.72155595 -9659176.155183524 -9659176.155183524 1326627.322261937 0 0 0 0 0 74542935.7973268 -11169511.07848876 -11169511.07848876 784950.5448220887 0 0 0 0 0 75948407.14471579 -10770137.45848006 -10770137.45848006 781658.3273230325 0 0 0 0 0 76689707.62797047 -7973757.73795698 -7973757.73795698 1620869.650386529 0 0 0 0 0 77552102.23542136 -9277441.055947628 -9277441.055947628 1373201.720446487 0 0 0 0 0 77908753.51414393 -8318377.223499695 -8318377.223499695 1970247.86888691 0 0 0 0 0 77194350.00698771 -7048639.626102469 -7048639.626102469 1923866.963446126 0 0 0 0 0 236217473.5906394 -371092.0909005058 -371092.0909005058 21015427.23178501 0 0 0 0 0 222601159.5838605 -7586962.89899013 -7586962.89899013 29107554.78352543 0 0 0 0 0 206376190.170509 -6716998.460419346 -6716998.460419346 33859423.94259827 0 0 0 0 0 187406335.0256207 -3207644.736141491 -3207644.736141491 33465684.12372622 0 0 0 0 0 177986566.547789 -5925246.747640318 -5925246.747640318 34751806.81038328 0 0 0 0 0 170411140.4646221 -5521028.659942102 -5521028.659942102 33342374.89353376 0 0 0 0 0 158499425.5587484 -3399369.614896405 -3399369.614896405 26561782.77220388 0 0 0 0 0 164532118.3112061 -4639350.259814099 -4639350.259814099 30345622.66964038 0 0 0 0 0 152989369.8298047 -1995369.296748691 -1995369.296748691 22355543.64094466 0 0 0 0 0 148315089.475597 -856700.5787246024 -856700.5787246024 17927127.07300186 0 0 0 0 0 144306230.7696384 -40162.87352320093 -40162.87352320093 13465522.3608192 0 0 0 0 0 140852936.2791645 419166.8842696296 419166.8842696296 9198326.358106922 0 0 0 0 0 137840490.7523994 543937.9704323212 543937.9704323212 5271254.312028411 0 0 0 0 0 135175732.1410645 386293.9944850808 386293.9944850808 1767653.07534392 0 0 0 0 0 132768359.690694 -33.66788120080918 -33.66788120080918 -1279708.991135274 0 0 0 0 0 130567024.6180183 -551675.2172415565 -551675.2172415565 -3863714.697560987 0 0 0 0 0 128522303.5757804 -1212494.799127852 -1212494.799127852 -6002542.054532371 0 0 0 0 0 126358514.9050242 -1713532.264584747 -1713532.264584747 -6298533.844640769 0 0 0 0 0 125507592.1829953 -4225670.2545097 -4225670.2545097 -10086318.47842443 0 0 0 0 0 123615747.4676617 -4896450.23665915 -4896450.23665915 -11128994.16598095 0 0 0 0 0 120964373.3297864 -5727121.205157164 -5727121.205157164 -11374201.27708129 0 0 0 0 0 120206657.2502053 -7739173.461779313 -7739173.461779313 -13314043.42920312 0 0 0 0 0 84437714.62262988 -21606815.16123386 -21606815.16123386 -10092471.07594534 0 0 0 0 0 81974163.0362733 -21136725.11933178 -21136725.11933178 -8655196.527948121 0 0 0 0 0 87144974.57211915 -21819225.32057051 -21819225.32057051 -11484686.54885832 0 0 0 0 0 90062505.67971718 -21750740.55014487 -21750740.55014487 -12786928.85614562 0 0 0 0 0 93148670.9743486 -21384138.60155899 -21384138.60155899 -13953750.99868214 0 0 0 0 0 79768524.69126354 -20436244.49903701 -20436244.49903701 -7214166.77024 0 0 0 0 0 77842428.16399041 -19541481.31048715 -19541481.31048715 -5794013.816549947 0 0 0 0 0 96358618.23760484 -20702326.83392081 -20702326.83392081 -14932442.44826184 0 0 0 0 0 99629993.78286074 -19714267.40196819 -19714267.40196819 -15678950.54644586 0 0 0 0 0 102915576.0438204 -18425951.00697625 -18425951.00697625 -16155787.85489023 0 0 0 0 0 76200879.86915921 -18483169.61938044 -18483169.61938044 -4435399.558047283 0 0 0 0 0 106131379.1241197 -16875274.09293348 -16875274.09293348 -16339658.05515221 0 0 0 0 0 109226416.6889207 -15071945.55609828 -15071945.55609828 -16182018.98237305 0 0 0 0 0 74845885.99452202 -17297600.89502234 -17297600.89502234 -3155361.632051562 0 0 0 0 0 73753150.04387891 -16014897.29920254 -16014897.29920254 -1979385.486197381 0 0 0 0 0 112145221.514387 -13063739.77536646 -13063739.77536646 -15673445.03050755 0 0 0 0 0 114820396.6881687 -10900266.75906997 -10900266.75906997 -14808192.66913752 0 0 0 0 0 117196044.5178966 -8655577.901117461 -8655577.901117461 -13607755.83298941 0 0 0 0 0 74450065.36106102 -14137596.25480991 -14137596.25480991 -759634.5653478932 0 0 0 0 0 74441706.82315873 -14056256.08947184 -14056256.08947184 -807694.415718467 0 0 0 0 0 75103980.66174579 -12364433.62895925 -12364433.62895925 110971.7682420223 0 0 0 0 0 76863356.67395754 -9375428.763253761 -9375428.763253761 1263728.826515766 0 0 0 0 0 76318185.35537426 -10675387.45119472 -10675387.45119472 819408.0003960759 0 0 0 0 0 75332804.11798577 -12273550.31402969 -12273550.31402969 119552.1075372424 0 0 0 0 0 76665626.14168264 -11791561.84256282 -11791561.84256282 146037.2939584435 0 0 0 0 0 78522367.94492745 -7754821.866447193 -7754821.866447193 2219543.185631916 0 0 0 0 0 78357345.75338931 -9105089.37542785 -9105089.37542785 1483451.178883161 0 0 0 0 0 77539923.32121256 -8966151.181711227 -8966151.181711227 1219705.264132155 0 0 0 0 0 207673928.4443332 1222390.264692343 1222390.264692343 30305074.41514752 0 0 0 0 0 190917976.4824028 -2789740.470847887 -2789740.470847887 32160952.73240921 0 0 0 0 0 187204157.9735169 -5942982.382883413 -5942982.382883413 34939688.80273447 0 0 0 0 0 172728859.9656181 -218555.051239871 -218555.051239871 35282229.71082556 0 0 0 0 0 166168448.4549159 -209394.836822554 -209394.836822554 33297175.25840227 0 0 0 0 0 154209085.13195 1589817.866515189 1589817.866515189 27441189.89927747 0 0 0 0 0 159705527.774243 890267.1324109894 890267.1324109894 30991899.91935931 0 0 0 0 0 149343337.0228187 2385397.435060519 2385397.435060519 23760132.45332287 0 0 0 0 0 145219541.1697608 3007331.400805898 3007331.400805898 19804572.49875205 0 0 0 0 0 141706731.4057815 3373230.27401832 3373230.27401832 15785870.52415844 0 0 0 0 0 138666348.3729719 3445500.400368568 3445500.400368568 11839175.36848569 0 0 0 0 0 135986064.557655 3240871.555459577 3240871.555459577 8105485.634808925 0 0 0 0 0 133577131.1082964 2802245.213938368 2802245.213938368 4676255.993775728 0 0 0 0 0 131380282.0769277 2183214.792127224 2183214.792127224 1603830.437094023 0 0 0 0 0 129337534.9007623 1432574.742641508 1432574.742641508 -1091779.452056927 0 0 0 0 0 127419632.3989326 602605.2980255659 602605.2980255659 -3402527.21506099 0 0 0 0 0 126605511.3252552 -1935328.016601895 -1935328.016601895 -7734258.554402469 0 0 0 0 0 124440824.4748158 -2553813.088826977 -2553813.088826977 -7958055.176316649 0 0 0 0 0 122624572.2714088 -3369715.142767051 -3369715.142767051 -9274472.071302401 0 0 0 0 0 121849526.2651116 -5534826.625719276 -5534826.625719276 -11859801.95731162 0 0 0 0 0 119234252.8187542 -6380558.172282318 -6380558.172282318 -12085091.7835658 0 0 0 0 0 87522762.78971255 -20331367.34330917 -20331367.34330917 -8880758.050528646 0 0 0 0 0 84904545.88705751 -19940161.03337719 -19940161.03337719 -7574719.302375616 0 0 0 0 0 90343295.5595317 -20481819.13507308 -20481819.13507308 -10159867.74582961 0 0 0 0 0 93320202.55492432 -20375663.34472533 -20375663.34472533 -11383039.34870728 0 0 0 0 0 96409822.34985054 -19997729.21090309 -19997729.21090309 -12508540.5310188 0 0 0 0 0 82512878.98198704 -19338059.74302194 -19338059.74302194 -6280216.931855573 0 0 0 0 0 80360527.88670747 -18546862.42410829 -18546862.42410829 -5019541.693138879 0 0 0 0 0 99561964.65368441 -19338517.24799645 -19338517.24799645 -13493195.98809342 0 0 0 0 0 102716726.4978859 -18400990.33659576 -18400990.33659576 -14294435.07733967 0 0 0 0 0 105815684.9035593 -17197530.73616054 -17197530.73616054 -14880222.9555352 0 0 0 0 0 78482450.04414906 -17601762.14227577 -17601762.14227577 -3827220.788015462 0 0 0 0 0 108810740.5947238 -15751082.19515021 -15751082.19515021 -15214853.91782803 0 0 0 0 0 111628772.7319935 -14084925.03075143 -14084925.03075143 -15259550.61163723 0 0 0 0 0 76869530.74889562 -16532364.26970378 -16532364.26970378 -2713192.183293789 0 0 0 0 0 75539763.99332505 -15365199.35139346 -15365199.35139346 -1683974.227718872 0 0 0 0 0 114216511.921188 -12242457.05214984 -12242457.05214984 -15004092.021523 0 0 0 0 0 116536258.3961532 -10254548.81543145 -10254548.81543145 -14421488.33210975 0 0 0 0 0 118532213.9542302 -8199552.500516813 -8199552.500516813 -13531288.23422887 0 0 0 0 0 75218173.96554068 -15303376.46747418 -15303376.46747418 -1801862.068351052 0 0 0 0 0 75895304.4182304 -13547985.03910039 -13547985.03910039 -651461.3173739001 0 0 0 0 0 75856011.25951537 -13463228.32004236 -13463228.32004236 -711814.5873512801 0 0 0 0 0 77583654.85257924 -10275261.29601113 -10275261.29601113 780973.3415351398 0 0 0 0 0 77264168.78725672 -10377572.93622305 -10377572.93622305 771023.7493462813 0 0 0 0 0 76483033.34982836 -11883622.84654443 -11883622.84654443 151445.1511398385 0 0 0 0 0 77746367.21702115 -11427244.58963422 -11427244.58963422 177406.3728548315 0 0 0 0 0 78240989.96706107 -7935219.297756674 -7935219.297756674 1474115.943668212 0 0 0 0 0 78079645.88441545 -9749194.096228234 -9749194.096228234 612749.6539190501 0 0 0 0 0 78303601.28214832 -8809241.533566544 -8809241.533566544 1169596.354352338 0 0 0 0 0 200157123.8287769 -4868649.76831256 -4868649.76831256 34412610.89168023 0 0 0 0 0 179192693.9814405 -78118.41638058602 -78118.41638058602 35289194.40401181 0 0 0 0 0 165485019.5965577 -2928958.970838314 -2928958.970838314 34736507.36172532 0 0 0 0 0 170886267.4902277 -3460959.150260347 -3460959.150260347 36448353.96802561 0 0 0 0 0 160333571.9268446 -2235456.094553019 -2235456.094553019 32845901.18511416 0 0 0 0 0 150921829.196772 74334.97087146033 74334.97087146033 25417286.11392587 0 0 0 0 0 155356533.5620444 -946892.6181337468 -946892.6181337468 29111369.79435704 0 0 0 0 0 146916809.9556922 1061565.596682755 1061565.596682755 21296808.96515075 0 0 0 0 0 143387297.0136701 1821087.813583707 1821087.813583707 17060662.47182329 0 0 0 0 0 140284761.2746262 2290357.977334531 2290357.977334531 12887440.48872045 0 0 0 0 0 137555575.294559 2463036.908134258 2463036.908134258 8936726.531241057 0 0 0 0 0 135124469.626045 2363926.996362513 2363926.996362513 5317330.0121961 0 0 0 0 0 132924221.0279635 2035814.775494158 2035814.775494158 2086637.861947881 0 0 0 0 0 130901187.2856432 1529137.585121817 1529137.585121817 -735738.8768138996 0 0 0 0 0 129015417.0737857 891579.274428706 891579.274428706 -3143149.338728225 0 0 0 0 0 127238772.0518058 170861.6471524673 170861.6471524673 -5163768.397565331 0 0 0 0 0 125601052.3824896 -266544.7455805076 -266544.7455805076 -5348248.454579773 0 0 0 0 0 124800237.9375355 -2672075.507538985 -2672075.507538985 -9095001.703565285 0 0 0 0 0 123098240.8380011 -3390593.321805147 -3390593.321805147 -10116774.01151351 0 0 0 0 0 120906514.3528374 -4139300.091591907 -4139300.091591907 -10282563.64471423 0 0 0 0 0 120183294.2677561 -6120488.568754966 -6120488.568754966 -12336743.5491578 0 0 0 0 0 87591363.39653923 -20808321.52106562 -20808321.52106562 -10701098.93768091 0 0 0 0 0 85102201.84659149 -20573193.45128608 -20573193.45128608 -9381108.82403568 0 0 0 0 0 82824236.91299109 -20108239.04859097 -20108239.04859097 -8027607.481817177 0 0 0 0 0 90268358.48317356 -20791074.23574561 -20791074.23574561 -11954567.69842507 0 0 0 0 0 93101621.22485112 -20505127.06520906 -20505127.06520906 -13095537.94210608 0 0 0 0 0 96048701.71292311 -19938135.57075332 -19938135.57075332 -14081894.55998381 0 0 0 0 0 80797680.97038318 -19438355.85969541 -19438355.85969541 -6671608.30455089 0 0 0 0 0 79023598.32778551 -18596579.72345754 -18596579.72345754 -5343023.167112435 0 0 0 0 0 99065879.2692036 -19086286.8301161 -19086286.8301161 -14872595.7461361 0 0 0 0 0 102102698.9684465 -17964166.71419685 -17964166.71419685 -15435136.07435087 0 0 0 0 0 105101266.9329409 -16583386.99937749 -16583386.99937749 -15730249.73587311 0 0 0 0 0 77506958.53064348 -17601990.62316865 -17601990.62316865 -4080101.749286012 0 0 0 0 0 108007474.8048304 -14965680.59851176 -14965680.59851176 -15729824.47448756 0 0 0 0 0 110760070.1182793 -13149020.17458109 -13149020.17458109 -15412772.35491404 0 0 0 0 0 76247416.10294235 -16496817.46322436 -16496817.46322436 -2894290.108300245 0 0 0 0 0 113317583.781581 -11171432.60434935 -11171432.60434935 -14772939.61581326 0 0 0 0 0 115615743.8652897 -9091843.811334029 -9091843.811334029 -13813873.90878894 0 0 0 0 0 117619483.7813293 -6963568.707740887 -6963568.707740887 -12552093.071546 0 0 0 0 0 76905965.51939057 -14691854.98447458 -14691854.98447458 -1511433.022485576 0 0 0 0 0 76595015.16376235 -14618782.64093806 -14618782.64093806 -1633058.698727996 0 0 0 0 0 77220179.52885589 -12983561.94345959 -12983561.94345959 -563513.3769354562 0 0 0 0 0 78665872.81580435 -9923294.040523121 -9923294.040523121 889521.4736334743 0 0 0 0 0 77925393.93257964 -11338216.6469076 -11338216.6469076 178955.8813058267 0 0 0 0 0 77186423.69422211 -12895968.26172274 -12895968.26172274 -622573.5119755338 0 0 0 0 0 78419928.17332162 -12364111.02181938 -12364111.02181938 -552846.1631195084 0 0 0 0 0 79367796.14045244 -8659217.963317083 -8659217.963317083 1469064.065667937 0 0 0 0 0 79440903.85631874 -9603346.959425533 -9603346.959425533 1020005.293120565 0 0 0 0 0 187241309.2408606 1372903.368946282 1372903.368946282 34289033.53329704 0 0 0 0 0 181748078.0637997 -2955786.131449557 -2955786.131449557 36315745.00773705 0 0 0 0 0 161721760.6752584 1425799.390493765 1425799.390493765 35128933.9167008 0 0 0 0 0 167370256.9583712 754395.5664284303 754395.5664284303 36429251.70194234 0 0 0 0 0 156412530.5973291 2165649.293322337 2165649.293322337 32949882.16427112 0 0 0 0 0 147771394.6347053 3876635.504068628 3876635.504068628 26689407.41113618 0 0 0 0 0 151909789.7769344 3127946.440410185 3127946.440410185 30133500.51498615 0 0 0 0 0 144154257.7784525 4516721.594839634 4516721.594839634 23015834.51669922 0 0 0 0 0 141009703.621521 4932946.030613989 4932946.030613989 19193697.62594019 0 0 0 0 0 138266043.0817412 5094119.790914704 5094119.790914704 15364454.45513384 0 0 0 0 0 135828678.9851611 4990260.26108204 4990260.26108204 11656060.92726658 0 0 0 0 0 133633799.1085333 4651927.954202827 4651927.954202827 8167683.132408646 0 0 0 0 0 131622663.6628671 4117519.810178605 4117519.810178605 4971633.966345534 0 0 0 0 0 129751958.7569879 3433981.018839587 3433981.018839587 2103708.989511483 0 0 0 0 0 127987222.4499503 2645300.980206067 2645300.980206067 -422789.4961612041 0 0 0 0 0 126303859.6261661 1792907.976559067 1792907.976559067 -2607923.327936732 0 0 0 0 0 125555651.827671 -592413.3182957978 -592413.3182957978 -6815612.47373096 0 0 0 0 0 123862006.200022 -1139064.415416314 -1139064.415416314 -6951073.700261115 0 0 0 0 0 122204071.0755364 -1983813.518309288 -1983813.518309288 -8237818.496379558 0 0 0 0 0 121484445.5366922 -4068886.685889701 -4068886.685889701 -10857090.76742255 0 0 0 0 0 119299558.4562418 -4841187.448005467 -4841187.448005467 -11015669.49815995 0 0 0 0 0 90543462.84407619 -19570244.61254596 -19570244.61254596 -9458708.904711196 0 0 0 0 0 87956326.28661516 -19399290.19908345 -19399290.19908345 -8242312.483256795 0 0 0 0 0 85546533.95962133 -18999077.87507321 -18999077.87507321 -7000716.914291496 0 0 0 0 0 93280530.20844755 -19515388.18914314 -19515388.18914314 -10631888.10459463 0 0 0 0 0 96125501.56556103 -19213031.81570869 -19213031.81570869 -11724154.55632507 0 0 0 0 0 99035738.0036225 -18655102.17861764 -18655102.17861764 -12698871.48031472 0 0 0 0 0 83341669.00278501 -18422452.78373194 -18422452.78373194 -5795122.621632972 0 0 0 0 0 81352694.79718302 -17671298.87508228 -17671298.87508228 -4628728.285150609 0 0 0 0 0 101964238.1556353 -17842137.38005841 -17842137.38005841 -13520196.90972091 0 0 0 0 0 104857494.1132945 -16782204.18308698 -16782204.18308698 -14155384.36402506 0 0 0 0 0 107660122.8119284 -15492299.68202421 -15492299.68202421 -14571775.80719938 0 0 0 0 0 79626849.9820319 -16780414.19187123 -16780414.19187123 -3512068.221068728 0 0 0 0 0 110322875.585108 -13992828.68562528 -13992828.68562528 -14739284.05929334 0 0 0 0 0 112787174.753052 -12318289.43930417 -12318289.43930417 -14635902.62246469 0 0 0 0 0 78145016.78676189 -15773499.25945717 -15773499.25945717 -2470790.648966737 0 0 0 0 0 115010933.7412857 -10504060.93268071 -10504060.93268071 -14246063.22266133 0 0 0 0 0 116969410.1702737 -8593481.87272718 -8593481.87272718 -13568785.37857005 0 0 0 0 0 118623047.5736413 -6642532.076513672 -6642532.076513672 -12605386.81959668 0 0 0 0 0 77550256.47950089 -15727186.0467413 -15727186.0467413 -2650493.844740348 0 0 0 0 0 78163068.82269846 -14047728.10975427 -14047728.10975427 -1368436.705482066 0 0 0 0 0 77866785.17541414 -13970035.3658271 -13970035.3658271 -1488788.044863961 0 0 0 0 0 79082945.3216913 -10858566.61585716 -10858566.61585716 220846.599931104 0 0 0 0 0 78950891.80207391 -10961885.5945961 -10961885.5945961 240235.4888985828 0 0 0 0 0 78429634.94277227 -12452984.58278837 -12452984.58278837 -502455.2816011151 0 0 0 0 0 79581853.11645482 -11955871.86292056 -11955871.86292056 -432251.7537823648 0 0 0 0 0 79358739.67806384 -8684923.321510421 -8684923.321510421 978304.7073470019 0 0 0 0 0 79589635.26330243 -9539624.587046791 -9539624.587046791 660744.0488531272 0 0 0 0 0 172278541.914492 1171647.854849758 1171647.854849758 36538233.34991488 0 0 0 0 0 155793758.0594932 -703450.529488977 -703450.529488977 34337362.28294039 0 0 0 0 0 159155322.9307306 -1327826.676037295 -1327826.676037295 36093346.02109361 0 0 0 0 0 161863732.5205266 -1025676.700815862 -1025676.700815862 36992920.14130047 0 0 0 0 0 151810291.3329424 357350.2259615824 357350.2259615824 31601997.24053879 0 0 0 0 0 148160522.3045223 1453738.986537539 1453738.986537539 28087333.77924373 0 0 0 0 0 144819443.5133811 2398438.229858119 2398438.229858119 24320288.96999411 0 0 0 0 0 141790310.8059741 3169430.546277612 3169430.546277612 20342844.27254221 0 0 0 0 0 139093306.4034328 3695089.536999112 3695089.536999112 16336520.13391188 0 0 0 0 0 136683104.1847344 3952463.089327137 3952463.089327137 12440704.41019793 0 0 0 0 0 134519789.5843931 3948007.009215535 3948007.009215535 8780753.159743385 0 0 0 0 0 132556145.4077574 3714475.838760312 3714475.838760312 5433643.412081922 0 0 0 0 0 130742298.8187439 3288166.862685035 3288166.862685035 2441178.466758767 0 0 0 0 0 129044228.9392046 2714696.347353168 2714696.347353168 -185428.9409967813 0 0 0 0 0 127438774.1508721 2034663.391253253 2034663.391253253 -2447547.63187814 0 0 0 0 0 125903981.8053555 1289884.107677357 1289884.107677357 -4355229.523873734 0 0 0 0 0 124681292.2374896 907643.5847777149 907643.5847777149 -4462439.612229344 0 0 0 0 0 123951388.2236841 -1358181.164706997 -1358181.164706997 -8122835.637707191 0 0 0 0 0 122423225.3836786 -2101421.607399258 -2101421.607399258 -9130902.512426117 0 0 0 0 0 120641212.4845041 -2774359.685798348 -2774359.685798348 -9236446.091268972 0 0 0 0 0 119962041.6036426 -4695816.37544516 -4695816.37544516 -11367389.87265365 0 0 0 0 0 90474116.3787825 -19869378.49493832 -19869378.49493832 -11172718.22290725 0 0 0 0 0 87995294.69876444 -19844192.17119024 -19844192.17119024 -9974880.959716765 0 0 0 0 0 85698997.43435331 -19596002.56872815 -19596002.56872815 -8720272.920637712 0 0 0 0 0 83588009.92526393 -19134463.31274206 -19134463.31274206 -7429344.868436209 0 0 0 0 0 93079290.33364239 -19651217.45514969 -19651217.45514969 -12281846.43351461 0 0 0 0 0 95795557.08809054 -19178963.51367701 -19178963.51367701 -13263193.04141072 0 0 0 0 0 98583265.46822436 -18450040.27056332 -18450040.27056332 -14080553.71080559 0 0 0 0 0 81740330.84983122 -18493309.78156415 -18493309.78156415 -6157977.432980413 0 0 0 0 0 80117993.29388131 -17690676.57425985 -17690676.57425985 -4935404.027486325 0 0 0 0 0 101396953.4621348 -17468038.30783486 -17468038.30783486 -14697741.58876234 0 0 0 0 0 104187763.7340314 -16245301.21418092 -16245301.21418092 -15081280.84055878 0 0 0 0 0 106904074.4604124 -14801888.35609855 -14801888.35609855 -15206863.2223911 0 0 0 0 0 78713700.81236072 -16762498.23291014 -16762498.23291014 -3757439.293329324 0 0 0 0 0 109500934.3685457 -13161593.85610933 -13161593.85610933 -15046682.78125988 0 0 0 0 0 111924460.025302 -11368742.32944735 -11368742.32944735 -14600134.67232844 0 0 0 0 0 114147092.3522148 -9448373.768108219 -9448373.768108219 -13847506.71156153 0 0 0 0 0 116109987.9441435 -7467674.107145631 -7467674.107145631 -12818056.87588379 0 0 0 0 0 117784326.1731202 -5470816.765133656 -5470816.765133656 -11524092.96643593 0 0 0 0 0 79311552.08246925 -15060118.67471232 -15060118.67471232 -2259519.038610138 0 0 0 0 0 78758244.43645287 -15002353.68192801 -15002353.68192801 -2434617.077478854 0 0 0 0 0 79318488.12944168 -13446855.86210705 -13446855.86210705 -1248941.206824917 0 0 0 0 0 79977888.10486637 -10477836.01710532 -10477836.01710532 156596.4547131105 0 0 0 0 0 79538780.71745384 -11862629.41193013 -11862629.41193013 -494221.5561450879 0 0 0 0 0 79072443.92038852 -13364285.71869024 -13364285.71869024 -1357992.335551249 0 0 0 0 0 80167101.05322927 -12795011.3340022 -12795011.3340022 -1255363.002996613 0 0 0 0 0 80491144.94873679 -9404557.25002523 -9404557.25002523 931314.5593186106 0 0 0 0 0 80461472.60133225 -10379787.68341198 -10379787.68341198 297131.4084102424 0 0 0 0 0 169558417.1075307 -1583011.189237026 -1583011.189237026 36913625.52271061 0 0 0 0 0 152695743.836214 2726089.76570079 2726089.76570079 34198310.98797723 0 0 0 0 0 156740734.9183039 1796495.755504382 1796495.755504382 35984970.5804984 0 0 0 0 0 160346300.55158 1032072.379488675 1032072.379488675 37008357.77697808 0 0 0 0 0 148861039.854599 3739378.250594858 3739378.250594858 31988341.39980945 0 0 0 0 0 145466230.0251307 4674251.004658725 4674251.004658725 29074674.58570091 0 0 0 0 0 142386457.2698154 5409225.397234769 5409225.397234769 25740969.1483114 0 0 0 0 0 139671370.2382972 5942497.018058619 5942497.018058619 22186735.95562221 0 0 0 0 0 137253669.0131824 6229345.868997075 6229345.868997075 18548704.79022726 0 0 0 0 0 135104229.2708681 6268509.328616648 6268509.328616648 14940777.6259197 0 0 0 0 0 133152980.9880217 6067103.700823985 6067103.700823985 11472803.15929062 0 0 0 0 0 131358413.5693249 5659046.297084507 5659046.297084507 8222389.448509882 0 0 0 0 0 129685384.0531061 5083162.499783851 5083162.499783851 5244571.902593442 0 0 0 0 0 128101649.4681188 4378556.940864357 4378556.940864357 2562684.802524043 0 0 0 0 0 126577014.9017637 3580521.925789017 3580521.925789017 187685.8682473629 0 0 0 0 0 125105375.8987574 2731962.086919606 2731962.086919606 -1875993.602681061 0 0 0 0 0 124430554.9074309 516598.9918335909 516598.9918335909 -5927846.626649207 0 0 0 0 0 123125835.1838883 32701.62688533586 32701.62688533586 -6004027.573324307 0 0 0 0 0 121643661.6676899 -810485.0563642355 -810485.0563642355 -7254392.249341277 0 0 0 0 0 120980637.3011474 -2796633.634879849 -2796633.634879849 -9878864.930415345 0 0 0 0 0 119156788.6830261 -3500627.314872327 -3500627.314872327 -9986932.251373976 0 0 0 0 0 93259496.0334859 -18686271.85341619 -18686271.85341619 -9930472.02401299 0 0 0 0 0 90740129.58852226 -18699325.48604105 -18699325.48604105 -8804490.789292999 0 0 0 0 0 88348302.07101643 -18503382.0082508 -18503382.0082508 -7648325.1616191 0 0 0 0 0 86100918.30618595 -18113480.90149829 -18113480.90149829 -6487219.955504187 0 0 0 0 0 95881564.18786037 -18450119.71423689 -18450119.71423689 -10984874.66673411 0 0 0 0 0 98571969.14871863 -17981577.58199799 -17981577.58199799 -11942750.22997354 0 0 0 0 0 101289818.7963666 -17279518.95915869 -17279518.95915869 -12772557.92760872 0 0 0 0 0 84069715.73479308 -17548500.59009364 -17548500.59009364 -5356278.079056531 0 0 0 0 0 82285989.45093188 -16835522.42980845 -16835522.42980845 -4263572.475403953 0 0 0 0 0 103984908.3083611 -16348063.98594926 -16348063.98594926 -13442399.24366148 0 0 0 0 0 106609588.240272 -15199210.06769847 -15199210.06769847 -13921667.13725698 0 0 0 0 0 109120270.3194261 -13853249.72491443 -13853249.72491443 -14182482.81256949 0 0 0 0 0 80689667.39072996 -15997244.83527856 -15997244.83527856 -3223937.980857722 0 0 0 0 0 111465609.7060031 -12335257.09558743 -12335257.09558743 -14204037.47991023 0 0 0 0 0 113609189.2814195 -10678508.10004047 -10678508.10004047 -13968732.27291847 0 0 0 0 0 115510754.3182743 -8918493.109359387 -8918493.109359387 -13470219.42970696 0 0 0 0 0 117153297.1385062 -7098933.962799283 -7098933.962799283 -12707130.45291203 0 0 0 0 0 118513017.4925601 -5263535.829894627 -5263535.829894627 -11686565.58931157 0 0 0 0 0 79842569.8751758 -15966964.12459455 -15966964.12459455 -3459049.076349327 0 0 0 0 0 80388731.54202722 -14389125.12342221 -14389125.12342221 -2079639.671085597 0 0 0 0 0 79896084.095976 -14324570.21049688 -14324570.21049688 -2243212.114348534 0 0 0 0 0 80644678.84899868 -11376388.68116442 -11376388.68116442 -434647.8904545432 0 0 0 0 0 80626008.69151536 -11462211.97099873 -11462211.97099873 -403381.6235461511 0 0 0 0 0 80404320.17942739 -12880737.70192927 -12880737.70192927 -1146890.79841633 0 0 0 0 0 81414681.24002357 -12343044.81777309 -12343044.81777309 -1062981.785521587 0 0 0 0 0 80593734.45857309 -9353422.058387315 -9353422.058387315 464185.293001674 0 0 0 0 0 80963708.79724498 -10155833.24550381 -10155833.24550381 77865.16125868964 0 0 0 0 0 162064989.6054216 541410.6784624213 541410.6784624213 36789730.79348359 0 0 0 0 0 148025064.1763189 1073298.461045613 1073298.461045613 33189485.11749632 0 0 0 0 0 150649391.1076468 135191.0075170479 135191.0075170479 35357491.3596711 0 0 0 0 0 153275732.0464439 -497243.4844774791 -497243.4844774791 36543129.24187918 0 0 0 0 0 156971388.8528838 -860127.8681122811 -860127.8681122811 36869466.42530574 0 0 0 0 0 145049574.5710557 2122130.50644487 2122130.50644487 30312240.89181711 0 0 0 0 0 142268412.6179964 3155203.981488938 3155203.981488938 26894577.37960859 0 0 0 0 0 139716745.7985678 3996091.995038731 3996091.995038731 23236934.00094581 0 0 0 0 0 137424502.0035136 4621243.328948475 4621243.328948475 19453089.61140965 0 0 0 0 0 135343161.0798388 4994067.798503569 4994067.798503569 15694161.22235735 0 0 0 0 0 133468473.6506539 5119747.763839236 5119747.763839236 12067721.1405926 0 0 0 0 0 131751153.7482529 5011077.39850379 5011077.39850379 8675916.497634962 0 0 0 0 0 130163255.2753617 4701555.963046852 4701555.963046852 5576112.433952 0 0 0 0 0 128666266.2707971 4224378.50491842 4224378.50491842 2794105.95701638 0 0 0 0 0 127245895.3538602 3621583.275894077 3621583.275894077 338684.7933777801 0 0 0 0 0 125880947.027402 2932141.223624082 2932141.223624082 -1785296.152527 0 0 0 0 0 124560322.5196823 2188119.067521142 2188119.067521142 -3589113.898384871 0 0 0 0 0 123679972.8701168 1863125.248798403 1863125.248798403 -3639138.591226002 0 0 0 0 0 123017263.3327287 -253679.3696695091 -253679.3696695091 -7191967.57289273 0 0 0 0 0 121664136.3883013 -1001019.29055031 -1001019.29055031 -8183506.423446704 0 0 0 0 0 120212678.4440331 -1607355.37777922 -1607355.37777922 -8242256.178595784 0 0 0 0 0 119580954.5605078 -3451788.451769365 -3451788.451769365 -10424298.06117568 0 0 0 0 0 93076768.92615663 -18829405.4408011 -18829405.4408011 -11511425.48381683 0 0 0 0 0 90666328.17828307 -18989569.56122268 -18989569.56122268 -10443051.21093765 0 0 0 0 0 88355731.90984088 -18933523.45420293 -18933523.45420293 -9297677.169195881 0 0 0 0 0 86248312.07860811 -18670636.72865011 -18670636.72865011 -8095368.799425775 0 0 0 0 0 84351998.56743874 -18213521.49460932 -18213521.49460932 -6888456.476907421 0 0 0 0 0 95581706.81590024 -18440904.21419133 -18440904.21419133 -12475744.79738439 0 0 0 0 0 98160009.91402358 -17817647.66756608 -17817647.66756608 -13300554.42436307 0 0 0 0 0 100773202.1279176 -16960254.39553186 -16960254.39553186 -13951283.61409456 0 0 0 0 0 82637766.19410992 -17592794.13116836 -17592794.13116836 -5699675.243669003 0 0 0 0 0 81124527.42835152 -16841020.05986759 -16841020.05986759 -4558511.812758702 0 0 0 0 0 103376451.9280866 -15877731.19911518 -15877731.19911518 -14399203.97035334 0 0 0 0 0 105924014.9625464 -14588442.0181093 -14588442.0181093 -14621509.23151092 0 0 0 0 0 108373984.3347086 -13112152.6849322 -13112152.6849322 -14592894.96446498 0 0 0 0 0 110676953.9145869 -11481793.45063588 -11481793.45063588 -14304233.86787197 0 0 0 0 0 112799082.9982781 -9729469.235025644 -9729469.235025644 -13744674.35596193 0 0 0 0 0 114704664.9586265 -7895728.584665549 -7895728.584665549 -12918488.11560572 0 0 0 0 0 116361858.2624279 -6025966.869583329 -6025966.869583329 -11840562.24063829 0 0 0 0 0 117753083.4825356 -4159831.641036035 -4159831.641036035 -10525838.90173063 0 0 0 0 0 81651957.99414499 -15264056.57743024 -15264056.57743024 -2982138.404518199 0 0 0 0 0 80905177.57617502 -15222998.55309656 -15222998.55309656 -3199503.283304391 0 0 0 0 0 81403156.83641978 -13759974.67015266 -13759974.67015266 -1921204.238443503 0 0 0 0 0 81590849.70394139 -11014844.41187616 -11014844.41187616 -386239.6799932237 0 0 0 0 0 81186014.14432937 -12259391.82686494 -12259391.82686494 -1168107.066847164 0 0 0 0 0 80941106.23190826 -13689549.17826385 -13689549.17826385 -2079958.312697006 0 0 0 0 0 81910870.95705374 -13092348.60389836 -13092348.60389836 -1934200.920175752 0 0 0 0 0 81712212.89979693 -10020441.25556999 -10020441.25556999 303356.9977067598 0 0 0 0 0 81791394.41727757 -10935328.78788737 -10935328.78788737 -350320.133897554 0 0 0 0 0 145493040.6439941 3793469.933412935 3793469.933412935 33224869.84156353 0 0 0 0 0 148492880.9157948 2783814.857331982 2783814.857331982 35080018.61295076 0 0 0 0 0 151245513.6423333 1817143.74742847 1817143.74742847 36355366.9445496 0 0 0 0 0 153665024.4854512 938404.3634620371 938404.3634620371 36746173.61020635 0 0 0 0 0 142704566.485396 4830101.217747453 4830101.217747453 30781394.01965054 0 0 0 0 0 140142564.3858626 5727792.707104157 5727792.707104157 27887345.55818297 0 0 0 0 0 137844228.4290172 6413382.705874834 6413382.705874834 24675955.1223908 0 0 0 0 0 135773225.7600466 6865516.640567356 6865516.640567356 21302292.36298486 0 0 0 0 0 133919818.4724143 7075296.026614021 7075296.026614021 17875406.3692595 0 0 0 0 0 132225524.6867427 7043480.020431527 7043480.020431527 14507873.7319725 0 0 0 0 0 130665784.9180775 6795007.610313759 6795007.610313759 11278883.79292 0 0 0 0 0 129199924.2598732 6358813.983186259 6358813.983186259 8255100.424985322 0 0 0 0 0 127811530.9268998 5774419.792178613 5774419.792178613 5477686.822705822 0 0 0 0 0 126468942.3349111 5073612.401037729 5073612.401037729 2969518.348322225 0 0 0 0 0 125160747.9934482 4294756.427168868 4294756.427168868 738990.003742694 0 0 0 0 0 123881598.3359965 3468258.792318522 3468258.792318522 -1208715.779217788 0 0 0 0 0 123277921.0913786 1422541.913385157 1422541.913385157 -5091430.217034638 0 0 0 0 0 122301581.999923 1002625.260782114 1002625.260782114 -5119587.569529847 0 0 0 0 0 120964698.5815261 171992.2857899304 171992.2857899304 -6330895.439051546 0 0 0 0 0 120355788.8198137 -1709159.064380087 -1709159.064380087 -8947629.607056167 0 0 0 0 0 118864493.0579367 -2339480.008919338 -2339480.008919338 -8999352.445120206 0 0 0 0 0 95676278.81314681 -17712364.56756169 -17712364.56756169 -10290376.70058003 0 0 0 0 0 93254680.12428841 -17890959.52663259 -17890959.52663259 -9272700.682794942 0 0 0 0 0 90917476.06684403 -17871090.98395907 -17871090.98395907 -8191977.398113765 0 0 0 0 0 88682657.36220229 -17659931.49177689 -17659931.49177689 -7107730.830013562 0 0 0 0 0 86650791.7797097 -17270637.33875212 -17270637.33875212 -6030372.343808042 0 0 0 0 0 98165564.10509843 -17322636.57997546 -17322636.57997546 -11223839.27158295 0 0 0 0 0 100686257.3198806 -16717997.12282442 -16717997.12282442 -12049400.84619529 0 0 0 0 0 103196096.2942826 -15903179.25968799 -15903179.25968799 -12738093.91177747 0 0 0 0 0 84792033.29682414 -16727401.68177879 -16727401.68177879 -4967141.936776783 0 0 0 0 0 83129015.76787567 -16052292.72827267 -16052292.72827267 -3944541.193763828 0 0 0 0 0 105653747.5282479 -14884948.78702047 -14884948.78702047 -13262109.85074882 0 0 0 0 0 108019702.9162661 -13678935.68027558 -13678935.68027558 -13596215.60929243 0 0 0 0 0 110249537.0214972 -12307543.69485172 -12307543.69485172 -13717492.49442643 0 0 0 0 0 112306648.3548095 -10796663.90699793 -10796663.90699793 -13611089.85189892 0 0 0 0 0 114157230.086567 -9178824.058101866 -9178824.058101866 -13264037.16719048 0 0 0 0 0 115776273.3203034 -7489797.361273514 -7489797.361273514 -12675318.70409027 0 0 0 0 0 117147881.7881058 -5766290.131699248 -5766290.131699248 -11844571.67498481 0 0 0 0 0 118252837.6092784 -4048995.752676184 -4048995.752676184 -10786150.33886526 0 0 0 0 0 82100573.42400749 -16040349.67407298 -16040349.67407298 -4219205.585002505 0 0 0 0 0 82580544.63321391 -14578185.76897652 -14578185.76897652 -2763415.155817981 0 0 0 0 0 81880461.88448825 -14529046.67012274 -14529046.67012274 -2972644.100836459 0 0 0 0 0 82095657.58139883 -11768605.26484733 -11768605.26484733 -1068853.312476532 0 0 0 0 0 82352963.47151901 -11832476.49609512 -11832476.49609512 -969286.5472000118 0 0 0 0 0 82345951.62893416 -13163417.01541965 -13163417.01541965 -1782125.957994069 0 0 0 0 0 83218816.00748678 -12602685.7851321 -12602685.7851321 -1658723.59643863 0 0 0 0 0 81933161.82025741 -9911501.39806224 -9911501.39806224 -57933.12786984174 0 0 0 0 0 82363412.11482604 -10674737.08859797 -10674737.08859797 -489146.890233762 0 0 0 0 0 141785047.379973 2305680.07034223 2305680.07034223 31862407.36440102 0 0 0 0 0 143824391.2653388 1177485.160302904 1177485.160302904 34054459.20336916 0 0 0 0 0 146049946.9966376 135065.1979871699 135065.1979871699 35602000.28697629 0 0 0 0 0 148867563.0882434 -685951.0802184546 -685951.0802184546 36435436.76818206 0 0 0 0 0 139480915.1419341 3377594.588353526 3377594.588353526 28963856.8364802 0 0 0 0 0 137359902.9973793 4337851.219488214 4337851.219488214 25667408.53861634 0 0 0 0 0 135429491.9715583 5085087.098825916 5085087.098825916 22171717.2917289 0 0 0 0 0 133674074.2420881 5601972.504616929 5601972.504616929 18611044.21632577 0 0 0 0 0 132075570.3696199 5877908.876577779 5877908.876577779 15097088.56170434 0 0 0 0 0 130604402.2649817 5921007.021591795 5921007.021591795 11736051.92046431 0 0 0 0 0 129239391.9689539 5754442.186054885 5754442.186054885 8592602.065569961 0 0 0 0 0 127949931.5153479 5406238.824703924 5406238.824703924 5715335.893348132 0 0 0 0 0 126720652.9972592 4913270.882769217 4913270.882769217 3122892.651935864 0 0 0 0 0 125530864.3541918 4308017.335434586 4308017.335434586 827575.3168916346 0 0 0 0 0 124372881.365375 3628470.072384675 3628470.072384675 -1168226.239512171 0 0 0 0 0 123238969.4645279 2903152.813060744 2903152.813060744 -2873877.488112762 0 0 0 0 0 122635966.6961628 2628324.497263217 2628324.497263217 -2881876.950305058 0 0 0 0 0 122040309.2784977 662329.7585598954 662329.7585598954 -6312978.191051554 0 0 0 0 0 120836839.2537736 -74457.29951515187 -74457.29951515187 -7291581.850911176 0 0 0 0 0 119681375.7822362 -614691.0976811168 -614691.0976811168 -7305688.670821656 0 0 0 0 0 119086588.1488229 -2376006.528366243 -2376006.528366243 -9519329.646203024 0 0 0 0 0 95403937.83119914 -17724410.71088738 -17724410.71088738 -11728413.06777138 0 0 0 0 0 93083933.94911568 -18042732.12481628 -18042732.12481628 -10789519.53244857 0 0 0 0 0 90829898.76287164 -18158186.96846296 -18158186.96846296 -9760719.311284142 0 0 0 0 0 88729323.272516 -18068463.13302778 -18068463.13302778 -8657568.06160447 0 0 0 0 0 86806855.81182289 -17787016.81543685 -17787016.81543685 -7522478.989986431 0 0 0 0 0 85052320.2336708 -17347007.90443747 -17347007.90443747 -6404613.699828182 0 0 0 0 0 97789825.23506495 -17193374.38453808 -17193374.38453808 -12548705.58771663 0 0 0 0 0 100216134.5721608 -16449121.70838879 -16449121.70838879 -13221760.57822659 0 0 0 0 0 102639903.8648303 -15495485.82195154 -15495485.82195154 -13719257.80788096 0 0 0 0 0 83481289.97568867 -16755889.75351797 -16755889.75351797 -5292711.527581892 0 0 0 0 0 105025293.032217 -14346220.87473296 -14346220.87473296 -14016263.94987083 0 0 0 0 0 107334350.0707384 -13020965.27285368 -13020965.27285368 -14093188.28466111 0 0 0 0 0 109523152.1555392 -11540982.04128839 -11540982.04128839 -13935090.81379241 0 0 0 0 0 111553913.4658103 -9939433.583003741 -9939433.583003741 -13533484.74497183 0 0 0 0 0 113398493.7803913 -8248603.194378301 -8248603.194378301 -12886750.2258723 0 0 0 0 0 115029082.2887014 -6506683.650297083 -6506683.650297083 -12002295.72951502 0 0 0 0 0 116422349.436344 -4750545.158560894 -4750545.158560894 -10891071.95238959 0 0 0 0 0 117566198.1123236 -3017448.278975367 -3017448.278975367 -9571312.700774236 0 0 0 0 0 83938597.64429533 -15316577.68706854 -15316577.68706854 -3665215.632887868 0 0 0 0 0 82990772.04059517 -15294980.42910575 -15294980.42910575 -3924093.039525049 0 0 0 0 0 83440277.20868871 -13928963.72591305 -13928963.72591305 -2567679.229091209 0 0 0 0 0 83105559.83966976 -11399950.25686597 -11399950.25686597 -934351.3512857952 0 0 0 0 0 82753954.34457076 -12526949.44307254 -12526949.44307254 -1821104.122071145 0 0 0 0 0 82785646.62987655 -13874651.95563715 -13874651.95563715 -2767881.450135526 0 0 0 0 0 83624850.45724034 -13261268.54740775 -13261268.54740775 -2578157.977494526 0 0 0 0 0 82927234.76451229 -10552390.5170097 -10552390.5170097 -330932.299558787 0 0 0 0 0 83179973.43191473 -11316667.86575874 -11316667.86575874 -938675.9871285699 0 0 0 0 0 139709757.7667006 4524900.777539197 4524900.777539197 31947566.19898602 0 0 0 0 0 142089560.0368117 3425530.77752989 3425530.77752989 33844888.67785541 0 0 0 0 0 144069143.9412501 2291365.859548011 2291365.859548011 35275813.79342183 0 0 0 0 0 146236758.2994695 1260636.215676048 1260636.215676048 36014012.45175546 0 0 0 0 0 137626410.2642229 5555517.076724462 5555517.076724462 29439562.43353852 0 0 0 0 0 135692169.6868272 6404942.583002539 6404942.583002539 26632965.79930817 0 0 0 0 0 133958775.0554098 7040418.229907661 7040418.229907661 23578788.80769782 0 0 0 0 0 132386531.4192926 7436786.088104946 7436786.088104946 20399666.23886573 0 0 0 0 0 130952743.7289483 7596768.965115743 7596768.965115743 17200498.31996579 0 0 0 0 0 129624884.8478865 7530138.84526189 7530138.84526189 14066181.33136817 0 0 0 0 0 128373763.3141056 7262805.242906952 7262805.242906952 11067776.31863303 0 0 0 0 0 127180416.012825 6825406.959072945 6825406.959072945 8256398.104917233 0 0 0 0 0 126023665.4220348 6252421.76293352 6252421.76293352 5669281.681632839 0 0 0 0 0 124889277.782997 5575013.770877781 5575013.770877781 3325079.489902395 0 0 0 0 0 123771085.2089553 4827775.872065358 4827775.872065358 1234452.150504524 0 0 0 0 0 122668284.4691211 4040289.184314893 4040289.184314893 -601312.0921708358 0 0 0 0 0 122123930.3091786 2154610.998704552 2154610.998704552 -4314486.212341492 0 0 0 0 0 121413282.4680846 1795691.860114453 1795691.860114453 -4301944.239203258 0 0 0 0 0 120221536.4544437 988430.5241607778 988430.5241607778 -5478580.765160413 0 0 0 0 0 119657754.0388495 -783185.6275140633 -783185.6275140633 -8064967.672365257 0 0 0 0 0 118450563.1428218 -1347855.361384504 -1347855.361384504 -8074893.03513715 0 0 0 0 0 97806303.626343 -16681165.41507546 -16681165.41507546 -10545101.38855354 0 0 0 0 0 95497811.88579519 -17003611.7574644 -17003611.7574644 -9639591.776736127 0 0 0 0 0 93245947.09710915 -17136741.9508601 -17136741.9508601 -8653816.697725577 0 0 0 0 0 91079422.83942558 -17084210.86020931 -17084210.86020931 -7644543.439177081 0 0 0 0 0 89043707.84225546 -16857236.27675905 -16857236.27675905 -6623737.615486677 0 0 0 0 0 87182748.36505114 -16475599.00161724 -16475599.00161724 -5608355.542776391 0 0 0 0 0 100145531.4541752 -16164032.37917013 -16164032.37917013 -11358256.14344113 0 0 0 0 0 102482406.9886181 -15452752.80644557 -15452752.80644557 -12056922.01048126 0 0 0 0 0 104784670.1054048 -14552803.9224377 -14552803.9224377 -12611231.95404647 0 0 0 0 0 85472266.86184262 -15955798.21563298 -15955798.21563298 -4616045.883113599 0 0 0 0 0 107014743.952092 -13474522.14656045 -13474522.14656045 -12997658.10367452 0 0 0 0 0 109132551.2962207 -12236125.04258535 -12236125.04258535 -13197493.75927958 0 0 0 0 0 111101060.8608954 -10864962.95246836 -10864962.95246836 -13199710.31156257 0 0 0 0 0 112897248.4933067 -9378018.074373847 -9378018.074373847 -12978334.6010967 0 0 0 0 0 114487803.1422113 -7814787.235439697 -7814787.235439697 -12538169.68901567 0 0 0 0 0 115855652.3018515 -6206064.434261572 -6206064.434261572 -11876220.46128095 0 0 0 0 0 116987968.0285832 -4586032.840175991 -4586032.840175991 -10999367.37465961 0 0 0 0 0 117874431.4482535 -2989255.157726552 -2989255.157726552 -9920043.664086027 0 0 0 0 0 84272309.77285758 -15967608.45723792 -15967608.45723792 -4922606.531807872 0 0 0 0 0 84697738.63754112 -14623173.69793742 -14623173.69793742 -3410865.42139414 0 0 0 0 0 83817800.05611391 -14592942.73388898 -14592942.73388898 -3656731.719816393 0 0 0 0 0 83604673.44127183 -12032568.71260003 -12032568.71260003 -1667954.388605828 0 0 0 0 0 84024737.9526414 -12091466.02305808 -12091466.02305808 -1526495.012773983 0 0 0 0 0 84238164.9092705 -13315301.49380847 -13315301.49380847 -2388883.361033909 0 0 0 0 0 84973201.45765558 -12744764.73389835 -12744764.73389835 -2240001.180097066 0 0 0 0 0 83266521.12592112 -10376631.83668451 -10376631.83668451 -607165.855079687 0 0 0 0 0 83774091.61278494 -11079931.2510792 -11079931.2510792 -1082754.039230342 0 0 0 0 0 136588576.7710069 3174553.0881799 3174553.0881799 30445724.35817548 0 0 0 0 0 138223537.2960765 2040648.461418694 2040648.461418694 32695979.30301106 0 0 0 0 0 139735621.6836799 765289.5263238341 765289.5263238341 34358779.18687802 0 0 0 0 0 142129816.4617434 -368567.8466576284 -368567.8466576284 35428014.22017632 0 0 0 0 0 134850570.698864 4242918.74189858 4242918.74189858 27574138.89840616 0 0 0 0 0 133253517.5876251 5131814.791641076 5131814.791641076 24427037.55891 0 0 0 0 0 131788857.9938951 5804489.254742857 5804489.254742857 21128816.14673778 0 0 0 0 0 130446165.0951921 6245306.937070692 6245306.937070692 17800931.45034276 0 0 0 0 0 129207572.3476947 6456429.641919759 6456429.641919759 14538806.31562529 0 0 0 0 0 128055458.3954881 6452030.208033212 6452030.208033212 11423374.86941312 0 0 0 0 0 126965125.7329345 6255339.630767344 6255339.630767344 8510234.886656713 0 0 0 0 0 125921234.9674547 5895858.112517362 5895858.112517362 5837165.748030677 0 0 0 0 0 124907506.8927204 5406107.072466075 5406107.072466075 3422211.767284973 0 0 0 0 0 123913633.9946959 4818931.654191925 4818931.654191925 1276459.038674986 0 0 0 0 0 122932642.1823485 4162187.294631178 4162187.294631178 -598496.3736445521 0 0 0 0 0 121958175.1968537 3462626.596371263 3462626.596371263 -2220095.030945721 0 0 0 0 0 121578354.6393277 3234625.260612932 3234625.260612932 -2194421.491808952 0 0 0 0 0 121040886.7949937 1416776.528028972 1416776.528028972 -5496811.378162761 0 0 0 0 0 119975938.7522763 698801.2899732903 698801.2899732903 -6457749.6443909 0 0 0 0 0 119071573.3484451 220852.4569328603 220852.4569328603 -6437677.928346914 0 0 0 0 0 118515495.9456851 -1449686.947204474 -1449686.947204474 -8657512.740353908 0 0 0 0 0 97463360.46750632 -16583656.12838827 -16583656.12838827 -11827494.03121134 0 0 0 0 0 95243517.3403634 -17035056.2791734 -17035056.2791734 -11016298.75602492 0 0 0 0 0 93077130.4488622 -17295384.36153636 -17295384.36153636 -10106669.59181373 0 0 0 0 0 91027671.31423673 -17360696.82462014 -17360696.82462014 -9112560.877650598 0 0 0 0 0 89109365.53896941 -17244062.74259834 -17244062.74259834 -8073624.199548527 0 0 0 0 0 87337764.51932266 -16958836.02521203 -16958836.02521203 -7013903.772334693 0 0 0 0 0 85720278.76936173 -16530327.08027783 -16530327.08027783 -5960163.404725311 0 0 0 0 0 99717057.84824832 -15938026.36431014 -15938026.36431014 -12510717.6962752 0 0 0 0 0 101977129.1991993 -15100736.45688341 -15100736.45688341 -13041222.6723315 0 0 0 0 0 104212192.4730413 -14079420.86641305 -14079420.86641305 -13399246.84139502 0 0 0 0 0 106387827.7250714 -12890146.84808925 -12890146.84808925 -13564078.27669845 0 0 0 0 0 108465014.7388557 -11551253.47587738 -11551253.47587738 -13513497.83894103 0 0 0 0 0 110406546.0766065 -10088180.5036661 -10088180.5036661 -13244386.39652389 0 0 0 0 0 112188982.3283363 -8531833.034980927 -8531833.034980927 -12750606.19239808 0 0 0 0 0 113781742.4403073 -6915516.270706041 -6915516.270706041 -12035951.0756749 0 0 0 0 0 115170218.4781131 -5268870.895965808 -5268870.895965808 -11105174.83505276 0 0 0 0 0 116333792.4978734 -3628695.255221837 -3628695.255221837 -9976449.591929432 0 0 0 0 0 117261713.9395485 -2029865.300559842 -2029865.300559842 -8670821.387917506 0 0 0 0 0 86113974.4607596 -15228158.66067386 -15228158.66067386 -4301141.235807458 0 0 0 0 0 85006241.13227473 -15228882.94021034 -15228882.94021034 -4589659.097966419 0 0 0 0 0 85405938.18706451 -13968008.45303414 -13968008.45303414 -3179690.644875405 0 0 0 0 0 84739632.38872159 -11661300.1144935 -11661300.1144935 -1471653.609453113 0 0 0 0 0 84332603.25625019 -12675801.79623665 -12675801.79623665 -2444642.749757263 0 0 0 0 0 84584601.69093697 -13930150.9389876 -13930150.9389876 -3414402.466955547 0 0 0 0 0 85293090.55512093 -13316187.80786932 -13316187.80786932 -3175778.340545918 0 0 0 0 0 84222630.57053991 -10935010.9101545 -10935010.9101545 -951591.3847134244 0 0 0 0 0 84592893.97657908 -11578043.32018777 -11578043.32018777 -1541051.910104845 0 0 0 0 0 134972972.298898 4962732.399730577 4962732.399730577 30375069.91977444 0 0 0 0 0 136827036.690037 3920943.156297198 3920943.156297198 32428508.23013435 0 0 0 0 0 138202052.324957 2597847.443710993 2597847.443710993 33694033.7217379 0 0 0 0 0 139821926.3252904 1448864.441648354 1448864.441648354 34832466.45941141 0 0 0 0 0 133379321.9020451 5985530.344500341 5985530.344500341 28024312.52750931 0 0 0 0 0 131936002.2906253 6806706.118787622 6806706.118787622 25346500.92388682 0 0 0 0 0 130626789.5300192 7399879.798376353 7399879.798376353 22474158.3829307 0 0 0 0 0 129428750.0663623 7757359.801241395 7757359.801241395 19504930.20205158 0 0 0 0 0 128320957.5248255 7886933.373553853 7886933.373553853 16529388.80406446 0 0 0 0 0 127275849.2066151 7805173.994261962 7805173.994261962 13621704.7602516 0 0 0 0 0 126274976.6023567 7537763.057683989 7537763.057683989 10840859.21718449 0 0 0 0 0 125300330.8422946 7114523.225179556 7114523.225179556 8231407.843304593 0 0 0 0 0 124340297.7283213 6566886.000416536 6566886.000416536 5823695.659040167 0 0 0 0 0 123386078.9971004 5926190.706771581 5926190.706771581 3635811.82011503 0 0 0 0 0 122432795.6750891 5219278.348138176 5219278.348138176 1673871.50145977 0 0 0 0 0 121481482.3095315 4473242.12238165 4473242.12238165 -61403.96787312425 0 0 0 0 0 120991809.5399303 2743015.334603634 2743015.334603634 -3599883.282454478 0 0 0 0 0 120495917.9608137 2434378.647789017 2434378.647789017 -3560396.332093086 0 0 0 0 0 119437860.2616083 1659957.641587006 1659957.641587006 -4697527.44231538 0 0 0 0 0 118920053.0728486 2118.612027033665 2118.612027033665 -7234707.693214077 0 0 0 0 0 117952678.5883823 -504176.9060616111 -504176.9060616111 -7213713.879450423 0 0 0 0 0 99659531.43410049 -15621217.90530365 -15621217.90530365 -10702987.28169806 0 0 0 0 0 97481930.9835138 -16060262.60283662 -16060262.60283662 -9901394.984792065 0 0 0 0 0 95337308.39546438 -16323686.4200752 -16323686.4200752 -9018562.146823553 0 0 0 0 0 93256489.65046763 -16410514.89208848 -16410514.89208848 -8094648.408166197 0 0 0 0 0 91275934.7176387 -16332803.65455476 -16332803.65455476 -7142404.421170115 0 0 0 0 0 89412850.9432745 -16097918.51649103 -16097918.51649103 -6179714.067182532 0 0 0 0 0 87689976.56903797 -15725109.91678225 -15725109.91678225 -5227060.635570314 0 0 0 0 0 101841691.8650784 -15001147.06506789 -15001147.06506789 -11398255.51651331 0 0 0 0 0 103997342.4209922 -14206744.344294 -14206744.344294 -11971233.14679061 0 0 0 0 0 106097054.2098485 -13245419.82927925 -13245419.82927925 -12400478.17265975 0 0 0 0 0 108102951.1469693 -12132279.68437743 -12132279.68437743 -12667532.92849751 0 0 0 0 0 109986126.7555559 -10890318.01264694 -10890318.01264694 -12755932.72610684 0 0 0 0 0 111723800.7792104 -9525582.147476384 -9525582.147476384 -12637521.98832833 0 0 0 0 0 113282332.3569388 -8081167.163708276 -8081167.163708276 -12322619.93881901 0 0 0 0 0 114642273.3719982 -6581801.720282608 -6581801.720282608 -11803817.24903354 0 0 0 0 0 115788556.4584689 -5060089.141809354 -5060089.141809354 -11086178.47443138 0 0 0 0 0 116713800.5479317 -3545145.853292436 -3545145.853292436 -10176587.67968367 0 0 0 0 0 117414841.2111518 -2067778.168507603 -2067778.168507603 -9088809.176831519 0 0 0 0 0 86345052.41917759 -15762686.00579032 -15762686.00579032 -5557613.289857942 0 0 0 0 0 86714130.63138752 -14543713.05152167 -14543713.05152167 -4014711.014553396 0 0 0 0 0 85693215.23498377 -14534204.46940371 -14534204.46940371 -4286077.133681105 0 0 0 0 0 84927830.95163959 -12106908.69331986 -12106908.69331986 -2320063.677433578 0 0 0 0 0 85727371.19453609 -12200337.81322842 -12200337.81322842 -2092957.686550915 0 0 0 0 0 86072808.66625416 -13342333.36605797 -13342333.36605797 -2957649.582216978 0 0 0 0 0 86666871.96584688 -12769518.05088047 -12769518.05088047 -2742101.864104977 0 0 0 0 0 84594166.93518175 -10734168.69532735 -10734168.69532735 -1169817.262211469 0 0 0 0 0 84995628.54015484 -11427055.60457891 -11427055.60457891 -1729862.633620628 0 0 0 0 0 132346114.4618137 3793758.380116499 3793758.380116499 28938288.05865515 0 0 0 0 0 133719176.1999247 2659263.931034245 2659263.931034245 31326264.59344114 0 0 0 0 0 134673325.3232979 1511247.534622741 1511247.534622741 33136354.72219248 0 0 0 0 0 136547600.5730099 -164371.6726352382 -164371.6726352382 34108223.17336427 0 0 0 0 0 131027156.8076679 4818399.516639332 4818399.516639332 26184429.16560565 0 0 0 0 0 129802960.6127857 5648785.55747151 5648785.55747151 23207460.87192852 0 0 0 0 0 128681886.0357703 6258862.903832807 6258862.903832807 20120976.07122377 0 0 0 0 0 127647980.6373928 6644170.637449275 6644170.637449275 17026047.95087987 0 0 0 0 0 126687346.025895 6812543.717065333 6812543.717065333 14004750.47573695 0 0 0 0 0 125780586.4551691 6781565.594114193 6781565.594114193 11120515.99217396 0 0 0 0 0 124910779.6605383 6574772.46040715 6574772.46040715 8421392.32709704 0 0 0 0 0 124064217.0289779 6220723.747409575 6220723.747409575 5938577.791792577 0 0 0 0 0 123229524.5916422 5748425.114266635 5748425.114266635 3690965.615845083 0 0 0 0 0 122398426.2889114 5186276.024630638 5186276.024630638 1682776.675062517 0 0 0 0 0 121566548.2014721 4560035.987613354 4560035.987613354 -86541.66040458423 0 0 0 0 0 120733674.995441 3894925.758094042 3894925.758094042 -1625469.557252377 0 0 0 0 0 120529229.8625613 3709011.954561603 3709011.954561603 -1577735.250391764 0 0 0 0 0 120047041.353218 2033740.131739113 2033740.131739113 -4740783.855408988 0 0 0 0 0 119103464.2076005 1339426.724404278 1339426.724404278 -5683815.344693665 0 0 0 0 0 118410171.7475886 918987.3862570741 918987.3862570741 -5637262.053120018 0 0 0 0 0 117895039.567502 -656076.4522353222 -656076.4522353222 -7841627.182014062 0 0 0 0 0 97170901.30847296 -15989968.7277581 -15989968.7277581 -11141825.00483384 0 0 0 0 0 99267809.83292699 -15430229.83213953 -15430229.83213953 -11823220.43749622 0 0 0 0 0 95107790.31026439 -16371686.85843594 -16371686.85843594 -10349076.32939024 0 0 0 0 0 93123435.08683628 -16570301.51187726 -16570301.51187726 -9461304.32709253 0 0 0 0 0 91241013.73104958 -16596575.64897627 -16596575.64897627 -8519700.019469723 0 0 0 0 0 89472499.98270731 -16463415.0053667 -16463415.0053667 -7542522.505665599 0 0 0 0 0 87837167.30296937 -16178845.327847 -16178845.327847 -6547106.446030445 0 0 0 0 0 101378576.1100966 -14695591.96013659 -14695591.96013659 -12378239.13536315 0 0 0 0 0 103470938.3064082 -13790213.5221999 -13790213.5221999 -12780280.70652145 0 0 0 0 0 105519552.0045344 -12724774.01433082 -12724774.01433082 -13009159.95588583 0 0 0 0 0 107487460.4556402 -11516129.28458 -11516129.28458 -13046939.96703457 0 0 0 0 0 109345701.5728211 -10184617.5650142 -10184617.5650142 -12894228.57531433 0 0 0 0 0 111066019.5214964 -8754262.900349244 -8754262.900349244 -12533654.59507165 0 0 0 0 0 112620338.7213747 -7255205.5482776 -7255205.5482776 -11967082.80837178 0 0 0 0 0 113990097.2166484 -5719426.571888395 -5719426.571888395 -11200117.12955702 0 0 0 0 0 115162503.4214867 -4173749.124067298 -4173749.124067298 -10241910.68238083 0 0 0 0 0 116123696.3998457 -2650260.53693208 -2650260.53693208 -9110044.355049172 0 0 0 0 0 116868358.512023 -1179597.284297666 -1179597.284297666 -7826377.585345826 0 0 0 0 0 88170475.85135978 -15016876.56572603 -15016876.56572603 -4879771.882858718 0 0 0 0 0 86927201.68507594 -15041792.95823659 -15041792.95823659 -5190497.066976303 0 0 0 0 0 87273886.07498856 -13900941.13751738 -13900941.13751738 -3758305.484070921 0 0 0 0 0 86230361.57988842 -11829841.29768367 -11829841.29768367 -1864463.876885006 0 0 0 0 0 86029249.55393548 -12754419.94735534 -12754419.94735534 -2919530.72289915 0 0 0 0 0 86334827.23395337 -13877608.25226471 -13877608.25226471 -4015798.193583979 0 0 0 0 0 86949483.2253767 -13284031.45918615 -13284031.45918615 -3720118.974003573 0 0 0 0 0 85547407.50438128 -11261042.90210808 -11261042.90210808 -1548533.013039723 0 0 0 0 0 131024067.6672858 5240772.488772807 5240772.488772807 28864849.69407431 0 0 0 0 0 132366218.3100351 4048532.767196432 4048532.767196432 30721201.47665173 0 0 0 0 0 133991939.477221 2399260.726182318 2399260.726182318 31549954.40323129 0 0 0 0 0 134318220.4393165 1493395.94135948 1493395.94135948 33575841.87619018 0 0 0 0 0 129832937.5891603 6243636.767506442 6243636.767506442 26599313.08729088 0 0 0 0 0 128744728.6420872 7023145.931443292 7023145.931443292 24079775.8155767 0 0 0 0 0 127753016.4608422 7575750.511850948 7575750.511850948 21391541.69713271 0 0 0 0 0 126838707.7931229 7901146.338901122 7901146.338901122 18629766.03775874 0 0 0 0 0 125980414.6809505 8011583.179023785 8011583.179023785 15870232.33282585 0 0 0 0 0 125159086.787071 7926249.769144615 7926249.769144615 13177321.27297522 0 0 0 0 0 124357703.7398119 7670025.302626763 7670025.302626763 10601813.5040962 0 0 0 0 0 123563428.5926248 7270597.094391583 7270597.094391583 8181094.839127562 0 0 0 0 0 122767831.6847964 6756884.947912355 6756884.947912355 5940574.010583661 0 0 0 0 0 121965676.5878293 6156343.38367423 6156343.38367423 3896102.633167224 0 0 0 0 0 121154198.5034381 5493760.541690866 5493760.541690866 2054113.078397152 0 0 0 0 0 120331893.723563 4792838.475175047 4792838.475175047 415882.2123474641 0 0 0 0 0 119897661.9004874 3210805.260288733 3210805.260288733 -2944381.426423631 0 0 0 0 0 119573010.0627815 2946919.787643177 2946919.787643177 -2886210.779218371 0 0 0 0 0 118636896.8308694 2209387.002879208 2209387.002879208 -3984054.567463748 0 0 0 0 0 118164135.1890494 663784.5081405367 663784.5081405367 -6458840.835420724 0 0 0 0 0 117398189.1387929 211762.945734309 211762.945734309 -6414648.07319674 0 0 0 0 0 99235497.22815482 -15083468.87638357 -15083468.87638357 -10074137.92988259 0 0 0 0 0 101267895.7361331 -14544672.1840066 -14544672.1840066 -10763333.44656196 0 0 0 0 0 97206962.03520338 -15458092.39816966 -15458092.39816966 -9295240.490532856 0 0 0 0 0 95217842.49002199 -15665710.20089755 -15665710.20089755 -8455711.588235596 0 0 0 0 0 93304127.28774141 -15716339.31155317 -15716339.31155317 -7578708.685250641 0 0 0 0 0 91480639.36778848 -15617802.48808583 -15617802.48808583 -6678033.564067751 0 0 0 0 0 89763416.09873314 -15379151.12934693 -15379151.12934693 -5772227.363112858 0 0 0 0 0 103287838.1469618 -13847786.18765811 -13847786.18765811 -11348809.22616479 0 0 0 0 0 105266730.9017954 -12990871.14120982 -12990871.14120982 -11804706.96148255 0 0 0 0 0 107167885.3235938 -11991324.93898996 -11991324.93898996 -12119493.39008032 0 0 0 0 0 108965159.3211247 -10863659.98611283 -10863659.98611283 -12272951.36629546 0 0 0 0 0 110636661.9600803 -9623106.573227299 -9623106.573227299 -12249466.19659897 0 0 0 0 0 112157726.8357186 -8290749.572776073 -8290749.572776073 -12043366.41300521 0 0 0 0 0 113500787.7586929 -6898390.984373096 -6898390.984373096 -11650763.84036527 0 0 0 0 0 114653856.5313144 -5472613.806682815 -5472613.806682815 -11071874.71059654 0 0 0 0 0 115605827.3845169 -4042377.131059219 -4042377.131059219 -10314571.11015819 0 0 0 0 0 116354433.2378411 -2632173.612684957 -2632173.612684957 -9384700.38938972 0 0 0 0 0 116898907.2362116 -1269440.135504753 -1269440.135504753 -8298450.300643802 0 0 0 0 0 88306866.56622735 -15442248.20498399 -15442248.20498399 -6117931.063491313 0 0 0 0 0 88621388.57762548 -14349783.70542309 -14349783.70542309 -4562140.811550594 0 0 0 0 0 87471382.00447856 -14364112.71559362 -14364112.71559362 -4854221.349129114 0 0 0 0 0 86236547.33880268 -11675288.32455717 -11675288.32455717 -2306156.74917156 0 0 0 0 0 87066150.93073453 -12256946.75317723 -12256946.75317723 -2792032.904708369 0 0 0 0 0 87808118.69282983 -13286295.2967792 -13286295.2967792 -3490601.347985322 0 0 0 0 0 88263077.25281207 -12745658.94118435 -12745658.94118435 -3340076.731347702 0 0 0 0 0 85997087.33630985 -10994992.00854669 -10994992.00854669 -1708733.183877615 0 0 0 0 0 128862159.5651283 4223528.867572309 4223528.867572309 27436729.54597266 0 0 0 0 0 130051737.452787 3094560.923639761 3094560.923639761 29734442.33365806 0 0 0 0 0 131450673.2684786 2118970.98168669 2118970.98168669 31706796.48887502 0 0 0 0 0 131353308.8529897 2232452.589786959 2232452.589786959 32926726.78430199 0 0 0 0 0 132272277.8825845 130721.0143428939 130721.0143428939 32319380.64108821 0 0 0 0 0 127813376.6589704 5199847.723211795 5199847.723211795 24822578.90243975 0 0 0 0 0 126869498.0231598 5969421.681301502 5969421.681301502 22030376.22976937 0 0 0 0 0 126005015.9771454 6524940.208944919 6524940.208944919 19157037.08335324 0 0 0 0 0 125208466.4080482 6866558.438401544 6866558.438401544 16287609.27472224 0 0 0 0 0 124461774.7924349 7006273.443332651 7006273.443332651 13492117.71937235 0 0 0 0 0 123748957.7392869 6962306.986819598 6962306.986819598 10824347.07084591 0 0 0 0 0 123054678.1129258 6757593.802317725 6757593.802317725 8324544.515816901 0 0 0 0 0 122367284.7321601 6417748.213011347 6417748.213011347 6018979.589217317 0 0 0 0 0 121679970.4020112 5970178.997083873 5970178.997083873 3922100.563066765 0 0 0 0 0 120985797.8172823 5439461.590040691 5439461.590040691 2039567.600095277 0 0 0 0 0 120282653.1093698 4849561.633199861 4849561.633199861 372327.9027947939 0 0 0 0 0 119568776.7707619 4222424.209375761 4222424.209375761 -1086820.55911545 0 0 0 0 0 119502499.5174166 4074426.796564586 4074426.796564586 -1024013.719721647 0 0 0 0 0 119070548.4022236 2533117.377534692 2533117.377534692 -4045993.103494694 0 0 0 0 0 118238647.7867322 1868293.178840442 1868293.178840442 -4967348.569166625 0 0 0 0 0 117717658.9908322 1498297.435977855 1498297.435977855 -4904331.387884619 0 0 0 0 0 117244728.4981669 21267.39328354334 21267.39328354334 -7075246.15580678 0 0 0 0 0 96921909.7633191 -15408752.5743274 -15408752.5743274 -10490252.86908529 0 0 0 0 0 98878071.60387897 -14926529.92210306 -14926529.92210306 -11171494.5671135 0 0 0 0 0 100844952.3723332 -14284741.18086705 -14284741.18086705 -11738113.61034345 0 0 0 0 0 95019514.04627831 -15724916.9739124 -15724916.9739124 -9716062.355507622 0 0 0 0 0 93192615.1594273 -15875398.79708007 -15875398.79708007 -8870372.566712618 0 0 0 0 0 91453617.23845814 -15873108.92466357 -15873108.92466357 -7976357.527044736 0 0 0 0 0 89821065.3692206 -15725160.62838164 -15725160.62838164 -7052737.734331192 0 0 0 0 0 102803294.2004828 -13481909.20416319 -13481909.20416319 -12171829.17065253 0 0 0 0 0 104731757.4166621 -12528912.84841836 -12528912.84841836 -12453778.29600158 0 0 0 0 0 106593210.1055732 -11439385.75798051 -11439385.75798051 -12567880.73262385 0 0 0 0 0 108360500.253475 -10234715.66875303 -10234715.66875303 -12511343.1236317 0 0 0 0 0 110019303.5980921 -8921531.202175718 -8921531.202175718 -12259722.34832547 0 0 0 0 0 111533861.8194297 -7534863.155219361 -7534863.155219361 -11819090.32306652 0 0 0 0 0 112882395.5042899 -6102468.2211145 -6102468.2211145 -11193383.53025526 0 0 0 0 0 114054962.326371 -4652063.870218998 -4652063.870218998 -10387955.27007167 0 0 0 0 0 115037675.747756 -3208552.181283961 -3208552.181283961 -9415543.332206585 0 0 0 0 0 115824292.3887849 -1799178.665777731 -1799178.665777731 -8291989.678059103 0 0 0 0 0 116413152.7742119 -449981.3643473425 -449981.3643473425 -7037546.183840104 0 0 0 0 0 90098561.89764653 -14698499.04854525 -14698499.04854525 -5397649.064090151 0 0 0 0 0 88747009.79654878 -14746911.55417967 -14746911.55417967 -5723794.571580312 0 0 0 0 0 89042515.47247393 -13725104.48491128 -13725104.48491128 -4285198.045738863 0 0 0 0 0 86915497.40314199 -11537569.5027893 -11537569.5027893 -2071738.524482728 0 0 0 0 0 87353574.03819087 -12122438.07062137 -12122438.07062137 -2693890.366051852 0 0 0 0 0 87803857.16865313 -12757697.22559951 -12757697.22559951 -3470400.204430562 0 0 0 0 0 87925819.87954102 -13705850.53296409 -13705850.53296409 -4586810.337786884 0 0 0 0 0 88239301.07228658 -13087971.33339023 -13087971.33339023 -4263516.619003313 0 0 0 0 0 127754047.9311023 5445457.971370906 5445457.971370906 27364497.86633999 0 0 0 0 0 128788632.8639391 4323852.1721115 4323852.1721115 29202264.18875438 0 0 0 0 0 129805943.9354344 3182339.834232526 3182339.834232526 30882930.64069561 0 0 0 0 0 129892656.857906 1301122.135551107 1301122.135551107 31226557.77146342 0 0 0 0 0 130061584.4194344 1231374.502612685 1231374.502612685 32170171.60858599 0 0 0 0 0 126835658.5089703 6380792.989542409 6380792.989542409 25227350.81230628 0 0 0 0 0 126009521.2181706 7110722.61300683 7110722.61300683 22853201.06092317 0 0 0 0 0 125257467.9717448 7621544.150786428 7621544.150786428 20349130.40407768 0 0 0 0 0 124559507.1510105 7919562.46649683 7919562.46649683 17784873.15820103 0 0 0 0 0 123896642.8640846 8018038.098130651 8018038.098130651 15228378.51312958 0 0 0 0 0 123250568.738121 7935934.545233993 7935934.545233993 12736643.00494868 0 0 0 0 0 122609206.723593 7696835.463448849 7696835.463448849 10352476.20843453 0 0 0 0 0 121963021.1143833 7326001.166465147 7326001.166465147 8106722.084500795 0 0 0 0 0 121304454.6195558 6849109.423125844 6849109.423125844 6020867.336671168 0 0 0 0 0 120630968.8472737 6291129.307033714 6291129.307033714 4110059.271994659 0 0 0 0 0 119939506.0432542 5674779.069462639 5674779.069462639 2381603.830642096 0 0 0 0 0 119231735.0381676 5021127.65235386 5021127.65235386 836021.176775424 0 0 0 0 0 118846015.1122246 3577122.843502776 3577122.843502776 -2347508.168103178 0 0 0 0 0 118662438.0694818 3354068.494121156 3354068.494121156 -2275196.132282038 0 0 0 0 0 117833012.6183331 2654558.684695154 2654558.684695154 -3334531.134604564 0 0 0 0 0 117402503.7273649 1217875.767202575 1217875.767202575 -5737131.31563425 0 0 0 0 0 116807843.1959269 815965.0871861986 815965.0871861986 -5675310.691988003 0 0 0 0 0 98862515.23650672 -14555814.77581432 -14555814.77581432 -9479513.9662345 0 0 0 0 0 100766008.304125 -14089730.22851318 -14089730.22851318 -10159782.03181572 0 0 0 0 0 102658803.0765088 -13474726.88494912 -13474726.88494912 -10746148.91676967 0 0 0 0 0 96980718.46315664 -14869024.29520588 -14869024.29520588 -8731717.548355747 0 0 0 0 0 95143632.85496917 -15032657.70319709 -15032657.70319709 -7934001.500552831 0 0 0 0 0 93372161.30709863 -15054063.06208483 -15054063.06208483 -7100599.253092673 0 0 0 0 0 91684672.38163175 -14940335.67112743 -14940335.67112743 -6251186.92731156 0 0 0 0 0 104518516.3625703 -12714805.56807177 -12714805.56807177 -11220951.84672729 0 0 0 0 0 106318766.3069652 -11817812.10049214 -11817812.10049214 -11571679.72155659 0 0 0 0 0 108030948.4471615 -10796932.94216732 -10796932.94216732 -11778924.31398342 0 0 0 0 0 109636507.2742725 -9669261.42544974 -9669261.42544974 -11832364.44667114 0 0 0 0 0 111106231.2600947 -8449706.864546776 -8449706.864546776 -11721933.93220443 0 0 0 0 0 112428039.4931204 -7160145.69667592 -7160145.69667592 -11437947.99565855 0 0 0 0 0 113582513.9214947 -5825770.10983 -5825770.10983 -10977693.28298907 0 0 0 0 0 114552131.9394642 -4480320.229458891 -4480320.229458891 -10352787.00443137 0 0 0 0 0 115336469.5289754 -3141350.547586882 -3141350.547586882 -9565288.914893471 0 0 0 0 0 115933625.3672098 -1833916.456200236 -1833916.456200236 -8626790.863221778 0 0 0 0 0 116346178.8977867 -580933.4109698532 -580933.4109698532 -7551762.747742259 0 0 0 0 0 90155601.46316573 -15028096.25329782 -15028096.25329782 -6602324.187262071 0 0 0 0 0 90421728.01236895 -14051876.36761624 -14051876.36761624 -5051611.741096809 0 0 0 0 0 89160616.57621577 -14094012.78620108 -14094012.78620108 -5357513.197077543 0 0 0 0 0 87336974.9855511 -11184811.34394081 -11184811.34394081 -2253516.957949958 0 0 0 0 0 87792826.1983764 -11754704.99569498 -11754704.99569498 -2843464.074516531 0 0 0 0 0 88251815.83100401 -12420923.46787999 -12420923.46787999 -3478768.017769263 0 0 0 0 0 89507850.07992527 -13102945.81745594 -13102945.81745594 -4019953.6969434 0 0 0 0 0 89530350.74242482 -12722633.70578994 -12722633.70578994 -3719591.518638787 0 0 0 0 0 125878884.2934972 4531502.191037216 4531502.191037216 25976277.94153747 0 0 0 0 0 126802254.9741978 3469714.886117732 3469714.886117732 28182476.38290026 0 0 0 0 0 128001308.5152128 2408978.254830105 2408978.254830105 30030677.43628396 0 0 0 0 0 127971225.1595603 2233251.430733857 2233251.430733857 30950440.18160646 0 0 0 0 0 128430368.2527422 149025.6061755746 149025.6061755746 31017934.08623346 0 0 0 0 0 125078308.6938826 5437127.945355891 5437127.945355891 23514015.11533038 0 0 0 0 0 124344621.7579318 6148336.733189091 6148336.733189091 20906743.19982158 0 0 0 0 0 123681589.1818736 6654096.092122423 6654096.092122423 18239439.02973836 0 0 0 0 0 123068602.2362652 6960808.260687974 6960808.260687974 15583357.16387615 0 0 0 0 0 122490221.8133385 7081185.089121912 7081185.089121912 12998625.06661736 0 0 0 0 0 121929408.8778472 7032561.501719217 7032561.501719217 10531939.72486875 0 0 0 0 0 121374921.2068623 6836886.373628443 6836886.373628443 8215939.937865674 0 0 0 0 0 120817901.7650353 6517319.418647531 6517319.418647531 6072722.897635462 0 0 0 0 0 120251963.2122453 6098011.01583202 6098011.01583202 4115534.501294373 0 0 0 0 0 119673317.3867881 5602380.227353239 5602380.227353239 2351250.601948199 0 0 0 0 0 119078191.8491948 5051050.047698699 5051050.047698699 779742.1823042489 0 0 0 0 0 118467197.8252265 4463454.149771308 4463454.149771308 -604397.483812276 0 0 0 0 0 118510534.0920732 4349134.114889929 4349134.114889929 -531173.1801255796 0 0 0 0 0 118122990.9519114 2933895.78243386 2933895.78243386 -3409736.277545831 0 0 0 0 0 117389114.4675956 2299999.565660343 2299999.565660343 -4310353.079805916 0 0 0 0 0 117015137.3160168 1977487.875105864 1977487.875105864 -4233196.26426319 0 0 0 0 0 116580657.1418212 596191.6385443992 596191.6385443992 -6359167.197413108 0 0 0 0 0 98539451.69538455 -14431058.62839505 -14431058.62839505 -10554984.61052061 0 0 0 0 0 96730162.50459793 -14841014.62895883 -14841014.62895883 -9882134.2032772 0 0 0 0 0 100377569.5645683 -13866795.25963912 -13866795.25963912 -11125231.86360332 0 0 0 0 0 102212263.2054034 -13158388.21569004 -13158388.21569004 -11582559.12355958 0 0 0 0 0 94969528.59888132 -15100104.59313743 -15100104.59313743 -9131553.096038399 0 0 0 0 0 93274477.1340359 -15213390.94147403 -15213390.94147403 -8323643.0389501 0 0 0 0 0 91664271.62017789 -15186614.80809492 -15186614.80809492 -7474171.520057087 0 0 0 0 0 104021936.3648231 -12307294.76706551 -12307294.76706551 -11904168.88543828 0 0 0 0 0 105781999.6783874 -11326034.62159521 -11326034.62159521 -12077764.21654731 0 0 0 0 0 107464718.4984555 -10232097.17961994 -10232097.17961994 -12094234.45913667 0 0 0 0 0 109052984.3829683 -9035731.328684883 -9035731.328684883 -11938323.08476123 0 0 0 0 0 110521747.886497 -7757395.481219635 -7757395.481219635 -11607786.35796405 0 0 0 0 0 111848091.2114936 -6424800.460483582 -6424800.460483582 -11106266.38207945 0 0 0 0 0 113010985.3400375 -5067134.58472071 -5067134.58472071 -10437038.87228675 0 0 0 0 0 114004777.4710489 -3704953.490763104 -3704953.490763104 -9608270.236289604 0 0 0 0 0 114822365.9655114 -2361407.903496949 -2361407.903496949 -8631263.079865811 0 0 0 0 0 115459179.9182819 -1061249.648441779 -1061249.648441779 -7523522.909966967 0 0 0 0 0 115915793.0234252 173431.7922622083 173431.7922622083 -6304295.262040813 0 0 0 0 0 91886505.32217215 -14299697.88254464 -14299697.88254464 -5860225.163464564 0 0 0 0 0 90482881.11769544 -14370729.61447532 -14370729.61447532 -6187710.312569251 0 0 0 0 0 90730149.21451604 -13438574.35867165 -13438574.35867165 -4708283.647637258 0 0 0 0 0 88207832.46025757 -11682745.77019083 -11682745.77019083 -2714781.822997847 0 0 0 0 0 88810574.13404541 -12290285.74774878 -12290285.74774878 -3269594.934401457 0 0 0 0 0 89554245.27334884 -13484477.33876106 -13484477.33876106 -4995750.723476774 0 0 0 0 0 89485811.9388541 -12538742.87879159 -12538742.87879159 -4167567.588209253 0 0 0 0 0 124967949.294211 5547117.916495648 5547117.916495648 25970813.21560067 0 0 0 0 0 125736790.8601286 4506614.411539079 4506614.411539079 27734482.60246988 0 0 0 0 0 126614348.03514 3357576.467627908 3357576.467627908 29485132.40503062 0 0 0 0 0 126516911.848022 1346663.920122303 1346663.920122303 29903695.45280717 0 0 0 0 0 126619393.5546723 1066876.069656625 1066876.069656625 30595649.34590445 0 0 0 0 0 124267966.0699092 6426559.603014382 6426559.603014382 23900502.36253103 0 0 0 0 0 123643943.4431018 7101483.071601111 7101483.071601111 21684969.70243199 0 0 0 0 0 123076526.4047039 7573589.004503457 7573589.004503457 19352051.08424725 0 0 0 0 0 122546140.0663719 7848818.218787964 7848818.218787964 16973288.72865663 0 0 0 0 0 122034448.2157702 7939644.367956954 7939644.367956954 14607897.79188379 0 0 0 0 0 121527978.7094398 7864992.750304339 7864992.750304339 12302365.82591063 0 0 0 0 0 121016428.3124826 7646304.897724838 7646304.897724838 10094204.75095001 0 0 0 0 0 120491495.8315977 7305630.938418918 7305630.938418918 8009694.381056717 0 0 0 0 0 119947801.8419833 6866267.07454468 6866267.07454468 6067336.003449869 0 0 0 0 0 119381867.2923092 6351574.458615623 6351574.458615623 4281531.082191855 0 0 0 0 0 118793751.8754711 5781072.375631915 5781072.375631915 2660804.680775194 0 0 0 0 0 118185380.9038035 5174370.441102712 5174370.441102712 1202044.475836395 0 0 0 0 0 117842683.747236 3857799.063673949 3857799.063673949 -1807646.883759713 0 0 0 0 0 117773496.7368973 3671963.744193838 3671963.744193838 -1725329.99536366 0 0 0 0 0 117040227.5065444 3011078.018679254 3011078.018679254 -2747601.348466681 0 0 0 0 0 116648567.4167209 1679097.435850021 1679097.435850021 -5070254.648282538 0 0 0 0 0 116197281.9673592 1322870.559616438 1322870.559616438 -4995540.336328546 0 0 0 0 0 100325141.9433399 -13637610.83416344 -13637610.83416344 -9590663.288617721 0 0 0 0 0 98551376.79729141 -14038922.51669027 -14038922.51669027 -8931434.626227364 0 0 0 0 0 102096813.7996438 -13097507.11617091 -13097507.11617091 -10173788.66909153 0 0 0 0 0 103848665.5410849 -12422679.63856415 -12422679.63856415 -10661038.30469848 0 0 0 0 0 96800267.67382778 -14300648.81259555 -14300648.81259555 -8212502.166423571 0 0 0 0 0 95094679.59358443 -14427220.25443989 -14427220.25443989 -7449157.144592084 0 0 0 0 0 93450394.60708301 -14424151.51333703 -14424151.51333703 -6659153.85456957 0 0 0 0 0 105549329.9294345 -11618941.03445971 -11618941.03445971 -11036188.01489334 0 0 0 0 0 107179635.4596445 -10696676.65111628 -10696676.65111628 -11285978.76236219 0 0 0 0 0 108717498.5188024 -9670673.57176956 -9670673.57176956 -11398187.7051011 0 0 0 0 0 110139401.7585845 -8555142.090774195 -8555142.090774195 -11362980.26105455 0 0 0 0 0 111429563.8706966 -7365912.16402624 -7365912.16402624 -11170812.38898447 0 0 0 0 0 112571135.5933081 -6126327.275835889 -6126327.275835889 -10819302.2366108 0 0 0 0 0 113551861.4152182 -4861743.353552236 -4861743.353552236 -10311199.56025526 0 0 0 0 0 114362397.6227058 -3595816.227188193 -3595816.227188193 -9651030.821223259 0 0 0 0 0 115001765.1592085 -2347522.327639837 -2347522.327639837 -8845855.442601833 0 0 0 0 0 115470103.2732608 -1138917.580249205 -1138917.580249205 -7907451.76703901 0 0 0 0 0 115772055.2059626 10360.66596548882 10360.66596548882 -6850402.081024215 0 0 0 0 0 91871789.37286079 -14536435.38124964 -14536435.38124964 -7009984.616401197 0 0 0 0 0 92083934.51000668 -13697353.6223298 -13697353.6223298 -5503843.342709896 0 0 0 0 0 90810952.85405234 -13744113.59401961 -13744113.59401961 -5810398.116344779 0 0 0 0 0 88708990.49733081 -11265049.36297457 -11265049.36297457 -2764885.454033009 0 0 0 0 0 89292357.63090111 -11796920.25669554 -11796920.25669554 -3371665.915512382 0 0 0 0 0 90931299.17296049 -12872881.31328375 -12872881.31328375 -4533050.228787563 0 0 0 0 0 90613388.36325784 -12265554.74013356 -12265554.74013356 -3742106.910501327 0 0 0 0 0 90549038.25582297 -12791237.97382149 -12791237.97382149 -4653634.451006669 0 0 0 0 0 124012029.8879559 3714700.966679951 3714700.966679951 26677631.10687738 0 0 0 0 0 123360067.4426182 4718832.190514494 4718832.190514494 24584195.74242371 0 0 0 0 0 125093486.4110553 2565737.297009851 2565737.297009851 28464287.35130683 0 0 0 0 0 125006799.015462 2235250.544717628 2235250.544717628 29613328.6840854 0 0 0 0 0 125240582.887111 167649.8343538558 167649.8343538558 29566750.70375262 0 0 0 0 0 122715709.0460889 5568342.583146276 5568342.583146276 22270510.59620111 0 0 0 0 0 122158449.7632596 6220602.675264588 6220602.675264588 19843239.95691805 0 0 0 0 0 121652902.3525464 6683442.73821697 6683442.73821697 17369650.40168357 0 0 0 0 0 121183300.3231116 6962104.602967873 6962104.602967873 14912463.83784297 0 0 0 0 0 120736092.8230708 7069431.951517222 7069431.951517222 12523569.21044276 0 0 0 0 0 120295979.6986779 7021528.207703918 7021528.207703918 10242079.49314716 0 0 0 0 0 119854181.047821 6838934.803730438 6838934.803730438 8095241.875888196 0 0 0 0 0 119402998.0051193 6541806.75011191 6541806.75011191 6100417.477276003 0 0 0 0 0 118938782.8776034 6152992.383048867 6152992.383048867 4272911.931669738 0 0 0 0 0 118456084.1072348 5694029.286110813 5694029.286110813 2619638.6721205 0 0 0 0 0 117952323.6102097 5180717.496563585 5180717.496563585 1137753.611823948 0 0 0 0 0 117429172.7460217 4632789.81755263 4632789.81755263 -175438.8776877901 0 0 0 0 0 117559907.82388 4548698.074863367 4548698.074863367 -95962.91349015929 0 0 0 0 0 117212348.946081 3250986.289684683 3250986.289684683 -2831968.843497469 0 0 0 0 0 116566004.5225752 2650069.781454959 2650069.781454959 -3708580.352956486 0 0 0 0 0 116310800.3935658 2369121.283614496 2369121.283614496 -3623540.876081278 0 0 0 0 0 115914948.4406706 1081981.287077753 1081981.287077753 -5692890.371036781 0 0 0 0 0 98258736.77376577 -13938678.42239616 -13938678.42239616 -9967522.440839143 0 0 0 0 0 99970289.38055974 -13448518.78327545 -13448518.78327545 -10538723.07667099 0 0 0 0 0 96575652.95142061 -14289750.77715699 -14289750.77715699 -9311635.686319113 0 0 0 0 0 101686967.2833068 -12822082.09527616 -12822082.09527616 -11008933.05935029 0 0 0 0 0 103389719.8969689 -12062288.67701178 -12062288.67701178 -11359651.55642842 0 0 0 0 0 94938900.01022477 -14502835.67521661 -14502835.67521661 -8588953.535849374 0 0 0 0 0 93365252.92130803 -14582784.82157219 -14582784.82157219 -7816047.705589122 0 0 0 0 0 105050633.1929827 -11180261.03481747 -11180261.03481747 -11580634.29603056 0 0 0 0 0 106650433.9722683 -10187347.4925309 -10187347.4925309 -11658703.87900143 0 0 0 0 0 108167068.0617074 -9097468.459705241 -9097468.459705241 -11584822.82860179 0 0 0 0 0 109580655.3280763 -7926363.941677212 -7926363.941677212 -11352741.03715409 0 0 0 0 0 110873435.5874127 -6694030.831565846 -6694030.831565846 -10959088.88980764 0 0 0 0 0 112027530.3896806 -5422327.317540128 -5422327.317540128 -10405394.68691362 0 0 0 0 0 113026187.6605776 -4140921.781621983 -4140921.781621983 -9704826.074064106 0 0 0 0 0 113864942.8413722 -2866226.405718459 -2866226.405718459 -8862067.814009428 0 0 0 0 0 114538847.1636708 -1620299.064329393 -1620299.064329393 -7890003.992630322 0 0 0 0 0 115046759.6292496 -424026.7149374269 -424026.7149374269 -6805098.27365429 0 0 0 0 0 115391204.3972617 703535.7825787874 703535.7825787874 -5625722.214674724 0 0 0 0 0 93536941.23542564 -13825886.29023889 -13825886.29023889 -6250233.627369203 0 0 0 0 0 92071581.22962494 -13920700.97389333 -13920700.97389333 -6580978.516697065 0 0 0 0 0 92284610.51358341 -13129152.44543381 -13129152.44543381 -5222127.27857479 0 0 0 0 0 89494839.6304322 -11729315.24800609 -11729315.24800609 -3312819.395223919 0 0 0 0 0 90075557.55261736 -12250105.6689845 -12250105.6689845 -3878327.097065182 0 0 0 0 0 91165524.51449221 -13195072.88380875 -13195072.88380875 -5471359.93444112 0 0 0 0 0 90494026.80646354 -12368698.14462383 -12368698.14462383 -4651419.509265102 0 0 0 0 0 91442830.10374869 -12372767.50314097 -12372767.50314097 -4443397.586449884 0 0 0 0 0 123182585.6584632 4577702.120727449 4577702.120727449 26409170.20136462 0 0 0 0 0 122578977.6706778 5582699.577099566 5582699.577099566 24569085.90402562 0 0 0 0 0 123857956.1408562 3470055.362960953 3470055.362960953 27957662.39215712 0 0 0 0 0 123810890.6235185 1417494.516506206 1417494.516506206 28503906.50716311 0 0 0 0 0 123822459.4827621 951855.4517799688 951855.4517799688 29096553.23126093 0 0 0 0 0 122050313.1850538 6394766.652741315 6394766.652741315 22651375.14173177 0 0 0 0 0 121585103.8419959 7020618.851840463 7020618.851840463 20572795.72756829 0 0 0 0 0 121161043.5608615 7458877.975334007 7458877.975334007 18405123.34272731 0 0 0 0 0 120760649.5252527 7715494.847135751 7715494.847135751 16202170.09434287 0 0 0 0 0 120367027.3110295 7802206.97354701 7802206.97354701 14013045.54394329 0 0 0 0 0 119972167.8156226 7737051.103647006 7737051.103647006 11879019.16597769 0 0 0 0 0 119565722.1724312 7539794.945664426 7539794.945664426 9830267.03373812 0 0 0 0 0 119140510.9761186 7228872.163204852 7228872.163204852 7895495.545043509 0 0 0 0 0 118691516.6439875 6826523.618192156 6826523.618192156 6086297.383343809 0 0 0 0 0 118217159.0826223 6354349.748024091 6354349.748024091 4416480.603557711 0 0 0 0 0 117716846.9345473 5828057.749869953 5828057.749869953 2896792.381240557 0 0 0 0 0 117196260.1111788 5267712.313368511 5267712.313368511 1520248.377450719 0 0 0 0 0 116898002.7044387 4071154.28474205 4071154.28474205 -1318700.615880318 0 0 0 0 0 116911647.278181 3915945.940150976 3915945.940150976 -1233949.585017032 0 0 0 0 0 116263675.2727766 3294410.111492929 3294410.111492929 -2214014.26864103 0 0 0 0 0 115911246.9821301 2061293.335357275 2061293.335357275 -4453865.260283756 0 0 0 0 0 115577897.0079839 1745636.762963361 1745636.762963361 -4372179.565869329 0 0 0 0 0 99937273.18433417 -13191894.30128985 -13191894.30128985 -9057820.797993863 0 0 0 0 0 101597601.6493078 -12718654.91944552 -12718654.91944552 -9630942.756447515 0 0 0 0 0 98281769.11988446 -13537290.45400048 -13537290.45400048 -8418726.996458843 0 0 0 0 0 103242996.8258108 -12120122.16642302 -12120122.16642302 -10122142.29457241 0 0 0 0 0 104850873.63348 -11400982.7929703 -11400982.7929703 -10516173.0495331 0 0 0 0 0 96651534.33278038 -13754980.3817833 -13754980.3817833 -7727659.737445395 0 0 0 0 0 95065005.20223893 -13848463.2351117 -13848463.2351117 -6999257.702054423 0 0 0 0 0 106402680.619059 -10567960.38844884 -10567960.38844884 -10797370.0221141 0 0 0 0 0 107875286.012516 -9633745.214507569 -9633745.214507569 -10955834.8409944 0 0 0 0 0 109247198.3115854 -8612597.532342918 -8612597.532342918 -10981753.15530212 0 0 0 0 0 110501495.5616681 -7520024.106458382 -7520024.106458382 -10867392.41257073 0 0 0 0 0 111623854.8968549 -6373148.155044632 -6373148.155044632 -10610000.76585931 0 0 0 0 0 112603660.6105725 -5190019.466777198 -5190019.466777198 -10205897.71649629 0 0 0 0 0 113432496.0058133 -3996774.263172042 -3996774.263172042 -9658535.9551202 0 0 0 0 0 114104325.1169996 -2810785.485578283 -2810785.485578283 -8973730.840108201 0 0 0 0 0 114618750.8025444 -1651115.59535806 -1651115.59535806 -8159877.138041646 0 0 0 0 0 114978251.9994658 -536247.8989066351 -536247.8989066351 -7228330.899525222 0 0 0 0 0 115187447.7139461 515842.6176036377 515842.6176036377 -6194526.082062531 0 0 0 0 0 93461548.37067537 -13982353.20152507 -13982353.20152507 -7344882.423295413 0 0 0 0 0 93628955.26519525 -13257588.9767443 -13257588.9767443 -5878024.217704844 0 0 0 0 0 92288310.49249904 -13344518.04981619 -13344518.04981619 -6180475.30383701 0 0 0 0 0 90142152.25609781 -11255999.42893725 -11255999.42893725 -3224683.950965163 0 0 0 0 0 90596125.03426519 -11796430.13604442 -11796430.13604442 -3920422.801437585 0 0 0 0 0 92494749.87924537 -12609925.80389758 -12609925.80389758 -4886196.34942522 0 0 0 0 0 91757816.74404433 -12029349.98380372 -12029349.98380372 -4163465.990670935 0 0 0 0 0 91606330.0701008 -12565148.15218582 -12565148.15218582 -5132038.016788769 0 0 0 0 0 122423272.5372369 2692075.045188783 2692075.045188783 26970668.04778192 0 0 0 0 0 121771730.2947933 3852782.239456667 3852782.239456667 25280746.05503058 0 0 0 0 0 121155572.2344034 4832494.465011247 4832494.465011247 23261195.81807179 0 0 0 0 0 122464601.977084 2247031.511906606 2247031.511906606 27897187.87126631 0 0 0 0 0 122577756.7107555 226120.0360829114 226120.0360829114 28460652.70278735 0 0 0 0 0 120677652.5170332 5611876.550152447 5611876.550152447 21096562.13984573 0 0 0 0 0 120255816.8997222 6213935.026835478 6213935.026835478 18837439.26538425 0 0 0 0 0 119872850.8867702 6639781.441956022 6639781.441956022 16544805.72807334 0 0 0 0 0 119514910.9258799 6896023.277161812 6896023.277161812 14273650.80991592 0 0 0 0 0 119168887.8524216 6994444.922298846 6994444.922298846 12065944.75347827 0 0 0 0 0 118825487.5886247 6950765.511021242 6950765.511021242 9953791.292648712 0 0 0 0 0 118476161.7399408 6784309.992541649 6784309.992541649 7962272.224903955 0 0 0 0 0 118110416.831235 6509234.496492923 6509234.496492923 6104417.473999264 0 0 0 0 0 117730129.8785149 6152132.476004693 6152132.476004693 4398316.460124354 0 0 0 0 0 117329994.4618756 5729668.73024289 5729668.73024289 2848529.036234857 0 0 0 0 0 116902030.60876 5253097.206241486 5253097.206241486 1451308.0897297 0 0 0 0 0 116457731.0586198 4745351.426366509 4745351.426366509 209762.7274791525 0 0 0 0 0 116647951.787066 4686634.971637307 4686634.971637307 290984.4583884605 0 0 0 0 0 116344970.3236745 3502542.597553351 3502542.597553351 -2300432.113899787 0 0 0 0 0 115772656.8203344 2933623.234928176 2933623.234928176 -3153126.316020659 0 0 0 0 0 115614744.2292225 2688231.668924008 2688231.668924008 -3064878.956689068 0 0 0 0 0 115254514.6863975 1490143.593954583 1490143.593954583 -5075030.9270805 0 0 0 0 0 98016761.66020234 -13459155.19922902 -13459155.19922902 -9414461.287935074 0 0 0 0 0 99613779.55880123 -13031968.4415898 -13031968.4415898 -9978779.443642283 0 0 0 0 0 101221567.6809212 -12478809.29144861 -12478809.29144861 -10455549.95548711 0 0 0 0 0 96448822.10480362 -13758514.39114537 -13758514.39114537 -8777072.335186776 0 0 0 0 0 102820095.7541712 -11802264.33880885 -11802264.33880885 -10828818.73059746 0 0 0 0 0 104388703.8751018 -11008648.7351661 -11008648.7351661 -11085773.8808652 0 0 0 0 0 94926478.07574135 -13931259.5503184 -13931259.5503184 -8082139.859188035 0 0 0 0 0 105909323.8694314 -10108634.79090573 -10108634.79090573 -11215481.12894783 0 0 0 0 0 107356996.6790393 -9114753.4120347 -9114753.4120347 -11208145.57609427 0 0 0 0 0 108713944.6005815 -8042795.478242576 -8042795.478242576 -11057840.92352495 0 0 0 0 0 109967113.6248199 -6905957.357278216 -6905957.357278216 -10758228.14613077 0 0 0 0 0 111102737.9941795 -5723090.22465161 -5723090.22465161 -10310362.85290236 0 0 0 0 0 112100220.4975414 -4520189.969478732 -4520189.969478732 -9722646.177070154 0 0 0 0 0 112952623.5727031 -3315315.950115497 -3315315.950115497 -9000449.08725705 0 0 0 0 0 113654714.6922921 -2126970.36261904 -2126970.36261904 -8152784.999324998 0 0 0 0 0 114204107.9343202 -974711.3253288002 -974711.3253288002 -7193075.338001147 0 0 0 0 0 114602142.406559 123749.5665851007 123749.5665851007 -6135537.051228207 0 0 0 0 0 114852318.4851049 1151977.255159409 1151977.255159409 -4997736.831200859 0 0 0 0 0 95053273.88883099 -13295267.6423936 -13295267.6423936 -6581983.489244349 0 0 0 0 0 93566059.97072436 -13413172.7718073 -13413172.7718073 -6905920.241923611 0 0 0 0 0 93723485.24965805 -12732725.48353555 -12732725.48353555 -5529238.564631891 0 0 0 0 0 90827128.58514346 -11704134.65979511 -11704134.65979511 -3823250.26672804 0 0 0 0 0 92547216.1997865 -12798628.68456469 -12798628.68456469 -5800351.467713211 0 0 0 0 0 91582752.90069692 -12019651.18950342 -12019651.18950342 -4746012.482501676 0 0 0 0 0 92824125.31879772 -12006349.08778427 -12006349.08778427 -4598219.325556072 0 0 0 0 0 121483728.1063206 3492267.628021937 3492267.628021937 26651521.80272431 0 0 0 0 0 120990526.9962978 4611692.059158437 4611692.059158437 24815272.30581419 0 0 0 0 0 120516359.1892556 5543641.753287089 5543641.753287089 23264600.62887837 0 0 0 0 0 121335914.9816158 1481691.949778442 1481691.949778442 26823150.42277859 0 0 0 0 0 121365892.3839973 973916.2775988397 973916.2775988397 27717157.67140631 0 0 0 0 0 120127006.2400671 6305842.644750942 6305842.644750942 21457127.5714419 0 0 0 0 0 119784034.4786136 6890533.933677704 6890533.933677704 19522624.06587402 0 0 0 0 0 119468659.9806018 7299131.981457291 7299131.981457291 17510239.72949257 0 0 0 0 0 119168742.7844446 7539161.624013124 7539161.624013124 15468984.63749363 0 0 0 0 0 118871089.0422922 7623684.85831278 7623684.85831278 13440337.92243388 0 0 0 0 0 118565485.2831473 7568558.215306012 7568558.215306012 11463019.57086121 0 0 0 0 0 118245692.7982637 7392824.475064283 7392824.475064283 9563120.56933861 0 0 0 0 0 117900303.4863252 7110770.100452207 7110770.100452207 7776452.262573189 0 0 0 0 0 117530311.5692088 6745234.386585371 6745234.386585371 6087351.169440617 0 0 0 0 0 117132861.8888705 6312553.617903409 6312553.617903409 4522814.346362 0 0 0 0 0 116708306.3413617 5829797.685947614 5829797.685947614 3095133.025778268 0 0 0 0 0 116260954.1662541 5312649.10033388 5312649.10033388 1797942.586741489 0 0 0 0 0 115999588.0789213 4224759.386974933 4224759.386974933 -875757.181626725 0 0 0 0 0 116084559.0083047 4101088.000572151 4101088.000572151 -788033.1869576992 0 0 0 0 0 115514317.9808192 3519205.188422082 3519205.188422082 -1729120.151902452 0 0 0 0 0 115189529.8791784 2373593.672882103 2373593.672882103 -3887650.269699685 0 0 0 0 0 114962005.1465622 2096676.238832753 2096676.238832753 -3797516.37933646 0 0 0 0 0 99594931.68188594 -12756191.73081037 -12756191.73081037 -8556482.983769299 0 0 0 0 0 101150993.5326989 -12341654.74819366 -12341654.74819366 -9117122.218693532 0 0 0 0 0 102699226.8255938 -11810932.23816415 -11810932.23816415 -9606846.371722586 0 0 0 0 0 98048232.65546025 -13052788.74726412 -13052788.74726412 -7938623.884414963 0 0 0 0 0 104218076.4196862 -11166732.06844248 -11166732.06844248 -10011374.00049848 0 0 0 0 0 105689211.0064627 -10416941.19522802 -10416941.19522802 -10317716.25462459 0 0 0 0 0 96529503.98796546 -13231321.42406879 -13231321.42406879 -7276510.412122715 0 0 0 0 0 107093407.4867467 -9569793.593157209 -9569793.593157209 -10515762.95927451 0 0 0 0 0 108413978.6458651 -8635744.496212021 -8635744.496212021 -10593964.59013519 0 0 0 0 0 109633509.34819 -7630488.699301575 -7630488.699301575 -10544901.26316762 0 0 0 0 0 110736168.6063178 -6568461.234268114 -6568461.234268114 -10364161.01370805 0 0 0 0 0 111709079.7207114 -5467898.300135405 -5467898.300135405 -10049996.87405255 0 0 0 0 0 112547769.7588324 -4346653.138358023 -4346653.138358023 -9602021.908427592 0 0 0 0 0 113243732.0548502 -3224343.815826267 -3224343.815826267 -9024835.499374561 0 0 0 0 0 113795341.311883 -2116809.167723224 -2116809.167723224 -8323501.429610904 0 0 0 0 0 114203405.4710377 -1041506.318931743 -1041506.318931743 -7507375.782377894 0 0 0 0 0 114470291.7259382 -15921.43390444174 -15921.43390444174 -6589570.101949381 0 0 0 0 0 114602248.8305791 945372.1173693563 945372.1173693563 -5583505.900167657 0 0 0 0 0 94931830.46104732 -13385334.61630947 -13385334.61630947 -7609792.17691181 0 0 0 0 0 95058718.27030586 -12767190.16206129 -12767190.16206129 -6184042.619131284 0 0 0 0 0 93663722.25308897 -12876869.71895227 -12876869.71895227 -6488503.47135102 0 0 0 0 0 91533542.43300284 -11179463.05898126 -11179463.05898126 -3655704.532831356 0 0 0 0 0 93843749.76609941 -12222368.710675 -12222368.710675 -5201777.108710642 0 0 0 0 0 92744697.56854297 -11558384.66650382 -11558384.66650382 -4232487.954307528 0 0 0 0 0 92766617.41381849 -12239968.28733052 -12239968.28733052 -5461770.335190284 0 0 0 0 0 120249262.91857 2831286.214611291 2831286.214611291 25789498.54944577 0 0 0 0 0 119681133.4488644 3993344.605516637 3993344.605516637 23916987.21100935 0 0 0 0 0 119279612.5575753 4869092.790753515 4869092.790753515 22009687.94333444 0 0 0 0 0 120235312.4775885 2019371.479635172 2019371.479635172 27223187.42860167 0 0 0 0 0 120234814.496321 241048.2678804965 241048.2678804965 26528181.01266425 0 0 0 0 0 118914297.1262142 5593636.225493892 5593636.225493892 19986044.92875496 0 0 0 0 0 118592065.5586724 6151382.160225485 6151382.160225485 17891048.06726013 0 0 0 0 0 118299067.2062645 6544562.828884484 6544562.828884484 15771107.82491462 0 0 0 0 0 118028530.7189768 6781960.136853328 6781960.136853328 13669839.475974 0 0 0 0 0 117765758.6512966 6874535.597313582 6874535.597313582 11625996.69837157 0 0 0 0 0 117498953.6045596 6836101.184803618 6836101.184803618 9666537.280726183 0 0 0 0 0 117230094.0909675 6689273.457865301 6689273.457865301 7818287.231102344 0 0 0 0 0 116928999.9371525 6435584.59861717 6435584.59861717 6092261.446700885 0 0 0 0 0 116616156.0357937 6107976.003031171 6107976.003031171 4496588.929122466 0 0 0 0 0 116288228.9233052 5721107.264570883 5721107.264570883 3042848.015305416 0 0 0 0 0 115923063.2760959 5280502.600135028 5280502.600135028 1726475.542352906 0 0 0 0 0 115544656.0142876 4810775.038693039 4810775.038693039 549970.8347780061 0 0 0 0 0 115783461.9608833 4774556.525353688 4774556.525353688 631916.3123455684 0 0 0 0 0 115516839.5424958 3693877.404369691 3693877.404369691 -1820186.248611553 0 0 0 0 0 115006767.3197682 3155999.135962353 3155999.135962353 -2652879.106689417 0 0 0 0 0 114939228.4080874 2945210.00235604 2945210.00235604 -2556601.438504932 0 0 0 0 0 114606963.6327076 1829607.158574064 1829607.158574064 -4505089.947411324 0 0 0 0 0 97808013.50525613 -12993761.25341654 -12993761.25341654 -8893938.427222086 0 0 0 0 0 99299847.67158441 -12621696.14766288 -12621696.14766288 -9448279.575923748 0 0 0 0 0 100806145.51229 -12133356.79960031 -12133356.79960031 -9926492.937580725 0 0 0 0 0 102309314.5073618 -11529975.71677956 -11529975.71677956 -10313931.99108396 0 0 0 0 0 96347893.98621528 -13247795.48294018 -13247795.48294018 -8276469.094680366 0 0 0 0 0 103789944.327994 -10818541.64300261 -10818541.64300261 -10599083.7215867 0 0 0 0 0 105229948.054761 -10004608.28024317 -10004608.28024317 -10768814.80369951 0 0 0 0 0 106613396.6894672 -9098241.742067097 -9098241.742067097 -10814476.73105446 0 0 0 0 0 107920441.4321806 -8114414.879231859 -8114414.879231859 -10731550.85777138 0 0 0 0 0 109134028.6898916 -7066226.744537107 -7066226.744537107 -10514261.80818688 0 0 0 0 0 110239764.9976892 -5971689.240883059 -5971689.240883059 -10162229.19938087 0 0 0 0 0 111227209.5762458 -4846636.631498405 -4846636.631498405 -9675994.786613898 0 0 0 0 0 112085262.498065 -3711387.492381043 -3711387.492381043 -9062231.030587342 0 0 0 0 0 112807369.8352599 -2582702.622094854 -2582702.622094854 -8328083.304964238 0 0 0 0 0 113389751.4579812 -1478023.895309664 -1478023.895309664 -7483550.786949947 0 0 0 0 0 113832211.8887385 -414215.2998932152 -414215.2998932152 -6540565.759415571 0 0 0 0 0 114136748.5327225 592695.7074542617 592695.7074542617 -5514321.966114524 0 0 0 0 0 114307906.5044966 1528975.983064094 1528975.983064094 -4420859.887669719 0 0 0 0 0 96432392.38471828 -12729829.71342358 -12729829.71342358 -6854562.090055435 0 0 0 0 0 94951574.55691028 -12863578.64301765 -12863578.64301765 -7168160.745135396 0 0 0 0 0 95074099.12107469 -12263582.18933686 -12263582.18933686 -5793206.547874097 0 0 0 0 0 91901058.32106902 -11580710.10995438 -11580710.10995438 -4448891.780922618 0 0 0 0 0 93794946.01109149 -12370744.99017616 -12370744.99017616 -6089947.407480556 0 0 0 0 0 92738741.54879729 -11799957.7130416 -11799957.7130416 -5106405.723669853 0 0 0 0 0 93970357.3074632 -11697408.2689968 -11697408.2689968 -4860850.172052418 0 0 0 0 0 119507180.3077147 3461577.210917324 3461577.210917324 24674152.57979548 0 0 0 0 0 119067932.4497598 4602702.129037958 4602702.129037958 23573517.2399468 0 0 0 0 0 118738568.0234299 5477016.125464277 5477016.125464277 22022980.17677687 0 0 0 0 0 119443581.6042282 1555359.040475236 1555359.040475236 25219730.64686923 0 0 0 0 0 119456557.9381837 783757.7004977098 783757.7004977098 26376790.19992902 0 0 0 0 0 118449629.0030954 6185650.705390079 6185650.705390079 20332854.48585028 0 0 0 0 0 118196846.5196967 6727891.606584526 6727891.606584526 18530671.36542715 0 0 0 0 0 117967056.1703255 7108342.271621305 7108342.271621305 16663940.93532096 0 0 0 0 0 117746085.3617732 7334708.593900469 7334708.593900469 14772391.50439964 0 0 0 0 0 117524236.160384 7418078.972497439 7418078.972497439 12891871.93123923 0 0 0 0 0 117294407.5146173 7373262.324294746 7373262.324294746 11058391.19581206 0 0 0 0 0 117042902.8770642 7215834.021002859 7215834.021002859 9307754.107189041 0 0 0 0 0 116759624.2258547 6965110.004542301 6965110.004542301 7657089.424050822 0 0 0 0 0 116458480.1625453 6636925.962529735 6636925.962529735 6089784.352182939 0 0 0 0 0 116121010.3742691 6241257.899714566 6241257.899714566 4625042.485148415 0 0 0 0 0 115766609.853467 5801886.905501106 5801886.905501106 3284018.166726714 0 0 0 0 0 115379555.2961111 5324012.563946256 5324012.563946256 2056379.598492778 0 0 0 0 0 115149717.5764547 4327279.639333709 4327279.639333709 -483048.5178466148 0 0 0 0 0 115290273.5879331 4230727.771641538 4230727.771641538 -394279.7677822521 0 0 0 0 0 114795719.6179362 3688343.241628074 3688343.241628074 -1298565.326836659 0 0 0 0 0 114495660.6736163 2626306.007448728 2626306.007448728 -3370751.731998145 0 0 0 0 0 114352856.7578839 2383154.321443443 2383154.321443443 -3276731.564252867 0 0 0 0 0 99292422.88603428 -12332128.67531838 -12332128.67531838 -8084809.238144704 0 0 0 0 0 100751669.7948455 -11969143.54858812 -11969143.54858812 -8631181.433729475 0 0 0 0 0 102207131.6013655 -11498954.27498378 -11498954.27498378 -9116502.692997403 0 0 0 0 0 103641124.42835 -10923694.8403092 -10923694.8403092 -9527528.932123797 0 0 0 0 0 97847201.43385106 -12586047.49777399 -12586047.49777399 -7489704.598879714 0 0 0 0 0 105038047.3401912 -10248190.61585824 -10248190.61585824 -9852133.911328604 0 0 0 0 0 106377489.8151885 -9479353.206171056 -9479353.206171056 -10079290.77405836 0 0 0 0 0 107643654.0211362 -8627884.589809814 -8627884.589809814 -10199656.71213833 0 0 0 0 0 108823607.4484441 -7704871.862591653 -7704871.862591653 -10205872.73577283 0 0 0 0 0 109901939.007109 -6723069.693120132 -6723069.693120132 -10091323.3291274 0 0 0 0 0 110866630.2947946 -5699236.111174193 -5699236.111174193 -9853835.012591865 0 0 0 0 0 111708101.0242569 -4648903.070859166 -4648903.070859166 -9493147.500145737 0 0 0 0 0 112420593.9365093 -3589931.748393965 -3589931.748393965 -9011996.335495755 0 0 0 0 0 113000847.9828819 -2536895.584586371 -2536895.584586371 -8413118.106592903 0 0 0 0 0 113448900.6787011 -1505076.837817388 -1505076.837817388 -7702996.607687998 0 0 0 0 0 113765951.1705263 -510513.7174671125 -510513.7174671125 -6891698.14615123 0 0 0 0 0 113955200.1066741 431649.9926660383 431649.9926660383 -5991639.872685678 0 0 0 0 0 114023478.6372298 1309101.832245823 1309101.832245823 -5015980.166368102 0 0 0 0 0 96269751.91128531 -12757336.89440235 -12757336.89440235 -7808224.459042232 0 0 0 0 0 96356954.21704228 -12249861.28126932 -12249861.28126932 -6461401.471196153 0 0 0 0 0 94987347.63004752 -12364640.10264754 -12364640.10264754 -6760432.678538516 0 0 0 0 0 92875759.93988809 -11032324.11179945 -11032324.11179945 -4053482.458821586 0 0 0 0 0 95087596.19906142 -11801535.85895334 -11801535.85895334 -5444704.166192167 0 0 0 0 0 93835576.10861959 -11274959.43799415 -11274959.43799415 -4618325.619949433 0 0 0 0 0 93848922.73425205 -11920787.12464435 -11920787.12464435 -5784652.741078806 0 0 0 0 0 118433978.3959049 3017192.820954142 3017192.820954142 24261490.11636226 0 0 0 0 0 118697317.6318411 2088314.21345049 2088314.21345049 26133824.46660364 0 0 0 0 0 117985287.3592145 4038854.086362908 4038854.086362908 22601017.70145642 0 0 0 0 0 117650177.9424288 4864246.466860848 4864246.466860848 20827991.97757192 0 0 0 0 0 118586049.9071316 1717448.706716619 1717448.706716619 25842978.15874029 0 0 0 0 0 118399912.0576524 249378.407099445 249378.407099445 25645914.95833839 0 0 0 0 0 117366163.0428813 5534449.855392241 5534449.855392241 18948584.01955497 0 0 0 0 0 117120690.2262394 6048625.440120413 6048625.440120413 17001471.22875935 0 0 0 0 0 116903322.1333576 6412945.127196898 6412945.127196898 15039532.40514984 0 0 0 0 0 116700810.7230296 6634608.654387939 6634608.654387939 13096056.9479819 0 0 0 0 0 116503272.0406418 6723032.512061685 6723032.512061685 11202351.42041153 0 0 0 0 0 116297338.287291 6688305.081975824 6688305.081975824 9382139.267587008 0 0 0 0 0 116099364.6765289 6560935.038816079 6560935.038816079 7671266.808354653 0 0 0 0 0 115844509.6279353 6331009.281994616 6331009.281994616 6068926.258676525 0 0 0 0 0 115588205.7185302 6033995.055827899 6033995.055827899 4579012.76937166 0 0 0 0 0 115313347.4300154 5681186.470915565 5681186.470915565 3217545.731294338 0 0 0 0 0 115010926.6392188 5279986.495789367 5279986.495789367 1977748.890567543 0 0 0 0 0 114686031.239683 4845091.432706802 4845091.432706802 861446.1858309781 0 0 0 0 0 114962941.6091644 4823947.156513169 4823947.156513169 945977.7919562495 0 0 0 0 0 114723137.9891451 3829405.746322477 3829405.746322477 -1394480.146767873 0 0 0 0 0 114281448.2247705 3327207.770823192 3327207.770823192 -2200458.632803944 0 0 0 0 0 114280112.2766677 3145442.458376503 3145442.458376503 -2102863.480904999 0 0 0 0 0 113977855.8553966 2110431.366115627 2110431.366115627 -3979668.783846566 0 0 0 0 0 99023027.98383251 -12219761.21682828 -12219761.21682828 -8946413.916282848 0 0 0 0 0 97629417.65996595 -12543145.17265752 -12543145.17265752 -8404264.834211078 0 0 0 0 0 100435640.0446206 -11788958.5065887 -11788958.5065887 -9421809.929914473 0 0 0 0 0 101849076.9960324 -11252178.96316085 -11252178.96316085 -9817571.291280514 0 0 0 0 0 103246851.005694 -10612972.07117608 -10612972.07117608 -10122280.64765069 0 0 0 0 0 104613576.8853675 -9876391.968409793 -9876391.968409793 -10324366.13048398 0 0 0 0 0 105930122.0817685 -9053474.296570465 -9053474.296570465 -10416984.2131822 0 0 0 0 0 107182043.3829375 -8153222.956453891 -8153222.956453891 -10391853.20248974 0 0 0 0 0 108355168.8474742 -7187650.048509903 -7187650.048509903 -10243964.1235207 0 0 0 0 0 109433646.440217 -6172748.18627308 -6172748.18627308 -9971904.067131503 0 0 0 0 0 110406062.9207215 -5123904.518881945 -5123904.518881945 -9576189.727625733 0 0 0 0 0 111262994.3796885 -4057154.122920488 -4057154.122920488 -9059173.601661401 0 0 0 0 0 111997710.8526848 -2988896.726295658 -2988896.726295658 -8427726.855819557 0 0 0 0 0 112605772.5033987 -1934316.442344741 -1934316.442344741 -7688722.353845065 0 0 0 0 0 113084697.2403841 -909448.4179011502 -909448.4179011502 -6852858.568889883 0 0 0 0 0 113434946.1341607 70470.57211084542 70470.57211084542 -5931949.526711707 0 0 0 0 0 113659832.2090986 992183.0314379361 992183.0314379361 -4940377.866610037 0 0 0 0 0 113765016.0990586 1843653.951473619 1843653.951473619 -3892346.905013233 0 0 0 0 0 97674782.26839827 -12137259.02681188 -12137259.02681188 -7071779.111997523 0 0 0 0 0 96212458.31217277 -12286054.18539647 -12286054.18539647 -7372268.689475521 0 0 0 0 0 96311977.67358877 -11800358.71885143 -11800358.71885143 -6112325.444971152 0 0 0 0 0 93148048.31018642 -11305893.69593596 -11305893.69593596 -4815625.652514252 0 0 0 0 0 95023384.73864107 -11878829.04727332 -11878829.04727332 -6407980.463987432 0 0 0 0 0 93952062.09219721 -11488422.78495159 -11488422.78495159 -5511888.193736596 0 0 0 0 0 95161358.92037347 -11348256.7558938 -11348256.7558938 -5165827.808671357 0 0 0 0 0 117755969.9799052 3603204.7719476 3603204.7719476 23512948.32336115 0 0 0 0 0 118000898.6440039 2510104.50423692 2510104.50423692 24396766.68200954 0 0 0 0 0 117442900.5341452 4579800.350998468 4579800.350998468 22301418.86180947 0 0 0 0 0 117185280.1098931 5386522.318083426 5386522.318083426 20858311.78000036 0 0 0 0 0 117586899.4857849 1189178.485055566 1189178.485055566 24989597.72602646 0 0 0 0 0 117601512.8512104 732180.5581691917 732180.5581691917 25082294.07291805 0 0 0 0 0 116972553.1421625 6041215.955861381 6041215.955861381 19275851.24159526 0 0 0 0 0 116788103.2118059 6543182.111729194 6543182.111729194 17600052.1378734 0 0 0 0 0 116627645.5256501 6897952.018796904 6897952.018796904 15861192.63481534 0 0 0 0 0 116472259.7527381 7111470.582945202 7111470.582945202 14103358.04255608 0 0 0 0 0 116311574.0808395 7193937.740815796 7193937.740815796 12364835.32361072 0 0 0 0 0 116132721.7380401 7161044.918544257 7161044.918544257 10683337.88495297 0 0 0 0 0 115913686.7569144 7018363.456951821 7018363.456951821 9070371.363453824 0 0 0 0 0 115706155.7316502 6801109.820556628 6801109.820556628 7524315.255392358 0 0 0 0 0 115459957.7100071 6502332.604556285 6502332.604556285 6056048.781671721 0 0 0 0 0 115181291.5243231 6143045.517881235 6143045.517881235 4686129.378271821 0 0 0 0 0 114884689.664285 5742461.14291798 5742461.14291798 3423393.320822075 0 0 0 0 0 114556617.2819684 5304333.131639418 5304333.131639418 2262059.417744376 0 0 0 0 0 114342336.0147128 4392883.514846715 4392883.514846715 -127732.5869127762 0 0 0 0 0 114538472.5712218 4317741.48985408 4317741.48985408 -37269.51112695404 0 0 0 0 0 114101294.8652826 3809621.451538214 3809621.451538214 -910517.2650665318 0 0 0 0 0 113832694.4932473 2829858.111989633 2829858.111989633 -2896281.570825223 0 0 0 0 0 113757355.6190274 2615906.841654529 2615906.841654529 -2802857.180272211 0 0 0 0 0 100395279.8810166 -11602499.02738947 -11602499.02738947 -8172122.548830316 0 0 0 0 0 99025699.72615118 -11920561.32795149 -11920561.32795149 -7642278.608213821 0 0 0 0 0 101764682.7412678 -11186652.73899182 -11186652.73899182 -8650583.621940257 0 0 0 0 0 103118727.6150865 -10673120.55381864 -10673120.55381864 -9063593.562064376 0 0 0 0 0 104442107.2074679 -10065183.25981364 -10065183.25981364 -9400073.427953448 0 0 0 0 0 105718437.9673975 -9368581.472461408 -9368581.472461408 -9650058.85582057 0 0 0 0 0 106933795.1759828 -8592139.661426365 -8592139.661426365 -9804520.698910326 0 0 0 0 0 108072684.6969314 -7745346.383795656 -7745346.383795656 -9855881.466471266 0 0 0 0 0 109122630.7805749 -6840048.286448448 -6840048.286448448 -9798539.758888576 0 0 0 0 0 110072481.9567487 -5888810.43901105 -5888810.43901105 -9627811.346125731 0 0 0 0 0 110912434.1479603 -4907196.984438055 -4907196.984438055 -9343442.122275451 0 0 0 0 0 111636110.2040033 -3909862.080720717 -3909862.080720717 -8946090.283701375 0 0 0 0 0 112238563.8879688 -2911664.049341738 -2911664.049341738 -8438363.595634803 0 0 0 0 0 112718602.0461594 -1925995.354248925 -1925995.354248925 -7824412.911035933 0 0 0 0 0 113077136.6983885 -966811.5259365272 -966811.5259365272 -7111840.126019794 0 0 0 0 0 113316042.6594286 -49100.1877493003 -49100.1877493003 -6311069.973577322 0 0 0 0 0 113440979.2766292 815908.343403796 815908.343403796 -5432349.108759743 0 0 0 0 0 113457517.8168495 1615942.149742134 1615942.149742134 -4489725.918413749 0 0 0 0 0 97477384.60802746 -12107985.33525635 -12107985.33525635 -7944472.655297119 0 0 0 0 0 97530015.87118451 -11706577.68258473 -11706577.68258473 -6681779.880304182 0 0 0 0 0 96186435.35623203 -11834895.80012842 -11834895.80012842 -6956714.961866939 0 0 0 0 0 93964502.28468175 -10833975.71164281 -10833975.71164281 -4474011.154961171 0 0 0 0 0 96321258.9652628 -11363832.97148495 -11363832.97148495 -5802299.053706604 0 0 0 0 0 94972429.32961424 -10991923.66335077 -10991923.66335077 -5000348.579086732 0 0 0 0 0 94984500.89754263 -11485343.30711792 -11485343.30711792 -6028800.690114941 0 0 0 0 0 116784203.3202771 3156033.710664211 3156033.710664211 22897598.37624486 0 0 0 0 0 117115064.8381063 2198449.563762447 2198449.563762447 24130901.49035356 0 0 0 0 0 116471229.8623615 4063198.717519877 4063198.717519877 21378214.81124588 0 0 0 0 0 116213382.2089553 4825134.822384007 4825134.822384007 19724007.10895468 0 0 0 0 0 116893311.7035848 1670580.174732517 1670580.174732517 24236251.12354518 0 0 0 0 0 116673115.5707539 261383.9743660705 261383.9743660705 24474694.40322101 0 0 0 0 0 116000079.4456116 5443878.228061228 5443878.228061228 17972234.15825043 0 0 0 0 0 115815516.1162705 5919642.91213682 5919642.91213682 16174104.76159762 0 0 0 0 0 115659312.4542637 6258485.581661952 6258485.581661952 14353066.78169044 0 0 0 0 0 115514336.2886646 6465642.708257502 6465642.708257502 12547637.22681575 0 0 0 0 0 115372177.9985717 6550570.092222239 6550570.092222239 10788708.33333008 0 0 0 0 0 115215367.8244368 6525667.598387178 6525667.598387178 9129650.386197541 0 0 0 0 0 115039107.7932968 6407818.336650942 6407818.336650942 7556099.767110517 0 0 0 0 0 114851032.4220631 6207601.8215787 6207601.8215787 6052160.296929993 0 0 0 0 0 114645949.0357087 5937561.169904121 5937561.169904121 4654273.482483953 0 0 0 0 0 114416995.3985286 5612138.222528846 5612138.222528846 3371670.570693539 0 0 0 0 0 114164477.0814861 5244057.684790001 5244057.684790001 2191559.605837251 0 0 0 0 0 113891082.559988 4845428.859159548 4845428.859159548 1127689.188761498 0 0 0 0 0 114197463.2974855 4841475.913962632 4841475.913962632 1210544.973693861 0 0 0 0 0 113973702.1550141 3926082.999801482 3926082.999801482 -1006122.775782314 0 0 0 0 0 113590871.826825 3455613.200265261 3455613.200265261 -1785899.334375012 0 0 0 0 0 113644636.0920262 3301674.216555518 3301674.216555518 -1690259.544882073 0 0 0 0 0 113374652.235386 2343518.863400606 2343518.863400606 -3493761.063833846 0 0 0 0 0 100105548.7223666 -11447271.55384708 -11447271.55384708 -8942319.003489086 0 0 0 0 0 98778940.66005002 -11826639.29186247 -11826639.29186247 -8472341.719688304 0 0 0 0 0 101435347.0154976 -10969815.36040171 -10969815.36040171 -9342162.463650787 0 0 0 0 0 102754345.2675633 -10396423.41354684 -10396423.41354684 -9661228.253584731 0 0 0 0 0 104048213.9999737 -9731639.131463736 -9731639.131463736 -9889444.303945372 0 0 0 0 0 105301765.7649518 -8983132.286906114 -8983132.286906114 -10018794.11984367 0 0 0 0 0 106500616.4631223 -8159803.860398871 -8159803.860398871 -10042051.17366317 0 0 0 0 0 107630339.7638767 -7272691.892810159 -7272691.892810159 -9954145.602116147 0 0 0 0 0 108679092.1041071 -6333072.458924645 -6333072.458924645 -9751390.511610454 0 0 0 0 0 109634103.7697211 -5356007.078270853 -5356007.078270853 -9433914.401708199 0 0 0 0 0 110485978.4332173 -4355708.519324604 -4355708.519324604 -9003380.370497871 0 0 0 0 0 111226696.0809689 -3347697.6810968 -3347697.6810968 -8464320.107671138 0 0 0 0 0 111851816.3270736 -2345280.778365438 -2345280.778365438 -7822952.20153596 0 0 0 0 0 112360467.4729666 -1362264.153683648 -1362264.153683648 -7084909.193643482 0 0 0 0 0 112749625.1458441 -413158.0441695877 -413158.0441695877 -6262248.558970197 0 0 0 0 0 113021387.5473542 488550.6746541344 488550.6746541344 -5365711.599958474 0 0 0 0 0 113178506.0497259 1331627.6801131 1331627.6801131 -4410615.895065421 0 0 0 0 0 113227872.7587318 2106438.00073797 2106438.00073797 -3407873.163305524 0 0 0 0 0 98789587.78964604 -11522259.34378829 -11522259.34378829 -7226515.929450401 0 0 0 0 0 97349074.8632715 -11686485.44947946 -11686485.44947946 -7513220.329871152 0 0 0 0 0 97416687.89056395 -11303741.41646967 -11303741.41646967 -6309742.462405376 0 0 0 0 0 94306410.28577127 -11039861.16476853 -11039861.16476853 -5195864.292361286 0 0 0 0 0 96272767.06077968 -11399944.25996504 -11399944.25996504 -6574724.727085069 0 0 0 0 0 95043121.75855377 -11119907.51405181 -11119907.51405181 -5719193.733605577 0 0 0 0 0 96168302.34409875 -11079433.25593122 -11079433.25593122 -5459840.192423496 0 0 0 0 0 116237139.0913049 3632530.025428121 3632530.025428121 22278713.02235048 0 0 0 0 0 116539644.5270745 2661688.76195877 2661688.76195877 23296995.26932271 0 0 0 0 0 116004953.4137416 4524330.910915234 4524330.910915234 21115376.87467617 0 0 0 0 0 115816427.5977389 5272553.553400117 5272553.553400117 19761138.05773466 0 0 0 0 0 116063654.8339107 1277299.746437605 1277299.746437605 23762081.18085999 0 0 0 0 0 115957934.518303 727031.2915668689 727031.2915668689 23809056.02785835 0 0 0 0 0 115663167.6259108 5877801.21123555 5877801.21123555 18284123.88487321 0 0 0 0 0 115541081.2602513 6344616.198812866 6344616.198812866 16715894.99343346 0 0 0 0 0 115432966.2294185 6676470.503915089 6676470.503915089 15102963.02772681 0 0 0 0 0 115328643.3651326 6879725.86194793 6879725.86194793 13476843.30654309 0 0 0 0 0 115202495.4559655 6958326.092367817 6958326.092367817 11887622.37653369 0 0 0 0 0 115070018.8655313 6934633.652732605 6934633.652732605 10322484.40674849 0 0 0 0 0 114906294.3275776 6810626.270074218 6810626.270074218 8811998.099334233 0 0 0 0 0 114742518.9816519 6616341.600215408 6616341.600215408 7367163.759090636 0 0 0 0 0 114542955.7693184 6347088.618800757 6347088.618800757 5992658.717541148 0 0 0 0 0 114313030.0981244 6020365.076749527 6020365.076749527 4709341.032991936 0 0 0 0 0 114061039.4993059 5653110.600793489 5653110.600793489 3523709.451175259 0 0 0 0 0 113781267.6834884 5253612.320268843 5253612.320268843 2428342.313963028 0 0 0 0 0 113592636.3738066 4424635.133098024 4424635.133098024 184181.3374447439 0 0 0 0 0 113825563.0440858 4369169.829121759 4369169.829121759 274846.8619110382 0 0 0 0 0 113438174.5720369 3892406.706294959 3892406.706294959 -565735.7982750263 0 0 0 0 0 113203456.6491156 2993630.324947444 2993630.324947444 -2457823.05996697 0 0 0 0 0 113174378.0439418 2804812.48914497 2804812.48914497 -2368599.148478794 0 0 0 0 0 101366821.5509233 -10875265.26450089 -10875265.26450089 -8208832.688904736 0 0 0 0 0 100077481.7865747 -11242314.50913935 -11242314.50913935 -7738810.582999222 0 0 0 0 0 102644996.9327672 -10417464.64316716 -10417464.64316716 -8620886.313500345 0 0 0 0 0 103898419.2750544 -9870936.139682977 -9870936.139682977 -8964860.528013421 0 0 0 0 0 105113971.7878405 -9240217.935285756 -9240217.935285756 -9231498.382804904 0 0 0 0 0 106277346.959145 -8532561.417002615 -8532561.417002615 -9413281.663816927 0 0 0 0 0 107375298.324468 -7756471.3058389 -7756471.3058389 -9502200.600072559 0 0 0 0 0 108395802.3208351 -6922023.792662888 -6922023.792662888 -9492370.103514226 0 0 0 0 0 109327412.3050264 -6040106.852294412 -6040106.852294412 -9379530.664082987 0 0 0 0 0 110161999.5711061 -5123653.819669089 -5123653.819669089 -9160932.409066364 0 0 0 0 0 110891363.2201898 -4186374.256467606 -4186374.256467606 -8836789.914808573 0 0 0 0 0 111509991.7040749 -3242654.360080645 -3242654.360080645 -8409613.049723711 0 0 0 0 0 112016763.1264674 -2303056.81932253 -2303056.81932253 -7880765.502784097 0 0 0 0 0 112408117.4783141 -1383768.958047678 -1383768.958047678 -7260037.641131217 0 0 0 0 0 112689837.3091517 -493969.7834991834 -493969.7834991834 -6550862.155943596 0 0 0 0 0 112861434.2315703 351038.3277743436 351038.3277743436 -5765274.984880961 0 0 0 0 0 112933348.3844545 1145382.354097045 1145382.354097045 -4909591.948080881 0 0 0 0 0 112905102.0561194 1874757.162944471 1874757.162944471 -3999524.133417453 0 0 0 0 0 98560941.00537477 -11441983.70238316 -11441983.70238316 -8026283.493997942 0 0 0 0 0 98579651.10855338 -11138213.39615522 -11138213.39615522 -6850078.925625728 0 0 0 0 0 97231829.53664912 -11260054.50813196 -11260054.50813196 -7131413.27668903 0 0 0 0 0 95151440.7811863 -10549609.00657918 -10549609.00657918 -4807832.771341621 0 0 0 0 0 97335791.99304846 -10900019.94893903 -10900019.94893903 -6142549.4720479 0 0 0 0 0 95978438.26770036 -10675440.83649091 -10675440.83649091 -5284777.717217274 0 0 0 0 0 96063526.14592418 -10850499.82983835 -10850499.82983835 -5871150.134027782 0 0 0 0 0 115390941.8599455 3223427.386240752 3223427.386240752 21652253.95658913 0 0 0 0 0 115700725.9073124 2286937.636837726 2286937.636837726 22848218.79376797 0 0 0 0 0 115149928.7140566 4055650.575628746 4055650.575628746 20236560.96028785 0 0 0 0 0 114950012.8884602 4759778.238659614 4759778.238659614 18691737.35904301 0 0 0 0 0 115468932.469054 1736057.343668902 1736057.343668902 23031242.26646858 0 0 0 0 0 115217009.9237266 318474.316504282 318474.316504282 23246542.04755185 0 0 0 0 0 114789122.4395554 5331003.552962524 5331003.552962524 17065086.44505652 0 0 0 0 0 114660385.3020214 5772649.883454653 5772649.883454653 15388869.8341848 0 0 0 0 0 114550236.2870175 6087376.709365704 6087376.709365704 13698201.35781909 0 0 0 0 0 114452269.1797926 6283361.285401256 6283361.285401256 12026645.16369485 0 0 0 0 0 114338827.8719212 6363204.690921002 6363204.690921002 10416946.34476178 0 0 0 0 0 114221040.9897717 6345482.89117473 6345482.89117473 8868192.4035562 0 0 0 0 0 114085213.9361812 6238974.638115288 6238974.638115288 7399136.792205002 0 0 0 0 0 113942540.8407838 6060688.79666042 6060688.79666042 5990615.731116001 0 0 0 0 0 113778953.8251231 5816816.594898843 5816816.594898843 4679197.206181799 0 0 0 0 0 113590220.8534499 5519765.836535101 5519765.836535101 3472782.134514047 0 0 0 0 0 113377629.2242223 5181229.562022235 5181229.562022235 2361859.666093434 0 0 0 0 0 113146724.149485 4816691.356910805 4816691.356910805 1355269.927294191 0 0 0 0 0 113473823.1309374 4829646.738478519 4829646.738478519 1433796.342168744 0 0 0 0 0 113270669.6513526 3987458.696620222 3987458.696620222 -660289.0832324076 0 0 0 0 0 112940652.1464119 3549111.478099145 3549111.478099145 -1407616.915068878 0 0 0 0 0 113026310.0278818 3418362.62671552 3418362.62671552 -1316319.595793472 0 0 0 0 0 112785141.5590984 2533117.386022675 2533117.386022675 -3045902.085465633 0 0 0 0 0 101064013.3111564 -10685438.52153278 -10685438.52153278 -8888308.530942613 0 0 0 0 0 99811846.233099 -11109385.02493091 -11109385.02493091 -8487749.97995903 0 0 0 0 0 102308722.9163845 -10171792.41720178 -10171792.41720178 -9216781.116685372 0 0 0 0 0 103533101.0003467 -9571792.023076592 -9571792.023076592 -9464785.540045008 0 0 0 0 0 104725629.7133932 -8891519.721182169 -8891519.721182169 -9623955.563908521 0 0 0 0 0 105872092.5413633 -8139151.814796825 -8139151.814796825 -9687412.095982078 0 0 0 0 0 106959512.8682678 -7323688.287257964 -7323688.287257964 -9649915.229258543 0 0 0 0 0 107975857.4202433 -6455631.597436971 -6455631.597436971 -9507733.074321318 0 0 0 0 0 108909983.5163345 -5546882.843546473 -5546882.843546473 -9259297.993781483 0 0 0 0 0 109751822.6672445 -4610942.073061289 -4610942.073061289 -8905484.091196684 0 0 0 0 0 110493559.9320257 -3661410.51037547 -3661410.51037547 -8448894.76073602 0 0 0 0 0 111130863.8195959 -2711157.13062908 -2711157.13062908 -7894502.303069654 0 0 0 0 0 111660191.8879807 -1772177.460637034 -1772177.460637034 -7247903.993336038 0 0 0 0 0 112083283.7421133 -857630.5583160892 -857630.5583160892 -6515669.760888945 0 0 0 0 0 112394278.0465656 19758.25475216243 19758.25475216243 -5709348.450758415 0 0 0 0 0 112598372.0027204 848243.8456618785 848243.8456618785 -4839624.247473129 0 0 0 0 0 112697528.641768 1619432.49026894 1619432.49026894 -3919949.36630318 0 0 0 0 0 112703041.1278622 2325122.619519129 2325122.619519129 -2958140.741912643 0 0 0 0 0 99794076.62489577 -10887264.00903582 -10887264.00903582 -7330550.388841249 0 0 0 0 0 98368585.38745491 -11064916.66584349 -11064916.66584349 -7600980.725617434 0 0 0 0 0 98426717.13480508 -10778091.47272714 -10778091.47272714 -6579364.907868054 0 0 0 0 0 95460658.39549145 -10700236.70226328 -10700236.70226328 -5439783.830491676 0 0 0 0 0 97271110.11413549 -10861798.44611077 -10861798.44611077 -6819907.421058042 0 0 0 0 0 97007187.98619871 -10934222.64232888 -10934222.64232888 -6245318.608648354 0 0 0 0 0 96324346.8446161 -10746479.53230778 -10746479.53230778 -5751120.585281826 0 0 0 0 0 114923129.4142119 3635846.660630587 3635846.660630587 21125436.23761068 0 0 0 0 0 115161826.6749755 2710198.374506685 2710198.374506685 22081859.3364243 0 0 0 0 0 114744517.0660269 4454403.427097956 4454403.427097956 20003211.3469859 0 0 0 0 0 114608404.6981752 5144099.526118533 5144099.526118533 18734483.07021299 0 0 0 0 0 114670834.2458011 1355394.863076024 1355394.863076024 22634932.60245659 0 0 0 0 0 114628548.2685381 723870.9821335792 723870.9821335792 22590166.45031166 0 0 0 0 0 114505450.0819463 5705215.0666941 5705215.0666941 17350346.98484806 0 0 0 0 0 114428983.2610309 6141106.788319458 6141106.788319458 15890754.94092842 0 0 0 0 0 114363302.0305485 6451585.287306188 6451585.287306188 14393199.97458723 0 0 0 0 0 114291363.5082673 6639977.854793777 6639977.854793777 12904626.77488416 0 0 0 0 0 114199017.8879019 6717892.405990141 6717892.405990141 11421877.03625548 0 0 0 0 0 114100304.0920833 6701911.043029569 6701911.043029569 9967026.558109215 0 0 0 0 0 113991871.2621729 6598825.409919929 6598825.409919929 8552363.795118975 0 0 0 0 0 113856594.1494638 6421078.836018596 6421078.836018596 7200373.32009113 0 0 0 0 0 113696086.2506779 6179702.562889075 6179702.562889075 5915114.484436527 0 0 0 0 0 113506741.0035708 5884903.436253353 5884903.436253353 4714294.549589931 0 0 0 0 0 113293904.6079248 5545869.176131326 5545869.176131326 3602970.109886935 0 0 0 0 0 113056723.7555303 5181496.205708465 5181496.205708465 2559514.17201439 0 0 0 0 0 112892693.2411522 4431783.209857022 4431783.209857022 461744.3995545084 0 0 0 0 0 113147178.250739 4388516.954984199 4388516.954984199 551514.9027654198 0 0 0 0 0 112800725.2183099 3943041.366872338 3943041.366872338 -255611.4339204831 0 0 0 0 0 112590241.018333 3115768.707161184 3115768.707161184 -2062411.960898109 0 0 0 0 0 112618221.0555807 2956918.506623567 2956918.506623567 -1970231.699530385 0 0 0 0 0 102214738.6464122 -10159478.70906411 -10159478.70906411 -8199833.952676083 0 0 0 0 0 101008540.0309814 -10566035.20171163 -10566035.20171163 -7790250.279522537 0 0 0 0 0 103401674.6986393 -9669125.189739743 -9669125.189739743 -8547822.13800515 0 0 0 0 0 104558636.1487126 -9097547.045776678 -9097547.045776678 -8826344.63084876 0 0 0 0 0 105671776.4198093 -8453110.096689783 -8453110.096689783 -9029461.432332356 0 0 0 0 0 106728546.3810063 -7742073.447455155 -7742073.447455155 -9148738.664163888 0 0 0 0 0 107717269.9036384 -6973668.52959334 -6973668.52959334 -9179214.226180499 0 0 0 0 0 108627896.9224925 -6157097.385441378 -6157097.385441378 -9115501.231167922 0 0 0 0 0 109451884.8735729 -5303258.43275581 -5303258.43275581 -8954742.806714308 0 0 0 0 0 110182095.4355571 -4424307.033455691 -4424307.033455691 -8695791.723872537 0 0 0 0 0 110812775.7168654 -3532754.244387719 -3532754.244387719 -8339689.098973169 0 0 0 0 0 111340379.3067041 -2640585.780419833 -2640585.780419833 -7888300.222754693 0 0 0 0 0 111765724.0706977 -1757524.755571944 -1757524.755571944 -7344395.79637392 0 0 0 0 0 112079453.0356792 -902633.4997066627 -902633.4997066627 -6721786.970838699 0 0 0 0 0 112293261.4718925 -79870.64810678865 -79870.64810678865 -6021077.89633968 0 0 0 0 0 112406841.8041676 697427.1688180877 697427.1688180877 -5253158.410389979 0 0 0 0 0 112434205.5425883 1426493.899992778 1426493.899992778 -4421768.831753365 0 0 0 0 0 112369821.3402957 2090648.397245692 2090648.397245692 -3546702.774752495 0 0 0 0 0 99551675.21713936 -10774381.51721995 -10774381.51721995 -8056439.005654917 0 0 0 0 0 99551048.42573665 -10536120.51559229 -10536120.51559229 -6953747.096329532 0 0 0 0 0 98244302.14192402 -10700175.98489076 -10700175.98489076 -7219946.605231472 0 0 0 0 0 96253833.80236375 -10241471.87805301 -10241471.87805301 -5107077.727728907 0 0 0 0 0 98359970.85051079 -10497818.50079069 -10497818.50079069 -6302571.408057759 0 0 0 0 0 97245232.00313507 -10489293.79777047 -10489293.79777047 -6204835.679254926 0 0 0 0 0 96811572.19716129 -10339082.9750309 -10339082.9750309 -5615833.950298545 0 0 0 0 0 114181046.3026608 3258535.043458764 3258535.043458764 20501370.18518898 0 0 0 0 0 114440064.2734953 2377288.531084426 2377288.531084426 21657008.88360977 0 0 0 0 0 113982632.3382033 4026051.210115763 4026051.210115763 19169384.04200037 0 0 0 0 0 113831508.9150033 4673561.031994609 4673561.031994609 17725106.84126648 0 0 0 0 0 114167214.8825786 1769454.275646495 1769454.275646495 21962877.34662911 0 0 0 0 0 113891474.8583506 289740.3472989494 289740.3472989494 21882922.98045778 0 0 0 0 0 113716786.2560013 5203150.754197159 5203150.754197159 16209959.36528698 0 0 0 0 0 113629366.9396591 5614644.055246654 5614644.055246654 14652667.86422546 0 0 0 0 0 113552709.6293774 5905578.537512042 5905578.537512042 13082857.24333691 0 0 0 0 0 113488545.9973059 6088767.189860582 6088767.189860582 11548075.35707279 0 0 0 0 0 113402442.4641949 6165788.570300957 6165788.570300957 10054515.82473164 0 0 0 0 0 113313501.8438333 6155148.311516969 6155148.311516969 8612393.307787864 0 0 0 0 0 113222108.6921172 6064116.426562793 6064116.426562793 7227118.588348188 0 0 0 0 0 113110225.7412559 5901825.403700455 5901825.403700455 5912142.377590888 0 0 0 0 0 112981186.5127999 5683320.419103675 5683320.419103675 4685899.71921744 0 0 0 0 0 112822637.1577354 5412793.22978279 5412793.22978279 3551856.280888119 0 0 0 0 0 112641705.0833184 5096338.985320271 5096338.985320271 2497152.7981629 0 0 0 0 0 112453988.8522188 4768769.340506827 4768769.340506827 1550948.15501234 0 0 0 0 0 112790694.7710662 4794245.436364556 4794245.436364556 1625110.893373485 0 0 0 0 0 112610347.184729 4020444.755211343 4020444.755211343 -346347.4302174721 0 0 0 0 0 112317363.5227193 3610100.309533663 3610100.309533663 -1071427.356923398 0 0 0 0 0 112443126.0423246 3504937.893616769 3504937.893616769 -983245.4306164442 0 0 0 0 0 112221659.8727309 2684285.972989739 2684285.972989739 -2638869.066770752 0 0 0 0 0 101905315.6233688 -9942174.576605467 -9942174.576605467 -8789667.428737583 0 0 0 0 0 100730214.7548202 -10400540.23861142 -10400540.23861142 -8455429.39670057 0 0 0 0 0 103063464.3633949 -9400214.79966245 -9400214.79966245 -9052327.029553974 0 0 0 0 0 104197821.8206898 -8782450.101774465 -8782450.101774465 -9235330.286826031 0 0 0 0 0 105293527.8135959 -8095140.04318587 -8095140.04318587 -9332394.202403814 0 0 0 0 0 106338084.0032647 -7346159.13818044 -7346159.13818044 -9337322.941834975 0 0 0 0 0 107320976.0527308 -6544711.48071852 -6544711.48071852 -9246636.84901583 0 0 0 0 0 108231663.8873127 -5700991.81147751 -5700991.81147751 -9058231.566143896 0 0 0 0 0 109061200.3691879 -4826290.448548757 -4826290.448548757 -8771535.450350245 0 0 0 0 0 109801303.2599741 -3932692.147082795 -3932692.147082795 -8387914.078504187 0 0 0 0 0 110445108.2908201 -3033502.113849074 -3033502.113849074 -7912287.2001326 0 0 0 0 0 110991290.4472833 -2138587.433024795 -2138587.433024795 -7347333.991443048 0 0 0 0 0 111433812.216547 -1262724.951331445 -1262724.951331445 -6700231.010851099 0 0 0 0 0 111779704.0997763 -413155.8649184756 -413155.8649184756 -5978160.507020289 0 0 0 0 0 112023837.240561 395547.1357537231 395547.1357537231 -5191480.836162831 0 0 0 0 0 112171757.214736 1158104.161063824 1158104.161063824 -4350530.859009607 0 0 0 0 0 112223831.8048237 1862910.388644316 1862910.388644316 -3466196.703976115 0 0 0 0 0 112190422.2654979 2501513.11440871 2501513.11440871 -2550225.904898116 0 0 0 0 0 100688841.6446918 -10254228.24860296 -10254228.24860296 -7400717.849315825 0 0 0 0 0 99337383.70796445 -10445448.38332696 -10445448.38332696 -7650969.257906365 0 0 0 0 0 99370081.71357128 -10187642.93376717 -10187642.93376717 -6570232.799282085 0 0 0 0 0 96508091.35155742 -10356806.74640366 -10356806.74640366 -5708430.709354838 0 0 0 0 0 98122235.81992446 -10317873.17046114 -10317873.17046114 -6807097.308313911 0 0 0 0 0 97417845.37890251 -10432264.2217777 -10432264.2217777 -6126903.498762473 0 0 0 0 0 113763929.2082385 3628791.52475017 3628791.52475017 20064451.36268592 0 0 0 0 0 113953942.8660865 2780705.180796403 2780705.180796403 21022502.55108122 0 0 0 0 0 113631314.0990918 4371614.873916653 4371614.873916653 18982001.6794586 0 0 0 0 0 113537141.1420618 5006985.420011392 5006985.420011392 17773720.71090046 0 0 0 0 0 113470850.1340185 1402797.172982483 1402797.172982483 21455351.23629302 0 0 0 0 0 113321381.900806 639795.8584382297 639795.8584382297 21548450.21403525 0 0 0 0 0 113475638.6861481 5528664.270065232 5528664.270065232 16477134.66728712 0 0 0 0 0 113435972.3293886 5934493.379070724 5934493.379070724 15119933.88049093 0 0 0 0 0 113396716.6255097 6223521.20514395 6223521.20514395 13747518.93155418 0 0 0 0 0 113342562.3948641 6398491.377331255 6398491.377331255 12360757.46807466 0 0 0 0 0 113289430.8578652 6478130.368306011 6478130.368306011 10978665.97647682 0 0 0 0 0 113229519.4609119 6471593.391843667 6471593.391843667 9611569.133750508 0 0 0 0 0 113146034.5615473 6381631.316387693 6381631.316387693 8295865.661306873 0 0 0 0 0 113043327.438443 6221470.114224718 6221470.114224718 7032829.535547602 0 0 0 0 0 112913053.3183139 6008034.16572737 6008034.16572737 5822531.340419658 0 0 0 0 0 112755704.3364898 5740561.776703218 5740561.776703218 4706148.949171665 0 0 0 0 0 112576493.4184882 5424319.300751109 5424319.300751109 3669178.572206467 0 0 0 0 0 112384324.76092 5089197.473766923 5089197.473766923 2658839.048116945 0 0 0 0 0 112249502.2902492 4422813.993389823 4422813.993389823 717032.9562069006 0 0 0 0 0 112501410.34925 4382928.612123338 4382928.612123338 804270.5267796963 0 0 0 0 0 112198039.0733137 3974659.301031374 3974659.301031374 18624.43291215205 0 0 0 0 0 112009647.3000523 3209435.59905396 3209435.59905396 -1702534.757287895 0 0 0 0 0 112076491.8346806 3069546.775244062 3069546.775244062 -1610532.251637925 0 0 0 0 0 102947319.7139721 -9462012.258400617 -9462012.258400617 -8150110.905433604 0 0 0 0 0 101826026.988579 -9898868.140889149 -9898868.140889149 -7801316.108350636 0 0 0 0 0 104048775.4255211 -8944097.834845301 -8944097.834845301 -8435527.128969632 0 0 0 0 0 105113201.2252752 -8357105.684184305 -8357105.684184305 -8654731.311808191 0 0 0 0 0 106128589.0237539 -7706488.738050641 -7706488.738050641 -8799435.281737167 0 0 0 0 0 107085277.0811058 -6998912.696646044 -6998912.696646044 -8862800.980337556 0 0 0 0 0 107972560.4296826 -6243526.500059969 -6243526.500059969 -8840929.376293447 0 0 0 0 0 108782936.1093925 -5449297.783932169 -5449297.783932169 -8730055.882288637 0 0 0 0 0 109508878.7520041 -4626876.009324497 -4626876.009324497 -8528790.158202423 0 0 0 0 0 110144598.5861566 -3787265.910603598 -3787265.910603598 -8236592.719149113 0 0 0 0 0 110686705.530211 -2941336.297202727 -2941336.297202727 -7854283.207019025 0 0 0 0 0 111131448.0528584 -2100429.262348998 -2100429.262348998 -7386312.927493204 0 0 0 0 0 111481868.4409608 -1275706.862007543 -1275706.862007543 -6837159.729943979 0 0 0 0 0 111733757.1260082 -478132.7646499141 -478132.7646499141 -6212765.169806658 0 0 0 0 0 111889245.5289741 280382.7505731233 280382.7505731233 -5523959.603650662 0 0 0 0 0 111957129.4255894 998280.5823243568 998280.5823243568 -4771781.255981726 0 0 0 0 0 111942582.2035687 1663372.838015579 1663372.838015579 -3970495.789094235 0 0 0 0 0 111849248.846389 2264991.781858996 2264991.781858996 -3135133.685709454 0 0 0 0 0 100440499.542923 -10116964.5435086 -10116964.5435086 -8043121.5729413 0 0 0 0 0 100424250.2642024 -9951147.773721851 -9951147.773721851 -7015458.409917338 0 0 0 0 0 99177314.85283339 -10119465.76188203 -10119465.76188203 -7261694.479972078 0 0 0 0 0 97253371.41433549 -9902473.331131639 -9902473.331131639 -5375712.190965725 0 0 0 0 0 99159956.77302462 -9867059.79057893 -9867059.79057893 -6263274.470959392 0 0 0 0 0 97981325.07267454 -9910629.065009324 -9910629.065009324 -5871127.115932875 0 0 0 0 0 113251685.6608032 2441437.607063577 2441437.607063577 20541646.9777999 0 0 0 0 0 113068627.2518872 3264291.256121872 3264291.256121872 19428404.63465065 0 0 0 0 0 112943069.765522 3971925.625529094 3971925.625529094 18168574.28838577 0 0 0 0 0 112836724.1359458 4573458.747394484 4573458.747394484 16820750.45244014 0 0 0 0 0 113021422.9989312 1678731.572385717 1678731.572385717 20310669.11654433 0 0 0 0 0 112779639.2650717 292893.6728905438 292893.6728905438 20682362.27356654 0 0 0 0 0 112758898.9250599 5065502.100041049 5065502.100041049 15408654.26549979 0 0 0 0 0 112702230.6491721 5445002.528867092 5445002.528867092 13950605.00656862 0 0 0 0 0 112650788.3607021 5714321.539271322 5714321.539271322 12517399.33459672 0 0 0 0 0 112602612.8787263 5886677.705748494 5886677.705748494 11095376.74954154 0 0 0 0 0 112550998.5522071 5965919.855132998 5965919.855132998 9703424.532731198 0 0 0 0 0 112499102.6835992 5963687.914518691 5963687.914518691 8351701.980600153 0 0 0 0 0 112429134.2620633 5882275.250258894 5882275.250258894 7055455.348953737 0 0 0 0 0 112347021.8133924 5735164.847911553 5735164.847911553 5822201.217652108 0 0 0 0 0 112243837.025735 5544671.273919809 5544671.273919809 4678373.705474298 0 0 0 0 0 112113683.9365366 5297901.286943259 5297901.286943259 3617039.368138775 0 0 0 0 0 111929629.7502155 4984537.782366785 4984537.782366785 2599850.799370019 0 0 0 0 0 111829922.3947844 4708215.733443595 4708215.733443595 1715458.756913088 0 0 0 0 0 112147808.9844313 4738027.79790379 4738027.79790379 1781453.712836576 0 0 0 0 0 111987456.1538816 4027822.898571056 4027822.898571056 -63546.39796721157 0 0 0 0 0 111717168.5989849 3648272.496285785 3648272.496285785 -764003.1083649665 0 0 0 0 0 111886753.8000172 3569231.614450338 3569231.614450338 -677518.5005389391 0 0 0 0 0 111676508.8507525 2798022.303934123 2798022.303934123 -2271746.106438783 0 0 0 0 0 102633700.4697764 -9220284.6813653 -9220284.6813653 -8653708.253043903 0 0 0 0 0 101542760.2976546 -9709220.417610696 -9709220.417610696 -8380993.746932396 0 0 0 0 0 103713088.3205196 -8659041.020868983 -8659041.020868983 -8855730.635479307 0 0 0 0 0 104759600.5529146 -8031640.214527527 -8031640.214527527 -8979823.96394873 0 0 0 0 0 105762365.040604 -7343836.948419116 -7343836.948419116 -9020431.645662321 0 0 0 0 0 106711396.1868957 -6604396.979103823 -6604396.979103823 -8974101.620526252 0 0 0 0 0 107596874.435153 -5821982.487359453 -5821982.487359453 -8837813.99502838 0 0 0 0 0 108410676.3870008 -5006246.343482496 -5006246.343482496 -8610136.628730139 0 0 0 0 0 109144980.361336 -4167790.868144209 -4167790.868144209 -8291601.766636805 0 0 0 0 0 109793116.0012859 -3318079.300347313 -3318079.300347313 -7885178.579816599 0 0 0 0 0 110351096.0083844 -2467865.348594513 -2467865.348594513 -7393670.125332341 0 0 0 0 0 110818271.9573803 -1626384.373396209 -1626384.373396209 -6820955.160295594 0 0 0 0 0 111186098.2431273 -810491.1493304884 -810491.1493304884 -6180347.19649601 0 0 0 0 0 111462478.4190485 -23786.7977260374 -23786.7977260374 -5471665.822201895 0 0 0 0 0 111646632.2723386 720672.7854415356 720672.7854415356 -4708730.156059938 0 0 0 0 0 111748384.2732686 1423160.89894657 1423160.89894657 -3893709.842566538 0 0 0 0 0 111762483.7738628 2065933.083466605 2065933.083466605 -3050569.528581399 0 0 0 0 0 111699808.5821141 2640111.989108631 2640111.989108631 -2184554.564672493 0 0 0 0 0 101481503.2516294 -9634372.209915565 -9634372.209915565 -7419332.599486796 0 0 0 0 0 100191887.4998497 -9831182.206760971 -9831182.206760971 -7658793.973011665 0 0 0 0 0 100180680.4082747 -9651995.775443951 -9651995.775443951 -6674897.282171384 0 0 0 0 0 97426589.21253528 -9991460.246923808 -9991460.246923808 -6040632.278511717 0 0 0 0 0 98204329.99512121 -9990546.825585617 -9990546.825585617 -6505190.339039695 0 0 0 0 0 99013679.46171473 -9808488.812957663 -9808488.812957663 -6932006.90532954 0 0 0 0 0 112852784.5949016 2739356.082074691 2739356.082074691 19820207.25475736 0 0 0 0 0 112728659.4332646 3559854.313274619 3559854.313274619 19023977.37889219 0 0 0 0 0 112638697.994648 4269000.394418683 4269000.394418683 18010099.29088284 0 0 0 0 0 112583596.778231 4864515.724004637 4864515.724004637 16873344.58462514 0 0 0 0 0 112521553.8961467 995811.43249725 995811.43249725 21231496.51294918 0 0 0 0 0 112515682.9262798 1646662.372485442 1646662.372485442 20541322.65175349 0 0 0 0 0 112284945.786799 495636.6763655148 495636.6763655148 20527859.11078978 0 0 0 0 0 112555559.6706961 5350655.943932097 5350655.943932097 15662568.80662524 0 0 0 0 0 112531493.171655 5723561.454791423 5723561.454791423 14422183.19273143 0 0 0 0 0 112515180.6272009 5992385.006244555 5992385.006244555 13130904.29370043 0 0 0 0 0 112487572.9110598 6159069.201603449 6159069.201603449 11833571.01316972 0 0 0 0 0 112466674.701593 6242023.679108761 6242023.679108761 10536815.40997485 0 0 0 0 0 112428265.9234418 6242683.689582616 6242683.689582616 9266753.946061296 0 0 0 0 0 112372147.2729721 6162664.851846311 6162664.851846311 8048175.661381016 0 0 0 0 0 112292322.5339622 6023230.195118881 6023230.195118881 6860105.634272487 0 0 0 0 0 112188977.1345275 5833768.268612753 5833768.268612753 5718092.660188996 0 0 0 0 0 112073205.8988659 5584645.189886632 5584645.189886632 4709205.183734476 0 0 0 0 0 111884130.3300039 5306299.388446382 5306299.388446382 3738312.86340177 0 0 0 0 0 111765777.4929676 5013937.31945525 5013937.31945525 2734781.834077519 0 0 0 0 0 111712600.4822248 4428568.090410014 4428568.090410014 974059.4802217189 0 0 0 0 0 111865099.6389898 4365594.799024136 4365594.799024136 1042670.790453488 0 0 0 0 0 111643479.2323068 4005898.616692959 4005898.616692959 275299.7948747748 0 0 0 0 0 111450805.4970619 3278291.936978786 3278291.936978786 -1371643.628584323 0 0 0 0 0 111570194.0442773 3151496.994043746 3151496.994043746 -1275029.052802927 0 0 0 0 0 103580953.0419708 -8781376.417283423 -8781376.417283423 -8058907.389632962 0 0 0 0 0 102533760.8829473 -9250910.263058761 -9250910.263058761 -7772483.043562967 0 0 0 0 0 104597845.8273813 -8247319.66997721 -8247319.66997721 -8291000.430845771 0 0 0 0 0 105572957.5720129 -7652053.451462083 -7652053.451462083 -8455524.02455836 0 0 0 0 0 106496591.3477355 -7000974.885482278 -7000974.885482278 -8546388.908802416 0 0 0 0 0 107359643.1287389 -6302595.788037878 -6302595.788037878 -8560076.874460435 0 0 0 0 0 108154037.525131 -5564669.74156563 -5564669.74156563 -8492086.27931739 0 0 0 0 0 108872610.4598429 -4796559.191204362 -4796559.191204362 -8340893.279638455 0 0 0 0 0 109509616.7523874 -4007816.541137036 -4007816.541137036 -8105327.286572481 0 0 0 0 0 110060985.1902454 -3208503.210391694 -3208503.210391694 -7785849.522501265 0 0 0 0 0 110523892.2643285 -2408814.865365477 -2408814.865365477 -7384572.566024289 0 0 0 0 0 110896097.5260107 -1618563.120097773 -1618563.120097773 -6905605.629643138 0 0 0 0 0 111180037.4373454 -848922.416451441 -848922.416451441 -6352567.001313951 0 0 0 0 0 111374927.1984593 -108816.0296575791 -108816.0296575791 -5734758.47772205 0 0 0 0 0 111484569.3468359 593974.4724491641 593974.4724491641 -5055448.314044494 0 0 0 0 0 111512622.5507099 1253879.817588026 1253879.817588026 -4326077.440877061 0 0 0 0 0 111467466.640958 1861618.267559601 1861618.267559601 -3555331.755478675 0 0 0 0 0 111362442.4743134 2410608.595137903 2410608.595137903 -2757475.074360785 0 0 0 0 0 101225066.8670464 -9474155.777467212 -9474155.777467212 -7991930.179738299 0 0 0 0 0 101178142.515926 -9381669.526760131 -9381669.526760131 -7061984.150854788 0 0 0 0 0 99979579.35943362 -9547603.57758601 -9547603.57758601 -7291376.610679017 0 0 0 0 0 98172222.39016178 -9510505.569549277 -9510505.569549277 -5606608.884240699 0 0 0 0 0 99085035.44187121 -9472057.842461435 -9472057.842461435 -6028027.739252513 0 0 0 0 0 100034957.2695487 -9335423.341973646 -9335423.341973646 -6389319.866033167 0 0 0 0 0 112298865.4395304 2490376.233357304 2490376.233357304 19490331.98823066 0 0 0 0 0 112149458.6317926 3238341.22281582 3238341.22281582 18409496.07045143 0 0 0 0 0 112029348.6445821 3903583.858292632 3903583.858292632 17234824.08018436 0 0 0 0 0 111951566.7397663 4465980.571105732 4465980.571105732 15977364.78224116 0 0 0 0 0 112042009.3467153 1032785.822655028 1032785.822655028 19637408.89997173 0 0 0 0 0 112056700.7364959 1898205.334731226 1898205.334731226 19318770.60755879 0 0 0 0 0 111796552.9817062 264454.0858552652 264454.0858552652 20217126.34134377 0 0 0 0 0 111900381.026128 4920363.894965194 4920363.894965194 14652156.90206027 0 0 0 0 0 111860388.1890871 5269826.497895745 5269826.497895745 13319888.98721101 0 0 0 0 0 111831262.9003754 5522632.386450464 5522632.386450464 11983838.24420078 0 0 0 0 0 111804516.9079361 5684165.431965954 5684165.431965954 10664401.49596164 0 0 0 0 0 111784231.1454613 5766553.784419924 5766553.784419924 9355229.954208704 0 0 0 0 0 111752501.182831 5771895.348596762 5771895.348596762 8097058.148082917 0 0 0 0 0 111714168.192036 5698940.35623822 5698940.35623822 6884283.188276451 0 0 0 0 0 111626357.7157493 5561559.203999425 5561559.203999425 5718790.442160135 0 0 0 0 0 111542673.6339628 5393129.004698128 5393129.004698128 4646619.961062379 0 0 0 0 0 111506922.7273903 5193201.722641525 5193201.722641525 3673807.535110099 0 0 0 0 0 111271520.7787576 4875882.731985418 4875882.731985418 2750055.829234759 0 0 0 0 0 111191823.8735388 4618384.642143549 4618384.642143549 1833922.78295221 0 0 0 0 0 111493869.7481773 4649441.352542187 4649441.352542187 1879143.200133188 0 0 0 0 0 111332278.0785202 3998894.324442219 3998894.324442219 192067.4294289136 0 0 0 0 0 111139747.8139792 3682440.474601263 3682440.474601263 -473315.4811200643 0 0 0 0 0 111369275.9086996 3604898.171462392 3604898.171462392 -371597.4730333095 0 0 0 0 0 111150311.7168842 2870727.65630024 2870727.65630024 -1949049.259577952 0 0 0 0 0 103267898.4293652 -8524004.942886833 -8524004.942886833 -8486672.995573765 0 0 0 0 0 102242176.6529689 -9033679.955455681 -9033679.955455681 -8270243.103060365 0 0 0 0 0 104267835.1647328 -7951367.045076962 -7951367.045076962 -8632736.987846669 0 0 0 0 0 105229177.1043775 -7320316.087967369 -7320316.087967369 -8703639.353509478 0 0 0 0 0 106144321.1771889 -6638247.642583437 -6638247.642583437 -8694722.221430387 0 0 0 0 0 107003666.0509303 -5913223.689269035 -5913223.689269035 -8603572.575030047 0 0 0 0 0 107799366.7153016 -5153535.294648624 -5153535.294648624 -8427841.117548695 0 0 0 0 0 108524082.6530391 -4368527.42893667 -4368527.42893667 -8167374.080553877 0 0 0 0 0 109171707.6376613 -3568062.296300199 -3568062.296300199 -7823488.896348397 0 0 0 0 0 109737678.8253522 -2762001.947548382 -2762001.947548382 -7398762.338869782 0 0 0 0 0 110218535.9484724 -1960605.868894483 -1960605.868894483 -6897563.294939284 0 0 0 0 0 110612189.48311 -1174021.472189931 -1174021.472189931 -6325303.501309603 0 0 0 0 0 110918466.8543473 -412010.7614542232 -412010.7614542232 -5689643.520006598 0 0 0 0 0 111135782.0169486 314512.4742249592 314512.4742249592 -4999707.565126745 0 0 0 0 0 111272793.3672925 1002611.673302627 1002611.673302627 -4255429.732898686 0 0 0 0 0 111329262.1234049 1644704.74072188 1644704.74072188 -3474555.355949227 0 0 0 0 0 111310283.2417875 2230237.849013268 2230237.849013268 -2673586.957099681 0 0 0 0 0 111227062.581081 2742217.878483313 2742217.878483313 -1850893.022302301 0 0 0 0 0 102159645.2880602 -9039052.702670258 -9039052.702670258 -7410630.227616009 0 0 0 0 0 100928501.7033154 -9226990.644134184 -9226990.644134184 -7620319.945512376 0 0 0 0 0 100933642.7140202 -9102181.503219988 -9102181.503219988 -6752796.919109344 0 0 0 0 0 98302319.94496867 -9563713.887966473 -9563713.887966473 -6258131.848260386 0 0 0 0 0 99087195.13737524 -9455788.872519502 -9455788.872519502 -6631235.893010391 0 0 0 0 0 99881968.60341844 -9259125.919993693 -9259125.919993693 -6958816.760865455 0 0 0 0 0 111927602.4741518 2772525.66012391 2772525.66012391 18921597.49343979 0 0 0 0 0 111827891.8302521 3516931.330678586 3516931.330678586 18053782.36771021 0 0 0 0 0 111762837.9703635 4168205.34862955 4168205.34862955 17090383.14650536 0 0 0 0 0 111734778.4841959 4721314.129532806 4721314.129532806 16030699.75499094 0 0 0 0 0 111649722.4941021 1292401.548390934 1292401.548390934 20032190.4992597 0 0 0 0 0 111614745.4389843 1803338.610496749 1803338.610496749 19327543.23965717 0 0 0 0 0 111340785.2196002 557454.5098492723 557454.5098492723 19511881.98904845 0 0 0 0 0 111720710.3232643 5169734.747935544 5169734.747935544 14918764.67877538 0 0 0 0 0 111712833.3425787 5514191.279411752 5514191.279411752 13748955.62232254 0 0 0 0 0 111714279.088725 5765692.404918672 5765692.404918672 12550925.65056963 0 0 0 0 0 111718016.7054258 5927195.392986673 5927195.392986673 11333516.46469901 0 0 0 0 0 111714675.5854881 6010836.002258318 6010836.002258318 10119032.6668364 0 0 0 0 0 111698602.9006412 6015356.816363452 6015356.816363452 8936856.35564952 0 0 0 0 0 111658843.4643511 5959771.894317243 5959771.894317243 7795698.284308665 0 0 0 0 0 111578277.9982329 5827675.396234835 5827675.396234835 6688277.48918094 0 0 0 0 0 111501783.1473625 5670155.029140196 5670155.029140196 5633690.525497105 0 0 0 0 0 111284669.303918 5414114.729880614 5414114.729880614 4758540.86097576 0 0 0 0 0 111360908.2865717 5173074.602606333 5173074.602606333 3451450.859602423 0 0 0 0 0 111294522.9134956 4866396.848337043 4866396.848337043 2517737.664172274 0 0 0 0 0 111245095.7050515 4499451.504822456 4499451.504822456 1256084.088551246 0 0 0 0 0 111312441.6690014 4349580.607750235 4349580.607750235 1264323.649688045 0 0 0 0 0 111124845.1653055 4011739.328318385 4011739.328318385 565773.4821656334 0 0 0 0 0 110968643.4642326 3320280.126562369 3320280.126562369 -1070201.487676816 0 0 0 0 0 111063857.5820146 3224611.153204639 3224611.153204639 -990161.9803980568 0 0 0 0 0 104125411.3305164 -8124391.427764433 -8124391.427764433 -7937373.218067174 0 0 0 0 0 103154532.709613 -8610085.913246246 -8610085.913246246 -7694382.623485532 0 0 0 0 0 105058643.9611979 -7581355.800643296 -7581355.800643296 -8119111.065028504 0 0 0 0 0 105949374.2782339 -6982822.041697809 -6982822.041697809 -8232809.112902616 0 0 0 0 0 106786851.9166411 -6337395.927173337 -6337395.927173337 -8276201.883128106 0 0 0 0 0 107563427.5689919 -5652444.43975735 -5652444.43975735 -8245300.724592103 0 0 0 0 0 108272010.7367676 -4935899.130461927 -4935899.130461927 -8137684.59511289 0 0 0 0 0 108907027.0505975 -4196337.30912388 -4196337.30912388 -7951890.078169907 0 0 0 0 0 109464068.4078797 -3442682.091179405 -3442682.091179405 -7687710.924381948 0 0 0 0 0 109939898.4227367 -2684087.90409622 -2684087.90409622 -7346453.108038317 0 0 0 0 0 110332563.3121812 -1929945.38666946 -1929945.38666946 -6930778.947702316 0 0 0 0 0 110642096.8780378 -1189367.191791873 -1189367.191791873 -6444590.008152758 0 0 0 0 0 110868999.5006754 -471494.0715907388 -471494.0715907388 -5893132.721376081 0 0 0 0 0 111015804.7112246 215057.2856950389 215057.2856950389 -5282179.287181501 0 0 0 0 0 111082301.6863339 862228.0770704354 862228.0770704354 -4621511.200539151 0 0 0 0 0 111076496.4902911 1468585.741940991 1468585.741940991 -3912028.046680652 0 0 0 0 0 111001229.8141812 2021645.666620255 2021645.666620255 -3176376.242628145 0 0 0 0 0 110865295.1591974 2497638.978459623 2497638.978459623 -2458435.308511113 0 0 0 0 0 101884316.2987523 -8838327.264930975 -8838327.264930975 -7901351.613899515 0 0 0 0 0 101821704.5080777 -8812437.392030314 -8812437.392030314 -7075053.299166559 0 0 0 0 0 100729563.7248419 -8981033.544363635 -8981033.544363635 -7250253.827342583 0 0 0 0 0 99093051.92009163 -9080731.3055322 -9080731.3055322 -5775416.912727123 0 0 0 0 0 99880168.26182003 -9020134.902063206 -9020134.902063206 -6183505.294113277 0 0 0 0 0 100751108.8056981 -8871948.774028568 -8871948.774028568 -6474072.463732503 0 0 0 0 0 111442551.370764 2518921.389349476 2518921.389349476 18479721.84070669 0 0 0 0 0 111299577.8792452 3219256.54930657 3219256.54930657 17472570.09729712 0 0 0 0 0 111209863.2924468 3832357.715085211 3832357.715085211 16367112.19079769 0 0 0 0 0 111157203.8431645 4349743.034581744 4349743.034581744 15177158.93969209 0 0 0 0 0 111246894.9876198 1180905.915133039 1180905.915133039 18749419.40627497 0 0 0 0 0 111215956.8559088 2075901.120639671 2075901.120639671 18862444.2396793 0 0 0 0 0 110862223.9977604 259808.855290917 259808.855290917 18868424.18619774 0 0 0 0 0 111118316.7177787 4767326.163826287 4767326.163826287 13965536.52966874 0 0 0 0 0 111093063.4398596 5091405.995779647 5091405.995779647 12722350.03228068 0 0 0 0 0 111086151.9265788 5332085.110688889 5332085.110688889 11479931.61400314 0 0 0 0 0 111084566.8323605 5486002.153526952 5486002.153526952 10237342.31741231 0 0 0 0 0 111074138.8661974 5565844.063126905 5565844.063126905 9016250.058580572 0 0 0 0 0 111123848.517792 5599341.741514504 5599341.741514504 7868170.003206343 0 0 0 0 0 111040520.8428055 5530851.004831439 5530851.004831439 6710649.773782924 0 0 0 0 0 110948594.4847099 5395284.108038634 5395284.108038634 5624953.033320694 0 0 0 0 0 110957835.1531083 5288778.634298211 5288778.634298211 4683693.173224051 0 0 0 0 0 111135166.2370587 5342886.420793801 5342886.420793801 4300575.258520532 0 0 0 0 0 110671926.9770362 4978097.389211901 4978097.389211901 3806682.976171393 0 0 0 0 0 110738984.5224489 4747972.699787872 4747972.699787872 2687751.450354141 0 0 0 0 0 110739948.8373493 4487786.119430875 4487786.119430875 1900746.115347417 0 0 0 0 0 110805337.3834719 4027477.51028785 4027477.51028785 475601.3273815837 0 0 0 0 0 110692431.5018854 3713329.691018031 3713329.691018031 -198379.1857403638 0 0 0 0 0 110731093.9458104 3595942.037054711 3595942.037054711 -151086.7964482615 0 0 0 0 0 110562964.5178673 2888583.925351232 2888583.925351232 -1688486.520203556 0 0 0 0 0 102861246.6487811 -8377399.754064113 -8377399.754064113 -8130221.4139006 0 0 0 0 0 103816481.1055422 -7856867.420509045 -7856867.420509045 -8294191.929423694 0 0 0 0 0 104735050.4859248 -7278186.297059603 -7278186.297059603 -8389390.604933692 0 0 0 0 0 105616910.1131724 -6649318.436931779 -6649318.436931779 -8412184.386451993 0 0 0 0 0 106449552.9869127 -5977965.089933878 -5977965.089933878 -8359804.695166826 0 0 0 0 0 107225792.8768864 -5271062.593479305 -5271062.593479305 -8229388.340596692 0 0 0 0 0 107938510.8565345 -4537097.726822717 -4537097.726822717 -8020335.080754107 0 0 0 0 0 108581893.5738666 -3784724.103569116 -3784724.103569116 -7733057.77516128 0 0 0 0 0 109151104.5586308 -3022814.184817052 -3022814.184817052 -7369205.120179604 0 0 0 0 0 109642553.0614446 -2260636.761859121 -2260636.761859121 -6931903.171976999 0 0 0 0 0 110053775.1396787 -1507544.486399566 -1507544.486399566 -6426127.552503427 0 0 0 0 0 110384220.974627 -772292.5898610173 -772292.5898610173 -5857039.533186375 0 0 0 0 0 110633445.8772206 -64083.37058393956 -64083.37058393956 -5231804.472420801 0 0 0 0 0 110804248.1989833 609315.8431387427 609315.8431387427 -4558097.328475387 0 0 0 0 0 110899196.5634548 1239295.025401165 1239295.025401165 -3834433.062014931 0 0 0 0 0 110921702.6215467 1824204.507030352 1824204.507030352 -3076608.897451026 0 0 0 0 0 110893702.8815947 2355519.249960541 2355519.249960541 -2340038.663114138 0 0 0 0 0 110823602.5304384 2823261.492847568 2823261.492847568 -1578649.157845726 0 0 0 0 0 102763116.8827564 -8431340.539946863 -8431340.539946863 -7351069.358122691 0 0 0 0 0 101552914.8669018 -8625492.229474202 -8625492.229474202 -7561417.954327696 0 0 0 0 0 101542099.2731854 -8609332.186541865 -8609332.186541865 -6825189.097513909 0 0 0 0 0 99154531.61570981 -9102319.09604417 -9102319.09604417 -6394479.580516494 0 0 0 0 0 99873096.83795574 -8995811.144060371 -8995811.144060371 -6702436.144131742 0 0 0 0 0 100536113.2493296 -8728527.148598308 -8728527.148598308 -6938306.897388733 0 0 0 0 0 111094525.2219127 2789241.11450641 2789241.11450641 17982189.56409876 0 0 0 0 0 111013748.3094406 3468182.420257515 3468182.420257515 17159322.82841286 0 0 0 0 0 110976246.2442073 4067017.702062665 4067017.702062665 16240007.18596209 0 0 0 0 0 110960705.3818103 4574649.153715556 4574649.153715556 15258996.41201741 0 0 0 0 0 110803909.4738586 1208514.909977326 1208514.909977326 19052188.08132799 0 0 0 0 0 110769430.6679401 1817922.206226874 1817922.206226874 18351675.70095544 0 0 0 0 0 110466079.2693969 472851.7330534481 472851.7330534481 18628593.43650937 0 0 0 0 0 110959611.9113642 4987000.480548931 4987000.480548931 14206315.36661599 0 0 0 0 0 110971127.8095826 5307026.528561928 5307026.528561928 13121771.48632071 0 0 0 0 0 110994918.9503235 5546594.124755656 5546594.124755656 11987139.59271071 0 0 0 0 0 111013321.9693804 5700992.237425175 5700992.237425175 10858729.3452598 0 0 0 0 0 110982575.4232012 5795798.056843018 5795798.056843018 9601429.132733652 0 0 0 0 0 111088479.729318 5811729.31915328 5811729.31915328 8504949.551543979 0 0 0 0 0 111020584.4090025 5711815.737627763 5711815.737627763 7586579.875993687 0 0 0 0 0 110971000.9255123 5628019.070697889 5628019.070697889 6599131.753294953 0 0 0 0 0 111074676.013998 5541440.92476246 5541440.92476246 5562211.983729195 0 0 0 0 0 110455677.374309 5143540.169960337 5143540.169960337 4841046.534501952 0 0 0 0 0 110764982.8801673 5151855.877524941 5151855.877524941 4037281.709980499 0 0 0 0 0 110849827.5604941 4947676.578362341 4947676.578362341 3123140.443571998 0 0 0 0 0 110854253.459134 4660326.728352036 4660326.728352036 2185017.004348113 0 0 0 0 0 110868782.4298327 4347629.433465971 4347629.433465971 1384219.308460277 0 0 0 0 0 110554795.5042587 3955531.348608674 3955531.348608674 665465.9061487882 0 0 0 0 0 110597324.6509483 3495823.958900051 3495823.958900051 -525770.0373464336 0 0 0 0 0 110742244.1448815 3221482.33957785 3221482.33957785 -935632.4019453992 0 0 0 0 0 103692637.1352615 -7990020.79725989 -7990020.79725989 -7598084.120450995 0 0 0 0 0 104583259.8927769 -7497579.775119374 -7497579.775119374 -7793717.539973804 0 0 0 0 0 105441208.2154017 -6946281.117192662 -6946281.117192662 -7923691.946850124 0 0 0 0 0 106251923.0377966 -6350749.364643392 -6350749.364643392 -7992700.442152271 0 0 0 0 0 107009186.6021511 -5715497.483615253 -5715497.483615253 -7993444.373318605 0 0 0 0 0 107705769.9947341 -5047704.43949405 -5047704.43949405 -7923591.225767004 0 0 0 0 0 108336077.8404219 -4355074.672799396 -4355074.672799396 -7781267.003116535 0 0 0 0 0 108895320.2029317 -3645792.958369033 -3645792.958369033 -7566195.377612849 0 0 0 0 0 109380269.0047368 -2927878.71037275 -2927878.71037275 -7278520.447286566 0 0 0 0 0 109788461.4312814 -2210000.12011475 -2210000.12011475 -6920359.19454088 0 0 0 0 0 110119585.5978702 -1500248.087325237 -1500248.087325237 -6494410.819411793 0 0 0 0 0 110373744.8095168 -807095.8069600395 -807095.8069600395 -6005120.347773421 0 0 0 0 0 110552373.5112845 -138717.3079243042 -138717.3079243042 -5457726.222144603 0 0 0 0 0 110658798.4923712 497524.8319893213 497524.8319893213 -4859054.695549435 0 0 0 0 0 110692435.9615445 1089470.111733335 1089470.111733335 -4219387.308068022 0 0 0 0 0 110665006.4007771 1641845.642422259 1641845.642422259 -3532926.547428076 0 0 0 0 0 110600650.5788757 2156771.040501926 2156771.040501926 -2830461.548581413 0 0 0 0 0 110405463.4384014 2551291.775264938 2551291.775264938 -2217019.250225683 0 0 0 0 0 102490424.3970534 -8221566.470015078 -8221566.470015078 -7786388.47674597 0 0 0 0 0 102401458.6894195 -8233256.406884298 -8233256.406884298 -7064346.285817521 0 0 0 0 0 101313178.6258764 -8397428.139732072 -8397428.139732072 -7096001.348971384 0 0 0 0 0 99903929.38036458 -8641313.293458356 -8641313.293458356 -5916960.265204176 0 0 0 0 0 100476212.5582576 -8578674.040663404 -8578674.040663404 -6302142.756213649 0 0 0 0 0 100988730.1037811 -8547391.206954217 -8547391.206954217 -6655708.11539924 0 0 0 0 0 110615632.4160277 2538472.761837998 2538472.761837998 17545531.24255334 0 0 0 0 0 110524842.8819897 3187546.350287972 3187546.350287972 16597089.47222191 0 0 0 0 0 110469895.5124445 3752847.43367519 3752847.43367519 15548438.31823071 0 0 0 0 0 110433837.640771 4229804.589453395 4229804.589453395 14451674.19904512 0 0 0 0 0 110403627.0313883 1024459.98755218 1024459.98755218 17903349.46607835 0 0 0 0 0 110435877.2569846 2045343.48806783 2045343.48806783 17751746.04426679 0 0 0 0 0 110099274.8727077 241059.0691461288 241059.0691461288 18103794.33140411 0 0 0 0 0 110410464.7080667 4617632.557655986 4617632.557655986 13317736.52199646 0 0 0 0 0 110402029.6525967 4916853.695201361 4916853.695201361 12167428.58811014 0 0 0 0 0 110423881.1228228 5149492.380591637 5149492.380591637 11001855.58211907 0 0 0 0 0 110438145.8181462 5291460.842719364 5291460.842719364 9821293.423828335 0 0 0 0 0 110494632.7602716 5419035.078160005 5419035.078160005 8820140.496760413 0 0 0 0 0 110513636.7122416 5433338.776296283 5433338.776296283 7519837.671320552 0 0 0 0 0 110505766.2133509 5370892.440496946 5370892.440496946 6532670.283352409 0 0 0 0 0 110402641.8708515 5228030.524474463 5228030.524474463 5625027.035496137 0 0 0 0 0 110525713.0524303 5289713.794853032 5289713.794853032 4970020.923733518 0 0 0 0 0 110107250.7290233 4969308.617482073 4969308.617482073 4442198.33221347 0 0 0 0 0 110223842.2628781 4783297.076619489 4783297.076619489 3454366.990696742 0 0 0 0 0 110272137.247365 4542825.388875161 4542825.388875161 2472712.419863319 0 0 0 0 0 110308777.4833073 4250659.804872476 4250659.804872476 1495212.946921007 0 0 0 0 0 110354182.0251594 4003975.409029728 4003975.409029728 587549.6781770751 0 0 0 0 0 110404576.736076 3855425.946206551 3855425.946206551 301595.475290324 0 0 0 0 0 110127372.6869955 3197215.652459187 3197215.652459187 -805500.8252737216 0 0 0 0 0 110165972.7793253 3637562.450641151 3637562.450641151 177570.779040903 0 0 0 0 0 110118716.5065173 2847296.937708747 2847296.937708747 -1556132.758811561 0 0 0 0 0 103407327.3705577 -7750866.7935214 -7750866.7935214 -7963462.469231131 0 0 0 0 0 104278640.1004023 -7219217.54989579 -7219217.54989579 -8079295.665115431 0 0 0 0 0 105127581.4400511 -6640315.945824285 -6640315.945824285 -8129304.410079535 0 0 0 0 0 105932763.0748225 -6019041.88443217 -6019041.88443217 -8109961.176682973 0 0 0 0 0 106688413.3511515 -5361897.914764188 -5361897.914764188 -8019018.642370561 0 0 0 0 0 107387199.0968931 -4676380.024547585 -4676380.024547585 -7855334.820719248 0 0 0 0 0 108023446.2279246 -3970204.001620837 -3970204.001620837 -7618426.714837238 0 0 0 0 0 108592607.401442 -3251476.068434193 -3251476.068434193 -7309324.887101271 0 0 0 0 0 109090807.1050465 -2528376.890359362 -2528376.890359362 -6930190.087917817 0 0 0 0 0 109515497.3759234 -1809380.367029215 -1809380.367029215 -6484760.549463411 0 0 0 0 0 109865278.371702 -1102718.056470122 -1102718.056470122 -5978264.564544545 0 0 0 0 0 110140143.4528347 -416325.7847376221 -416325.7847376221 -5415227.001869086 0 0 0 0 0 110340366.1194237 241760.2027904465 241760.2027904465 -4803507.996479749 0 0 0 0 0 110469882.9589952 865814.7674078007 865814.7674078007 -4156561.634573567 0 0 0 0 0 110528339.2539915 1439377.960739952 1439377.960739952 -3459209.727343577 0 0 0 0 0 110511838.6541568 1953252.139979676 1953252.139979676 -2746733.734167641 0 0 0 0 0 110423733.5152406 2431936.747253842 2431936.747253842 -2133088.184011087 0 0 0 0 0 110469123.2528474 2805118.187400293 2805118.187400293 -1491459.774896434 0 0 0 0 0 103296979.4833311 -7841775.097437368 -7841775.097437368 -7250860.79583509 0 0 0 0 0 102173388.6583235 -8063234.855986401 -8063234.855986401 -7412789.965887781 0 0 0 0 0 101820477.6965651 -8212146.597431967 -8212146.597431967 -6825954.681903073 0 0 0 0 0 99992135.25951333 -8658845.389406953 -8658845.389406953 -6468418.466569488 0 0 0 0 0 100944933.8971818 -8253399.580257542 -8253399.580257542 -6730936.16547625 0 0 0 0 0 110325506.2161231 2759904.569627249 2759904.569627249 17074748.62873384 0 0 0 0 0 110278986.2317834 3399480.31408476 3399480.31408476 16308934.71832639 0 0 0 0 0 110263766.9953699 3957501.913958311 3957501.913958311 15451544.68591261 0 0 0 0 0 110260509.3833618 4428015.740199346 4428015.740199346 14514935.43317593 0 0 0 0 0 110202387.0536716 1240701.013144538 1240701.013144538 18249838.17008633 0 0 0 0 0 110193915.8026079 1078732.75119964 1078732.75119964 18108403.48698057 0 0 0 0 0 110043811.9277995 1862763.626169974 1862763.626169974 17485883.51524224 0 0 0 0 0 109762403.9167737 445115.812612566 445115.812612566 17735033.02100991 0 0 0 0 0 110271940.2420829 4810035.925217899 4810035.925217899 13542251.49871482 0 0 0 0 0 110297151.5638236 5113113.077440356 5113113.077440356 12520640.37458671 0 0 0 0 0 110343715.7772277 5336663.368168848 5336663.368168848 11450383.63005657 0 0 0 0 0 110284495.0587813 5474818.844076132 5474818.844076132 10379904.28819687 0 0 0 0 0 110391491.4389035 5466028.341271334 5466028.341271334 8470512.074181454 0 0 0 0 0 110419796.2974634 5527968.315128145 5527968.315128145 8505318.602825185 0 0 0 0 0 110339190.4423515 5509079.549976588 5509079.549976588 7608162.903329056 0 0 0 0 0 110449504.5662898 5427958.319805804 5427958.319805804 6030104.202557399 0 0 0 0 0 109967852.7795961 5096660.042365613 5096660.042365613 5451457.554065566 0 0 0 0 0 110175882.1081585 5127927.67468358 5127927.67468358 4632511.863843276 0 0 0 0 0 110309196.8892345 4977671.070560659 4977671.070560659 3740658.502005444 0 0 0 0 0 110383769.8365925 4761145.033051769 4761145.033051769 2856752.095138527 0 0 0 0 0 110479216.7936015 4482409.085862899 4482409.085862899 2048688.643712543 0 0 0 0 0 110445101.9147642 4197973.738670952 4197973.738670952 1265814.293616806 0 0 0 0 0 109921975.6612156 3827290.923272694 3827290.923272694 708668.5408480949 0 0 0 0 0 110430468.7388711 3465544.88945746 3465544.88945746 -232613.7614479326 0 0 0 0 0 109808152.4601028 3413960.078145137 3413960.078145137 -309950.5236831366 0 0 0 0 0 110284290.4576632 3119794.171107389 3119794.171107389 -876617.1838915554 0 0 0 0 0 104140959.2745038 -7405156.724104281 -7405156.724104281 -7475690.195358939 0 0 0 0 0 104969388.3043045 -6893706.762840763 -6893706.762840763 -7619829.087942787 0 0 0 0 0 105753164.612489 -6345225.598598825 -6345225.598598825 -7711796.076205851 0 0 0 0 0 106489771.1174062 -5756509.602760103 -5756509.602760103 -7739262.454218248 0 0 0 0 0 107172230.5482249 -5134922.260347335 -5134922.260347335 -7702118.813242055 0 0 0 0 0 107795303.5628755 -4487019.499023165 -4487019.499023165 -7598026.379941856 0 0 0 0 0 108354180.7939478 -3820159.082210304 -3820159.082210304 -7426022.472110699 0 0 0 0 0 108844909.9788139 -3142016.223462127 -3142016.223462127 -7186255.135422348 0 0 0 0 0 109265226.6509104 -2460062.458870181 -2460062.458870181 -6879738.867355996 0 0 0 0 0 109613596.1379504 -1782054.461409656 -1782054.461409656 -6508615.923993211 0 0 0 0 0 109890910.3485311 -1114824.198495526 -1114824.198495526 -6075759.577506437 0 0 0 0 0 110096439.7530642 -467156.9160078748 -467156.9160078748 -5586902.042934234 0 0 0 0 0 110231866.4364062 154584.5470836082 154584.5470836082 -5046432.252445642 0 0 0 0 0 110299979.0740872 744768.7858739416 744768.7858739416 -4462342.001184328 0 0 0 0 0 110271874.7972857 1267771.768155885 1267771.768155885 -3869381.220356087 0 0 0 0 0 110275101.9543813 1781930.71300515 1781930.71300515 -3208396.151547392 0 0 0 0 0 110375721.3466926 2397385.470300192 2397385.470300192 -2344680.30028533 0 0 0 0 0 109913536.1240172 2447463.586038582 2447463.586038582 -2056714.26691542 0 0 0 0 0 103024044.445456 -7628222.222764819 -7628222.222764819 -7646289.925377443 0 0 0 0 0 102924182.3867289 -7643221.014050326 -7643221.014050326 -6919252.202749338 0 0 0 0 0 101918672.1548393 -7803141.509719364 -7803141.509719364 -6651714.445243617 0 0 0 0 0 100691913.8391551 -8191600.844002737 -8191600.844002737 -6007033.332332101 0 0 0 0 0 101547729.1339659 -7994480.342282689 -7994480.342282689 -6348911.227046364 0 0 0 0 0 109910316.7829248 2538668.781349282 2538668.781349282 16677972.47833542 0 0 0 0 0 109844962.5087296 3141678.7957954 3141678.7957954 15768980.34714401 0 0 0 0 0 109806620.9088894 3666941.452595658 3666941.452595658 14794724.46672072 0 0 0 0 0 109779341.2035774 4110585.161403019 4110585.161403019 13769624.41882717 0 0 0 0 0 109830472.8616351 1484930.225611235 1484930.225611235 17446526.67189506 0 0 0 0 0 109773130.921611 834864.2770586541 834864.2770586541 17617084.34472448 0 0 0 0 0 109720759.4227293 2072452.953927461 2072452.953927461 16810553.95985245 0 0 0 0 0 109410111.3451314 228539.075958253 228539.075958253 17281647.91266086 0 0 0 0 0 109781941.5149555 4474716.799655098 4474716.799655098 12725959.49587183 0 0 0 0 0 109779500.6651686 4759362.543317762 4759362.543317762 11657951.08553012 0 0 0 0 0 109864800.9488381 4989463.835512981 4989463.835512981 10531658.99071286 0 0 0 0 0 109810936.117182 5159058.804344525 5159058.804344525 9350328.752597595 0 0 0 0 0 109895558.893682 5293982.481010078 5293982.481010078 9417768.59132936 0 0 0 0 0 110023710.9789864 5273153.835793853 5273153.835793853 7519810.065848971 0 0 0 0 0 110060711.3234085 5362552.578108569 5362552.578108569 6853392.353261583 0 0 0 0 0 109836747.4512506 5173231.707348195 5173231.707348195 6582464.859814714 0 0 0 0 0 110000748.600895 5242062.290113662 5242062.290113662 5564993.392940612 0 0 0 0 0 109696806.0181417 4786994.843498022 4786994.843498022 4081681.576502357 0 0 0 0 0 109569687.8307958 4919424.760448298 4919424.760448298 5030686.555297409 0 0 0 0 0 109790149.0141031 4606592.57711888 4606592.57711888 3143253.366317018 0 0 0 0 0 109855328.1424475 4384446.343242054 4384446.343242054 2249520.865788251 0 0 0 0 0 109900933.4621168 4105124.112512153 4105124.112512153 1440832.644427759 0 0 0 0 0 109790473.2115843 3091754.80741828 3091754.80741828 -843451.9876333741 0 0 0 0 0 109677964.4061975 2725494.386899845 2725494.386899845 -1529711.04803273 0 0 0 0 0 103848511.6534059 -7143404.066224528 -7143404.066224528 -7777263.712910699 0 0 0 0 0 104673825.2146629 -6613026.947861636 -6613026.947861636 -7848533.148726365 0 0 0 0 0 105451264.8621786 -6039227.472438204 -6039227.472438204 -7857322.219594462 0 0 0 0 0 106185261.7589229 -5429085.666055053 -5429085.666055053 -7800506.100424187 0 0 0 0 0 106868530.9912966 -4789394.94783279 -4789394.94783279 -7676370.208215546 0 0 0 0 0 107495934.4710522 -4127216.245158611 -4127216.245158611 -7484244.97050845 0 0 0 0 0 108062166.5329178 -3450133.001424703 -3450133.001424703 -7224515.601964012 0 0 0 0 0 108563899.1537777 -2765412.593819286 -2765412.593819286 -6898055.297639657 0 0 0 0 0 108998037.8675125 -2080916.006677008 -2080916.006677008 -6507931.443846801 0 0 0 0 0 109362999.6613323 -1403903.078651845 -1403903.078651845 -6058142.702466764 0 0 0 0 0 109658659.5943188 -741441.9465209638 -741441.9465209638 -5553944.609436776 0 0 0 0 0 109884440.708343 -102330.5257495048 -102330.5257495048 -4998651.8690666 0 0 0 0 0 110043221.3188889 506385.4578903243 506385.4578903243 -4397596.308701762 0 0 0 0 0 110148981.7581794 1078726.096135293 1078726.096135293 -3781565.146212596 0 0 0 0 0 110192958.4380054 1622723.512810173 1622723.512810173 -3106596.035030744 0 0 0 0 0 110065809.2966302 2091747.999111879 2091747.999111879 -2485176.682475499 0 0 0 0 0 110115237.8010861 2702409.293280934 2702409.293280934 -1515453.931983407 0 0 0 0 0 103729892.4802399 -7295205.093995555 -7295205.093995555 -7215501.504337138 0 0 0 0 0 102367893.7754532 -7782696.22209045 -7782696.22209045 -7116671.277191528 0 0 0 0 0 102705911.7672057 -7506210.354618884 -7506210.354618884 -7381918.499782639 0 0 0 0 0 101397606.6847681 -7916644.895364398 -7916644.895364398 -6844191.520023652 0 0 0 0 0 100634212.6658164 -8171099.175493831 -8171099.175493831 -6547998.951798381 0 0 0 0 0 109650685.1449495 2734138.340910738 2734138.340910738 16245279.53867424 0 0 0 0 0 109623565.5695346 3331881.600490386 3331881.600490386 15513786.62341048 0 0 0 0 0 109616378.553543 3850892.543943445 3850892.543943445 14686014.75907559 0 0 0 0 0 109634554.0277983 4280333.669901377 4280333.669901377 13855353.86591347 0 0 0 0 0 109520709.2603323 1351087.430432597 1351087.430432597 17244296.56916847 0 0 0 0 0 109454780.1397777 1024861.596040151 1024861.596040151 17245348.22284197 0 0 0 0 0 109378441.9430468 1925023.051923789 1925023.051923789 16611156.3251677 0 0 0 0 0 109094152.3365442 423219.8886036724 423219.8886036724 16918630.27922523 0 0 0 0 0 109672992.6319492 4638301.558422201 4638301.558422201 12932731.28124136 0 0 0 0 0 109696171.8942572 4938169.223441105 4938169.223441105 11911393.51421577 0 0 0 0 0 109784147.1754005 5139378.756663995 5139378.756663995 10969241.52439417 0 0 0 0 0 109663221.9848785 5218896.006624706 5218896.006624706 10133393.09195295 0 0 0 0 0 109758653.1518674 5320429.588234124 5320429.588234124 8927999.130838256 0 0 0 0 0 109987791.714654 5428816.085157375 5428816.085157375 8095129.936882129 0 0 0 0 0 109610196.0767226 5179919.883111434 5179919.883111434 7608456.752459919 0 0 0 0 0 109817422.1438352 5268492.426232925 5268492.426232925 6496377.648017542 0 0 0 0 0 109425637.935612 4986184.595888101 4986184.595888101 6027315.543221224 0 0 0 0 0 104533023.9153362 -6823794.917753115 -6823794.917753115 -7335147.147549846 0 0 0 0 0 105287942.0004471 -6323552.693430846 -6323552.693430846 -7439687.293593942 0 0 0 0 0 106003452.4388707 -5778201.382714097 -5778201.382714097 -7486345.724809749 0 0 0 0 0 106670334.864164 -5200224.203956782 -5200224.203956782 -7476602.673299152 0 0 0 0 0 107283983.7098989 -4594724.00014729 -4594724.00014729 -7405417.276744137 0 0 0 0 0 107839588.5603731 -3968610.324203668 -3968610.324203668 -7271646.293533816 0 0 0 0 0 108333728.3553606 -3328575.787676113 -3328575.787676113 -7074424.584926144 0 0 0 0 0 108762871.4516383 -2681904.949839733 -2681904.949839733 -6814217.770709297 0 0 0 0 0 109125097.0446275 -2035800.907220198 -2035800.907220198 -6492996.255541454 0 0 0 0 0 109421276.9246241 -1395987.674135404 -1395987.674135404 -6111944.06837096 0 0 0 0 0 109651540.297669 -769468.9100880187 -769468.9100880187 -5675333.798897129 0 0 0 0 0 109814892.9728665 -165827.2412946167 -165827.2412946167 -5190286.077851063 0 0 0 0 0 109906397.4508182 405483.8141759506 405483.8141759506 -4662218.11776792 0 0 0 0 0 109957454.7108434 948324.1864849599 948324.1864849599 -4109532.006554544 0 0 0 0 0 109796973.1916409 1375902.279439659 1375902.279439659 -3603027.486681412 0 0 0 0 0 109928062.0884655 2005417.301495462 2005417.301495462 -2678872.550122798 0 0 0 0 0 109554991.8955756 2348731.886761502 2348731.886761502 -2091292.714214097 0 0 0 0 0 103466135.673238 -7062558.302606122 -7062558.302606122 -7484561.741437063 0 0 0 0 0 102577786.2214383 -7325246.130681854 -7325246.130681854 -6878847.159191006 0 0 0 0 0 103387575.3198377 -7196670.751101164 -7196670.751101164 -6945968.712770866 0 0 0 0 0 102071131.3710227 -7521532.009203034 -7521532.009203034 -6416781.855241411 0 0 0 0 0 101357175.2844472 -7753036.563490013 -7753036.563490013 -6078039.821747025 0 0 0 0 0 109291773.1901056 2533828.830515937 2533828.830515937 15859497.24292443 0 0 0 0 0 109238513.868631 3098272.628734717 3098272.628734717 15012602.32886588 0 0 0 0 0 109194864.3024839 3585309.688733895 3585309.688733895 14094170.99579058 0 0 0 0 0 109215055.8004991 4001292.838188722 4001292.838188722 13160143.59305715 0 0 0 0 0 109216205.1273092 1546074.001750301 1546074.001750301 16700205.2274009 0 0 0 0 0 109098114.26603 820859.8561765397 820859.8561765397 16838608.03865417 0 0 0 0 0 109094158.278443 2119793.059304977 2119793.059304977 16098824.44983341 0 0 0 0 0 108767146.8515528 218567.0153969773 218567.0153969773 16444360.37634883 0 0 0 0 0 109241288.1929162 4344704.500380862 4344704.500380862 12145689.01330424 0 0 0 0 0 109303433.8833926 4656709.994709723 4656709.994709723 11239417.69884652 0 0 0 0 0 109340492.3128993 4845020.592444516 4845020.592444516 10062615.06144617 0 0 0 0 0 109234101.9017188 4915709.288586698 4915709.288586698 9390598.997336373 0 0 0 0 0 109444296.1533153 5066336.034888002 5066336.034888002 8478106.786708815 0 0 0 0 0 109556324.7463945 5238062.028326058 5238062.028326058 7419274.837148493 0 0 0 0 0 109254198.2864522 5000208.656692233 5000208.656692233 7014071.335285014 0 0 0 0 0 104261253.9236407 -6573573.418304582 -6573573.418304582 -7571935.936010323 0 0 0 0 0 105004858.6994473 -6042202.018651647 -6042202.018651647 -7604000.755628529 0 0 0 0 0 105715605.8572017 -5475514.702877426 -5475514.702877426 -7576532.042239206 0 0 0 0 0 106381474.7781773 -4878978.430708851 -4878978.430708851 -7487086.40025174 0 0 0 0 0 106997628.770442 -4258757.173290486 -4258757.173290486 -7334494.652014401 0 0 0 0 0 107559046.944664 -3621249.194807704 -3621249.194807704 -7118752.606328232 0 0 0 0 0 108061520.0218625 -2973830.889368949 -2973830.889368949 -6840489.629971191 0 0 0 0 0 108501909.32844 -2323267.685923982 -2323267.685923982 -6500359.781121956 0 0 0 0 0 108878484.2614764 -1676416.411978364 -1676416.411978364 -6103218.688759522 0 0 0 0 0 109191010.1071713 -1039829.664723425 -1039829.664723425 -5650982.815374669 0 0 0 0 0 109438613.3603316 -419164.4497421299 -419164.4497421299 -5153464.271918987 0 0 0 0 0 109623431.507615 168671.4131367526 168671.4131367526 -4614213.918532403 0 0 0 0 0 109772286.5818852 727175.7164545199 727175.7164545199 -4022601.977765715 0 0 0 0 0 109855450.0032527 1245812.077909981 1245812.077909981 -3452636.154101647 0 0 0 0 0 109993158.7516904 1656738.502366288 1656738.502366288 -3016323.860191546 0 0 0 0 0 109887033.8364934 2302742.509063935 2302742.509063935 -2014122.036076664 0 0 0 0 0 109619936.3430579 1715572.033134124 1715572.033134124 -2865952.245314176 0 0 0 0 0 104138523.6197329 -6745602.177228617 -6745602.177228617 -7036049.739252174 0 0 0 0 0 102745750.0909251 -7240777.950495118 -7240777.950495118 -6747886.66641672 0 0 0 0 0 103141033.6019343 -6958364.256471614 -6958364.256471614 -7177470.293703769 0 0 0 0 0 101259369.6534883 -7689061.033342525 -7689061.033342525 -6652494.553332106 0 0 0 0 0 101911457.3127041 -7419162.00701193 -7419162.00701193 -6732535.494555089 0 0 0 0 0 109051375.2536314 2714264.148795833 2714264.148795833 15456504.78972984 0 0 0 0 0 109024581.888849 3274611.309521514 3274611.309521514 14724559.30950459 0 0 0 0 0 109041634.7444817 3741882.68856407 3741882.68856407 13986502.58758652 0 0 0 0 0 109093781.8683755 4154155.73735413 4154155.73735413 13182763.78398359 0 0 0 0 0 108883434.9065447 1359896.539477528 1359896.539477528 16340685.36479535 0 0 0 0 0 108808793.8171414 997090.1312838614 997090.1312838614 16512202.66300369 0 0 0 0 0 108791151.1770514 1967413.444326377 1967413.444326377 15847566.46835756 0 0 0 0 0 108492709.2786769 384023.7350279448 384023.7350279448 16156087.23614675 0 0 0 0 0 109121644.0733948 4475657.046635211 4475657.046635211 12390423.52940275 0 0 0 0 0 109174366.297524 4730094.339999136 4730094.339999136 10857162.03608514 0 0 0 0 0 109118284.8585968 4769321.856295664 4769321.856295664 10896050.00433676 0 0 0 0 0 109171473.1980231 5043254.662727879 5043254.662727879 9337625.493383421 0 0 0 0 0 109408425.1652771 5155643.466683696 5155643.466683696 8400316.858463695 0 0 0 0 0 109072527.2402677 4933412.534657198 4933412.534657198 8022255.168298759 0 0 0 0 0 104855857.5096939 -6291126.977719565 -6291126.977719565 -7169924.195588921 0 0 0 0 0 105548308.2461627 -5784293.363285503 -5784293.363285503 -7234054.763062751 0 0 0 0 0 106198561.2289181 -5246531.172195142 -5246531.172195142 -7248647.181816556 0 0 0 0 0 106801159.9558458 -4680840.488184003 -4680840.488184003 -7206207.194633558 0 0 0 0 0 107351083.8206611 -4093528.05310533 -4093528.05310533 -7105869.568853131 0 0 0 0 0 107845074.1443546 -3490252.279192173 -3490252.279192173 -6946633.001515145 0 0 0 0 0 108280038.8067806 -2877954.832975663 -2877954.832975663 -6728902.220625905 0 0 0 0 0 108653367.654304 -2263245.204827921 -2263245.204827921 -6452917.499829776 0 0 0 0 0 108965464.6352624 -1650959.843720048 -1650959.843720048 -6118941.460592111 0 0 0 0 0 109214583.3525604 -1049214.026369158 -1049214.026369158 -5732305.853882388 0 0 0 0 0 109401711.1321418 -460857.0135723823 -460857.0135723823 -5292939.27586535 0 0 0 0 0 109552229.7295474 106486.8954437554 106486.8954437554 -4815254.9478882 0 0 0 0 0 109634195.0628594 622262.2072403176 622262.2072403176 -4314956.325284511 0 0 0 0 0 109727523.7437254 1156412.672823496 1156412.672823496 -3748227.33135837 0 0 0 0 0 109377450.0369947 1289513.837570937 1289513.837570937 -3445469.661509595 0 0 0 0 0 109398333.486867 1985934.376721257 1985934.376721257 -2611508.019117724 0 0 0 0 0 109794482.2093666 1905759.09041323 1905759.09041323 -2557365.910116991 0 0 0 0 0 103884080.9571048 -6523574.904200129 -6523574.904200129 -7296498.272237005 0 0 0 0 0 102895533.6873143 -6856225.46290568 -6856225.46290568 -6577636.432153429 0 0 0 0 0 103756950.8730069 -6656881.929828272 -6656881.929828272 -6756165.944706752 0 0 0 0 0 101959418.5574082 -7271688.184587101 -7271688.184587101 -6114947.892270208 0 0 0 0 0 102586763.4979574 -7105973.647053993 -7105973.647053993 -6376692.121942157 0 0 0 0 0 108756336.51418 2546548.983437647 2546548.983437647 15126566.99115781 0 0 0 0 0 108658664.8281803 3060986.67212104 3060986.67212104 14287008.33203435 0 0 0 0 0 108709777.1806647 3530628.09977398 3530628.09977398 13529637.17726096 0 0 0 0 0 108777230.5103946 3947970.25592567 3947970.25592567 12682472.65450702 0 0 0 0 0 108618382.1871656 1539562.775699717 1539562.775699717 15968531.55682574 0 0 0 0 0 108485509.302091 794388.2808903676 794388.2808903676 16028298.90635691 0 0 0 0 0 108543625.6604889 2124131.843986564 2124131.843986564 15283753.10793216 0 0 0 0 0 108178309.0994297 188922.8698485136 188922.8698485136 15716046.2844476 0 0 0 0 0 108813965.4259451 4297951.645113087 4297951.645113087 11572623.47944376 0 0 0 0 0 108804606.1939698 4423440.446416574 4423440.446416574 11682651.54899195 0 0 0 0 0 108875824.2020619 4714001.275502373 4714001.275502373 10103988.4031021 0 0 0 0 0 108858367.0121472 4813934.133396881 4813934.133396881 8948953.474202223 0 0 0 0 0 108669479.9079932 4614780.212453711 4614780.212453711 9955731.947713772 0 0 0 0 0 104586730.6419604 -6031044.925684449 -6031044.925684449 -7350842.042280478 0 0 0 0 0 105275519.6772842 -5503908.624950885 -5503908.624950885 -7349374.569442659 0 0 0 0 0 105924251.9536002 -4947789.58358579 -4947789.58358579 -7290423.852150573 0 0 0 0 0 106527714.9764677 -4367328.65696114 -4367328.65696114 -7172526.90494646 0 0 0 0 0 107081713.4056971 -3768003.191436825 -3768003.191436825 -6995724.409144406 0 0 0 0 0 107582804.3730832 -3155974.564577192 -3155974.564577192 -6760520.049246534 0 0 0 0 0 108027554.5749268 -2538261.794673936 -2538261.794673936 -6467234.740075097 0 0 0 0 0 108412480.025104 -1921698.619759548 -1921698.619759548 -6117815.716605725 0 0 0 0 0 108739404.0983098 -1311184.754891824 -1311184.754891824 -5716046.969331782 0 0 0 0 0 109007400.7343993 -716054.7246637892 -716054.7246637892 -5259732.630448496 0 0 0 0 0 109198721.3635144 -128154.0697995577 -128154.0697995577 -4797887.396238366 0 0 0 0 0 109383269.4340637 413034.5056192768 413034.5056192768 -4285216.379958934 0 0 0 0 0 109468106.9988988 910560.7620803674 910560.7620803674 -3702543.566691821 0 0 0 0 0 109597864.4161563 1518010.813252558 1518010.813252558 -3019423.619531339 0 0 0 0 0 109231864.5909802 1577953.730551245 1577953.730551245 -3018423.567476834 0 0 0 0 0 104448450.9236282 -6250190.873846199 -6250190.873846199 -6898813.424836478 0 0 0 0 0 102901755.2750812 -6808226.975947605 -6808226.975947605 -6940239.145722895 0 0 0 0 0 102519653.6966135 -7013667.685332133 -7013667.685332133 -6758567.541786392 0 0 0 0 0 103496330.4445268 -6460062.885637208 -6460062.885637208 -7031060.812943106 0 0 0 0 0 101863324.6076892 -7199070.644777284 -7199070.644777284 -6601462.461125752 0 0 0 0 0 108536661.3869751 2695821.185490474 2695821.185490474 14699194.33383149 0 0 0 0 0 108471129.7486663 3214768.193083163 3214768.193083163 14060253.16696677 0 0 0 0 0 108542000.6899342 3669483.858649421 3669483.858649421 13168513.30783993 0 0 0 0 0 108642843.6743578 4054240.298216032 4054240.298216032 12378652.90878348 0 0 0 0 0 108258356.1093348 1342083.72922687 1342083.72922687 15602066.95422823 0 0 0 0 0 108253547.8143484 935757.3470233598 935757.3470233598 15772800.87826418 0 0 0 0 0 108358081.498164 2075233.506407894 2075233.506407894 15287699.63996794 0 0 0 0 0 107923874.8354312 343632.8625985559 343632.8625985559 15453835.77585807 0 0 0 0 0 108565631.8963909 4042562.569908968 4042562.569908968 12391163.67898952 0 0 0 0 0 108582027.6520647 4401175.808400576 4401175.808400576 10944855.10578308 0 0 0 0 0 108473483.2568728 4374811.391748646 4374811.391748646 10902127.99554246 0 0 0 0 0 105122741.2846378 -5774911.148642617 -5774911.148642617 -6980247.575919191 0 0 0 0 0 105755910.2121013 -5275026.888617544 -5275026.888617544 -7018619.164597132 0 0 0 0 0 106345653.0857939 -4747718.016011435 -4747718.016011435 -7002791.910398994 0 0 0 0 0 106888095.3894768 -4197273.987167717 -4197273.987167717 -6931846.033928286 0 0 0 0 0 107379656.2060998 -3629319.041036325 -3629319.041036325 -6805820.031917518 0 0 0 0 0 107817604.2798615 -3049688.702712046 -3049688.702712046 -6625095.447595168 0 0 0 0 0 108198899.5885748 -2465454.08372252 -2465454.08372252 -6390786.864670896 0 0 0 0 0 108524212.5920789 -1881412.18421717 -1881412.18421717 -6101966.163274576 0 0 0 0 0 108794905.2737947 -1302027.084157622 -1302027.084157622 -5759533.424874782 0 0 0 0 0 108999068.9607396 -742850.6058944394 -742850.6058944394 -5373334.205082399 0 0 0 0 0 109194368.04177 -145044.8967434197 -145044.8967434197 -4891792.092862503 0 0 0 0 0 109265239.593192 338357.4457572731 338357.4457572731 -4460176.906588633 0 0 0 0 0 109196331.0370943 745728.3111758317 745728.3111758317 -4042933.353971903 0 0 0 0 0 108997213.3745477 1156088.217689898 1156088.217689898 -3515648.54778425 0 0 0 0 0 104189771.4715857 -6002800.134536911 -6002800.134536911 -7099741.246927039 0 0 0 0 0 103462910.3062094 -6556010.373065558 -6556010.373065558 -6623273.839994582 0 0 0 0 0 102807446.3196959 -6670099.293490231 -6670099.293490231 -6425699.483346642 0 0 0 0 0 104077700.5374658 -6156447.762224328 -6156447.762224328 -6623871.201338183 0 0 0 0 0 102503268.5849335 -6804687.476643174 -6804687.476643174 -6119566.0404079 0 0 0 0 0 108263598.8847658 2523274.201198304 2523274.201198304 14270641.53527369 0 0 0 0 0 108226858.9889403 3064746.811093022 3064746.811093022 13736753.96501856 0 0 0 0 0 108348641.975438 3595500.555906381 3595500.555906381 13064645.52800769 0 0 0 0 0 108053310.4766249 1494897.702070678 1494897.702070678 15297547.88041778 0 0 0 0 0 107927222.3054844 726559.6636832299 726559.6636832299 15177488.712111 0 0 0 0 0 108061007.1086218 2086637.957420452 2086637.957420452 14298243.15101947 0 0 0 0 0 107654624.1805013 179996.2691666677 179996.2691666677 15102992.792651 0 0 0 0 0 108355984.7413777 4032353.046903975 4032353.046903975 11692943.71126001 0 0 0 0 0 108257691.1240869 4039394.377525509 4039394.377525509 11712617.98661721 0 0 0 0 0 104864555.8702232 -5515798.716908939 -5515798.716908939 -7120956.426863722 0 0 0 0 0 105494766.593391 -4997968.946224801 -4997968.946224801 -7089366.705981843 0 0 0 0 0 106084992.9287616 -4455212.871056965 -4455212.871056965 -7001684.719435681 0 0 0 0 0 106630080.3136043 -3892480.769752945 -3892480.769752945 -6859046.776105346 0 0 0 0 0 107126932.0774838 -3314961.365529685 -3314961.365529685 -6661824.109354038 0 0 0 0 0 107572500.49627 -2728674.849002521 -2728674.849002521 -6411882.560576047 0 0 0 0 0 107962744.3409671 -2139736.997897145 -2139736.997897145 -6109081.130664881 0 0 0 0 0 108300839.2001452 -1555767.833568665 -1555767.833568665 -5751920.486313278 0 0 0 0 0 108590042.4513085 -983885.6244266873 -983885.6244266873 -5350196.214544891 0 0 0 0 0 108806040.1349547 -413155.6061709562 -413155.6061709562 -4853982.137083075 0 0 0 0 0 108882240.9047584 89769.77765482716 89769.77765482716 -4480172.83995364 0 0 0 0 0 109234943.1538252 611499.2176509151 611499.2176509151 -3869933.964745027 0 0 0 0 0 109278457.2854179 1082683.541141441 1082683.541141441 -3404811.832999771 0 0 0 0 0 104724845.1007493 -5749476.758214103 -5749476.758214103 -6741248.025361678 0 0 0 0 0 103248483.4994932 -6324074.367766431 -6324074.367766431 -6732836.401326234 0 0 0 0 0 102443166.4603141 -6758615.029744321 -6758615.029744321 -6571603.965987199 0 0 0 0 0 103854154.7796092 -5962224.911114295 -5962224.911114295 -6857953.525562061 0 0 0 0 0 108098695.2062732 2546220.77063007 2546220.77063007 14638328.38647918 0 0 0 0 0 108004631.9965228 3145259.795186166 3145259.795186166 13054318.46861368 0 0 0 0 0 108148188.7941814 3628518.270065841 3628518.270065841 12406235.31416586 0 0 0 0 0 107761361.1547536 1298625.160217424 1298625.160217424 14747361.7991867 0 0 0 0 0 107709131.5924552 805215.6911416973 805215.6911416973 15227865.91440695 0 0 0 0 0 107849296.226771 1970383.75410849 1970383.75410849 14893228.67045551 0 0 0 0 0 107454067.566902 317542.4487622936 317542.4487622936 14740962.10758992 0 0 0 0 0 108052319.3161744 3647508.37697234 3647508.37697234 12454888.64942322 0 0 0 0 0 105340517.8519959 -5288980.74264249 -5288980.74264249 -6793129.42891671 0 0 0 0 0 105917190.876328 -4796597.96341989 -4796597.96341989 -6796935.464086564 0 0 0 0 0 106450138.6321214 -4281752.044640119 -4281752.044640119 -6752186.686163658 0 0 0 0 0 106937025.9871947 -3747959.035874803 -3747959.035874803 -6655572.604611584 0 0 0 0 0 107374622.3564072 -3200367.508301414 -3200367.508301414 -6507246.280144338 0 0 0 0 0 107758492.9077602 -2645322.973316984 -2645322.973316984 -6308548.900221061 0 0 0 0 0 108077007.1616721 -2092167.272194753 -2092167.272194753 -6062779.926995096 0 0 0 0 0 108337833.4156204 -1550275.570736715 -1550275.570736715 -5783708.802131552 0 0 0 0 0 108530099.9798247 -1030341.356501258 -1030341.356501258 -5476033.754499317 0 0 0 0 0 108610936.4903145 -539462.9455321213 -539462.9455321213 -5112959.835471187 0 0 0 0 0 109091577.3547222 255429.7092932014 255429.7092932014 -4236478.410405478 0 0 0 0 0 108798962.5668654 351380.9481799181 351380.9481799181 -4358493.261427243 0 0 0 0 0 108757796.0054185 773104.3082608688 773104.3082608688 -3901873.630149427 0 0 0 0 0 104489907.2699179 -5517525.122985274 -5517525.122985274 -6893917.037170333 0 0 0 0 0 103710371.7983887 -6065717.180633317 -6065717.180633317 -6389404.628238759 0 0 0 0 0 103004361.4229791 -6350100.874536809 -6350100.874536809 -6090617.771533594 0 0 0 0 0 104356498.1495235 -5711429.610934534 -5711429.610934534 -6485680.967102085 0 0 0 0 0 107741438.5965617 2434050.376066013 2434050.376066013 13514637.81891231 0 0 0 0 0 107736025.6993597 2708587.552746437 2708587.552746437 13820200.18345524 0 0 0 0 0 107873532.1723848 3192671.272324516 3192671.272324516 13150974.07291961 0 0 0 0 0 107555254.907119 1404422.120967732 1404422.120967732 14185064.62027994 0 0 0 0 0 107458472.5576074 731819.0845000389 731819.0845000389 14409446.72956194 0 0 0 0 0 107502732.9255249 1833094.868930111 1833094.868930111 13849864.63128961 0 0 0 0 0 107319856.6997212 306213.8351565928 306213.8351565928 14834293.955719 0 0 0 0 0 105095898.9491044 -5032852.495246829 -5032852.495246829 -6882846.702483129 0 0 0 0 0 105668190.7680527 -4524093.064783216 -4524093.064783216 -6825036.023104115 0 0 0 0 0 106203278.729079 -3996682.14320456 -3996682.14320456 -6712446.023331196 0 0 0 0 0 106694516.6884523 -3453042.643703612 -3453042.643703612 -6548025.203801483 0 0 0 0 0 107139991.3180803 -2899476.943439996 -2899476.943439996 -6332290.156607073 0 0 0 0 0 107536855.0370797 -2343606.499538926 -2343606.499538926 -6066124.4231705 0 0 0 0 0 107865862.2077512 -1783838.464954352 -1783838.464954352 -5755844.69273998 0 0 0 0 0 108230184.5067487 -1246563.924869647 -1246563.924869647 -5366269.571968384 0 0 0 0 0 108496952.6614518 -706137.2134562088 -706137.2134562088 -4906382.075607503 0 0 0 0 0 108703272.9700063 -152971.7956034033 -152971.7956034033 -4476290.126950352 0 0 0 0 0 108588197.5062429 -51025.560130588 -51025.560130588 -4648088.403521718 0 0 0 0 0 108979442.6106625 681264.5609761388 681264.5609761388 -3756902.844364838 0 0 0 0 0 104947834.3045422 -5296676.767004261 -5296676.767004261 -6563959.499407621 0 0 0 0 0 103495108.8094089 -5900436.893323717 -5900436.893323717 -6611507.440214688 0 0 0 0 0 102860871.2856878 -6268604.470696387 -6268604.470696387 -6498415.975370113 0 0 0 0 0 104117743.6914421 -5503533.114249409 -5503533.114249409 -6682440.396025773 0 0 0 0 0 107585096.1738956 2168203.079583214 2168203.079583214 14253722.71412152 0 0 0 0 0 107386701.9019254 955688.627789729 955688.627789729 14807901.26224359 0 0 0 0 0 107454007.1384753 1549491.791265988 1549491.791265988 14539988.86173574 0 0 0 0 0 105514000.9136699 -4832900.096624114 -4832900.096624114 -6586918.056031457 0 0 0 0 0 106036836.794406 -4348177.307751173 -4348177.307751173 -6569539.867877754 0 0 0 0 0 106517722.1410304 -3847571.558726911 -3847571.558726911 -6498984.392912499 0 0 0 0 0 106955682.5929137 -3331013.647142141 -3331013.647142141 -6379404.686214409 0 0 0 0 0 107346652.3393612 -2805764.83109574 -2805764.83109574 -6212384.642358459 0 0 0 0 0 107693514.6226911 -2277604.362236917 -2277604.362236917 -5999731.763328727 0 0 0 0 0 107991042.1709484 -1730342.012031548 -1730342.012031548 -5719762.379365701 0 0 0 0 0 108144986.4518013 -1304440.298274784 -1304440.298274784 -5504872.399026718 0 0 0 0 0 108208929.710688 -886602.7449014942 -886602.7449014942 -5257487.492675276 0 0 0 0 0 108235115.0080626 -409864.9278174905 -409864.9278174905 -4895048.207538789 0 0 0 0 0 108726577.3829683 294620.3422813046 294620.3422813046 -4012397.6499605 0 0 0 0 0 108511647.8936046 408543.1888107905 408543.1888107905 -4194449.302822236 0 0 0 0 0 104721706.0590129 -5057703.837276842 -5057703.837276842 -6684360.268133977 0 0 0 0 0 104037453.3575168 -5592999.004114395 -5592999.004114395 -6211514.54906401 0 0 0 0 0 103418197.4957191 -5917790.601176525 -5917790.601176525 -6044998.898604252 0 0 0 0 0 104612049.8993336 -5247831.980057075 -5247831.980057075 -6322318.590343309 0 0 0 0 0 105286113.3211488 -4576153.470049107 -4576153.470049107 -6642040.285469333 0 0 0 0 0 105800793.2848586 -4081781.06101944 -4081781.06101944 -6559331.347548774 0 0 0 0 0 106283887.0058573 -3569840.931240697 -3569840.931240697 -6425552.648603877 0 0 0 0 0 106728031.8724743 -3046817.6297818 -3046817.6297818 -6243607.909668647 0 0 0 0 0 107125089.8680357 -2516150.359871197 -2516150.359871197 -6017567.260276821 0 0 0 0 0 107476447.370804 -1975273.046897272 -1975273.046897272 -5730528.370107983 0 0 0 0 0 107700422.9858286 -1520205.001831177 -1520205.001831177 -5464850.229717776 0 0 0 0 0 108156058.1268908 -1013495.366738529 -1013495.366738529 -5054262.55152127 0 0 0 0 0 108310259.5468355 -548980.7981939863 -548980.7981939863 -4687168.543869618 0 0 0 0 0 108447823.1403905 -68695.03905462619 -68695.03905462619 -4259635.714113486 0 0 0 0 0 108250012.4981732 37046.32245309231 37046.32245309231 -4433803.333797162 0 0 0 0 0 105147045.1976583 -4853936.919920132 -4853936.919920132 -6381077.738757463 0 0 0 0 0 103239975.3441285 -5803443.176065432 -5803443.176065432 -6431299.530844459 0 0 0 0 0 103821324.939754 -5452960.389190033 -5452960.389190033 -6519476.034104615 0 0 0 0 0 104366565.2950152 -5066709.948519344 -5066709.948519344 -6545007.31267181 0 0 0 0 0 105646355.6639702 -4406918.477055933 -4406918.477055933 -6385446.844797412 0 0 0 0 0 106119777.1721054 -3929817.689630758 -3929817.689630758 -6339502.235219359 0 0 0 0 0 106555690.9455801 -3441911.624050693 -3441911.624050693 -6245613.004787609 0 0 0 0 0 106946102.2932664 -2945801.736204305 -2945801.736204305 -6106921.081074071 0 0 0 0 0 107289738.1297382 -2441410.017053199 -2441410.017053199 -5922500.196354729 0 0 0 0 0 107563572.6657301 -1943897.494730057 -1943897.494730057 -5697388.55117416 0 0 0 0 0 107949473.7169107 -1317910.409206712 -1317910.409206712 -5211124.51948645 0 0 0 0 0 107797867.8432374 -1213151.018635677 -1213151.018635677 -5403428.134355221 0 0 0 0 0 107915560.1985644 -767124.310916294 -767124.310916294 -5065774.180493928 0 0 0 0 0 107955339.6563208 -335177.3427624157 -335177.3427624157 -4689860.385697637 0 0 0 0 0 104932275.4603945 -4629783.166763064 -4629783.166763064 -6478486.520186139 0 0 0 0 0 103804324.4588246 -5468692.812359395 -5468692.812359395 -5968447.475884639 0 0 0 0 0 104348191.7124889 -5142576.138150774 -5142576.138150774 -6089075.297722039 0 0 0 0 0 104849666.225845 -4811723.112331031 -4811723.112331031 -6172814.899018007 0 0 0 0 0 105438611.9781148 -4147950.818434398 -4147950.818434398 -6405867.252955722 0 0 0 0 0 105898658.8563261 -3667348.483172638 -3667348.483172638 -6295075.495588815 0 0 0 0 0 106338186.1347154 -3175708.079029587 -3175708.079029587 -6141259.042752329 0 0 0 0 0 106735656.2804869 -2674212.537492507 -2674212.537492507 -5941330.306934699 0 0 0 0 0 107087096.5872139 -2171516.022902097 -2171516.022902097 -5700940.265429834 0 0 0 0 0 107434779.2020647 -1600392.287995309 -1600392.287995309 -5369619.435308222 0 0 0 0 0 107544273.3857593 -1533302.395235203 -1533302.395235203 -5487768.308125995 0 0 0 0 0 107985663.7261348 -887026.1891942879 -887026.1891942879 -4862892.613390171 0 0 0 0 0 108098486.3291827 -452146.0187991787 -452146.0187991787 -4493515.698481416 0 0 0 0 0 105282194.628313 -4472084.458404731 -4472084.458404731 -6245553.594231368 0 0 0 0 0 103611368.912665 -5345363.728834425 -5345363.728834425 -6302306.522765252 0 0 0 0 0 104137813.4345028 -5009045.606343633 -5009045.606343633 -6376410.783451186 0 0 0 0 0 104590554.4917904 -4642276.977829508 -4642276.977829508 -6382127.044403628 0 0 0 0 0 105697292.7560924 -4034902.966175672 -4034902.966175672 -6242520.008667351 0 0 0 0 0 106177403.6061916 -3535968.343422274 -3535968.343422274 -6102675.943082784 0 0 0 0 0 106567963.7859293 -3068377.422818367 -3068377.422818367 -5993014.730545784 0 0 0 0 0 106921489.2902007 -2590711.478076011 -2590711.478076011 -5837031.092339429 0 0 0 0 0 107240854.3823984 -2108511.324521726 -2108511.324521726 -5643451.777436514 0 0 0 0 0 107458058.9634241 -1619505.059704133 -1619505.059704133 -5399975.101251245 0 0 0 0 0 107671039.0944002 -1204750.406497262 -1204750.406497262 -4952220.85498081 0 0 0 0 0 107616710.5322727 -1090387.78844159 -1090387.78844159 -5178462.602696178 0 0 0 0 0 107657356.8710899 -685595.5056173807 -685595.5056173807 -4874920.146963608 0 0 0 0 0 105141759.6124808 -4205981.513768963 -4205981.513768963 -6131073.118475147 0 0 0 0 0 104124377.1524586 -5039531.520016915 -5039531.520016915 -5876067.946523987 0 0 0 0 0 104637182.0247158 -4710102.29161734 -4710102.29161734 -5951531.688064982 0 0 0 0 0 105075571.1835236 -4372134.274155784 -4372134.274155784 -5964372.080812586 0 0 0 0 0 105520648.9744339 -3757811.483537326 -3757811.483537326 -6147242.348418264 0 0 0 0 0 105963617.9553409 -3281898.623907085 -3281898.623907085 -6035188.305825429 0 0 0 0 0 106360855.3418462 -2808693.07977791 -2808693.07977791 -5865447.763415608 0 0 0 0 0 106718286.1808863 -2321258.87365551 -2321258.87365551 -5644590.636385576 0 0 0 0 0 107018654.9421037 -1823811.47472923 -1823811.47472923 -5362755.706162289 0 0 0 0 0 107125029.5684414 -1442774.69883663 -1442774.69883663 -5298269.12500398 0 0 0 0 0 107785541.5310665 -806840.6507375989 -806840.6507375989 -4680648.549717004 0 0 0 0 0 104946983.9015463 -4272517.688308182 -4272517.688308182 -6234793.452124262 0 0 0 0 0 103931166.694321 -4916909.696503654 -4916909.696503654 -6170597.384089971 0 0 0 0 0 104430219.6754292 -4583146.341901541 -4583146.341901541 -6191534.986980093 0 0 0 0 0 105798063.0403698 -3609976.096416873 -3609976.096416873 -5917172.057210735 0 0 0 0 0 106194783.5811422 -3172294.819928152 -3172294.819928152 -5878353.632282425 0 0 0 0 0 106540823.9302424 -2724676.644433631 -2724676.644433631 -5749556.975421561 0 0 0 0 0 106837670.604475 -2274483.843406234 -2274483.843406234 -5593518.033776415 0 0 0 0 0 107075776.936431 -1821053.743636649 -1821053.743636649 -5387037.223200588 0 0 0 0 0 107478179.6348722 -1140162.432805695 -1140162.432805695 -4834238.875671936 0 0 0 0 0 107349009.110188 -1024163.907124752 -1024163.907124752 -5023675.212717231 0 0 0 0 0 105305131.999374 -3931194.189049013 -3931194.189049013 -5850766.587895234 0 0 0 0 0 104416091.8457935 -4622692.380998073 -4622692.380998073 -5760073.843633925 0 0 0 0 0 104880866.5392228 -4299002.338731331 -4299002.338731331 -5824999.104788981 0 0 0 0 0 105587977.0376427 -3376796.589116711 -3376796.589116711 -5926025.870869298 0 0 0 0 0 105172089.6419679 -3845858.276436994 -3845858.276436994 -6072495.346987985 0 0 0 0 0 105997285.3207986 -2929817.242998173 -2929817.242998173 -5780257.327912346 0 0 0 0 0 106375672.159225 -2468842.692681463 -2468842.692681463 -5577224.340368643 0 0 0 0 0 106687080.838069 -1992315.924892115 -1992315.924892115 -5313998.340732272 0 0 0 0 0 106943214.8026286 -1482517.237375628 -1482517.237375628 -4981169.598886106 0 0 0 0 0 107036256.0615897 -1344555.143255576 -1344555.143255576 -5127070.87567299 0 0 0 0 0 104645561.6346227 -4156228.991314521 -4156228.991314521 -6066960.702483264 0 0 0 0 0 104206446.0625749 -4490271.188690859 -4490271.188690859 -6034463.589938857 0 0 0 0 0 105844162.2795248 -3254949.046881553 -3254949.046881553 -5750410.760508 0 0 0 0 0 105520649.1187562 -3574365.557882444 -3574365.557882444 -5689806.735418155 0 0 0 0 0 106177762.3507332 -2840851.103144556 -2840851.103144556 -5654157.764331713 0 0 0 0 0 106431973.0308111 -2449908.949467942 -2449908.949467942 -5564523.907808519 0 0 0 0 0 106631101.7797777 -2036488.522677581 -2036488.522677581 -5401995.642541567 0 0 0 0 0 106727587.8554666 -1599566.57643077 -1599566.57643077 -5167134.637110399 0 0 0 0 0 105066475.5820689 -3864690.116907889 -3864690.116907889 -5649891.40195496 0 0 0 0 0 104661012.4712394 -4214599.373112758 -4214599.373112758 -5629433.006759251 0 0 0 0 0 105633827.3492503 -3036344.143480706 -3036344.143480706 -5686913.816107958 0 0 0 0 0 105294367.1765461 -3437386.0417301 -3437386.0417301 -5807642.59916671 0 0 0 0 0 104945458.7662136 -3775979.310191376 -3775979.310191376 -5897266.08263839 0 0 0 0 0 106032382.9458724 -2616636.590272154 -2616636.590272154 -5489322.836951388 0 0 0 0 0 106380791.7922802 -2180991.795645454 -2180991.795645454 -5262089.603482895 0 0 0 0 0 106660826.950217 -1725651.491449649 -1725651.491449649 -4991593.921606816 0 0 0 0 0 104421581.9320555 -4061192.764969399 -4061192.764969399 -5869697.740811658 0 0 0 0 0 105846984.3223684 -2927212.959729814 -2927212.959729814 -5546922.096784079 0 0 0 0 0 105534353.3683959 -3322115.985433597 -3322115.985433597 -5665121.11949955 0 0 0 0 0 105178314.543642 -3467288.883990514 -3467288.883990514 -5566013.582233231 0 0 0 0 0 106106369.4388635 -2590344.248529994 -2590344.248529994 -5477338.76471596 0 0 0 0 0 106273527.3034459 -2246145.95395398 -2246145.95395398 -5388864.795665279 0 0 0 0 0 106405695.3625085 -1858537.837316586 -1858537.837316586 -5211319.033917511 0 0 0 0 0 104844039.3366547 -3819776.161427388 -3819776.161427388 -5491969.287738396 0 0 0 0 0 105391263.2926413 -3107733.940549823 -3107733.940549823 -5553563.481168224 0 0 0 0 0 105655941.9196517 -2753397.630733023 -2753397.630733023 -5454002.456081026 0 0 0 0 0 105033965.9494878 -3502928.259916212 -3502928.259916212 -5618961.795037562 0 0 0 0 0 106068665.685408 -2379249.429143128 -2379249.429143128 -5232492.839971319 0 0 0 0 0 106333266.0702491 -1970325.081472188 -1970325.081472188 -5021953.207812883 0 0 0 0 0 104646052.9960933 -3648652.274056608 -3648652.274056608 -5580624.129702531 0 0 0 0 0 105510417.8671152 -3038677.498243082 -3038677.498243082 -5414380.208993599 0 0 0 0 0 105909367.5599122 -2572899.654643305 -2572899.654643305 -5186200.765796551 0 0 0 0 0 105176714.706208 -3216911.574064941 -3216911.574064941 -5341042.11827595 0 0 0 0 0 105876190.9550131 -2481168.312461538 -2481168.312461538 -5414620.080122584 0 0 0 0 0 106076013.6401176 -2106499.012703724 -2106499.012703724 -5250626.182312584 0 0 0 0 0 104965512.4915022 -3486486.838601802 -3486486.838601802 -5350712.128023343 0 0 0 0 0 105510152.251566 -2786649.205778433 -2786649.205778433 -5252432.521063112 0 0 0 0 0 105278724.0246823 -3175301.126912557 -3175301.126912557 -5497754.868580197 0 0 0 0 0 105524824.8988286 -2739280.417660613 -2739280.417660613 -5405434.314270301 0 0 0 0 0 104760083.3015572 -3372068.966037659 -3372068.966037659 -5538063.302516686 0 0 0 0 0 106019586.9521113 -2210187.491362191 -2210187.491362191 -5037199.329173997 0 0 0 0 0 105273270.284184 -2921778.432569202 -2921778.432569202 -5326086.339980843 0 0 0 0 0 105725597.0989508 -2453747.719322704 -2453747.719322704 -5025157.485639021 0 0 0 0 0 105109368.526113 -3126486.987153774 -3126486.987153774 -5183431.37590342 0 0 0 0 0 105751642.8807901 -2343020.646620623 -2343020.646620623 -5249829.686580675 0 0 0 0 0 105357095.5729841 -2874967.450577706 -2874967.450577706 -5235905.857128757 0 0 0 0 0 105433484.9044876 -2576951.265529379 -2576951.265529379 -5213663.937906245 0 0 0 0 0 104911317.3336907 -3021583.009942189 -3021583.009942189 -5305849.952544296 0 0 0 0 0 105266316.7517911 -2662029.281832284 -2662029.281832284 -5059245.024841917 0 0 0 0 0 105176504.3489294 -2807613.907580093 -2807613.907580093 -5022616.290853863 0 0 0 0 0 105114027.7600603 -2749981.608399141 -2749981.608399141 -5174202.527514031 0 0 0 0 0 </DataArray>
      </CellData>
      <PointData>
        <DataArray type="Int64" IdType="1" Name="vtkOriginalPointIds" format="ascii" RangeMin="0" RangeMax="1811">154 0 1771 5 214 1214 153 6 1102 1213 209 7 152 1731 1211 8 185 1098 975 1212 181 151 1757 9 1591 1766 766 749 1050 1263 1714 150 1166 10 1768 1065 673 1173 672 1421 1783 1047 11 149 1071 999 1088 171 165 1806 757 571 1415 1191 668 681 1027 12 148 1131 659 1722 1320 13 1101 1700 756 565 514 1414 570 669 682 1077 1389 203 147 1129 625 1761 14 188 1797 984 1130 513 1538 464 480 504 1018 1310 914 1070 1394 1704 15 146 983 1464 160 16 1112 1128 755 1484 418 1323 1565 441 481 509 1577 913 689 1371 1082 1730 145 1079 692 1161 1794 17 155 219 1526 560 763 414 413 454 776 1500 1003 1160 1163 676 675 951 1066 204 1275 144 221 629 1388 18 217 218 220 223 225 916 394 1522 412 703 1007 1198 1193 773 1278 615 670 952 1274 1441 1133 143 222 1509 1672 19 1799 189 1109 500 1668 224 226 1669 391 393 634 1448 1524 1561 636 696 765 614 546 1427 1276 1039 1737 1068 1038 20 21 168 142 1458 229 988 1456 22 1111 1699 1132 1695 992 227 228 1417 390 389 423 635 1301 786 1332 695 764 769 543 544 582 1418 702 1248 974 1791 207 23 25 26 1696 176 24 1472 141 1457 230 1134 1726 1759 1764 27 28 190 166 1069 904 1692 940 941 1471 231 233 388 1331 387 1468 705 392 521 540 1277 1533 1292 542 545 583 600 683 1393 1067 1150 1245 1254 1749 29 30 216 140 1798 1010 232 1293 1042 1255 1253 1244 1777 1 1118 1756 1242 881 859 857 858 1009 1550 1557 234 385 1322 1251 386 1250 1252 520 539 541 986 611 534 1465 586 587 601 684 743 1149 1697 1205 704 1702 31 139 1505 235 237 744 778 680 1202 1201 1116 985 962 882 860 841 840 1513 1442 994 1425 236 384 383 1365 889 1487 890 1335 1469 709 900 700 610 243 1537 708 1470 685 686 1151 1204 1773 630 211 32 138 853 1568 238 1493 777 574 1203 1200 186 1043 963 884 883 1529 822 821 1367 839 879 987 239 376 1373 382 469 487 1566 1190 993 1022 1016 1017 701 1651 1508 1604 1608 929 771 1625 631 573 1701 1199 33 137 1753 851 1156 240 1159 1222 486 1732 1075 1103 1139 1044 1045 1519 1154 1155 1532 815 816 820 838 901 1138 241 375 365 642 445 470 488 1579 1189 1031 1221 1586 1273 1653 1424 537 1272 1631 1021 459 1688 572 1074 34 184 136 1478 475 242 1620 458 484 1788 1073 215 1104 1140 1246 1763 824 1188 1562 811 812 817 825 850 1543 1157 244 364 1370 324 1368 1511 612 613 1572 1656 1652 345 1303 1271 953 1423 1639 378 1614 442 1479 1684 1054 35 1284 135 1141 856 1192 245 401 457 485 1072 1770 1781 1685 1136 837 823 818 813 808 809 1536 1489 852 854 1544 1636 246 321 1299 1558 323 329 711 706 707 334 894 896 344 354 366 927 1144 1385 377 440 1053 1346 1052 36 4 1262 1747 1488 1547 247 399 1680 1682 1712 1746 134 210 1808 1095 835 819 1336 814 807 805 1329 1582 923 855 880 1183 1184 248 320 319 1279 1280 325 332 1580 892 893 340 895 897 350 362 374 1143 536 250 1679 1041 1040 174 1051 37 133 1135 1142 262 249 400 1220 1325 1800 132 1175 1094 877 836 848 1525 1396 804 803 1300 1594 1451 885 995 368 266 256 318 1507 317 781 1587 548 1665 1261 1152 1482 361 1146 1549 1670 1673 1145 252 251 1219 967 736 38 1283 1265 182 1182 263 1503 1675 768 734 131 878 1096 870 869 849 1606 1209 802 801 826 1602 1187 1186 1623 270 267 538 316 907 1662 315 1288 518 1185 1667 1260 395 1289 1270 517 1576 1033 254 253 915 1218 966 735 39 194 130 1809 280 1616 1601 958 733 1097 627 1474 1137 1769 887 1611 1206 1207 810 800 799 1362 1599 1605 289 282 271 1624 1309 314 1447 1257 1177 304 302 300 1005 961 298 296 294 770 292 257 255 1516 1411 1330 973 1514 40 1282 129 281 1298 1006 661 597 1706 626 1196 1728 172 128 1194 998 1000 1208 1210 798 797 1285 886 1290 287 283 369 1637 780 313 331 1258 1256 1176 303 301 299 1004 662 297 295 293 261 258 259 647 1341 595 1556 910 41 164 1540 1297 779 594 596 1736 909 1195 1197 1691 127 866 865 1461 1486 1439 796 794 792 790 306 288 1521 1548 1644 652 322 1658 1181 1343 699 1180 1646 1643 398 1467 1634 1632 535 1498 260 264 1490 1008 551 1046 911 42 1296 1012 653 633 550 1515 1776 1552 1443 1328 206 126 864 862 861 1312 806 795 793 791 789 307 308 1302 955 1647 621 1648 1178 1002 926 698 585 1243 1268 1267 1638 1026 1311 1628 908 265 268 1387 1386 533 1087 1686 43 195 714 1337 499 531 580 1014 876 1058 1792 125 863 834 831 828 827 1485 912 1535 1438 309 310 476 945 1650 620 1030 1338 1174 1001 784 584 530 772 1266 946 947 996 1259 1483 269 272 402 404 532 1355 1356 1744 44 1395 555 950 439 529 1013 1551 888 1056 1750 124 1426 832 830 829 868 1570 1363 516 326 311 312 552 1422 1654 891 715 716 718 1179 1520 1333 528 720 722 724 948 1148 645 274 273 284 403 405 1499 45 1357 1358 161 618 957 1455 527 1531 1774 1495 1057 1113 123 842 833 1466 905 1019 1585 1264 333 330 1569 1542 619 739 1655 1546 589 588 717 719 1249 524 525 721 723 1459 1153 1364 276 275 1491 1492 424 425 568 46 158 741 1359 1718 738 1409 1342 526 632 1786 1234 1501 1224 122 843 844 1527 1020 1589 353 341 339 1564 1172 990 989 1657 1307 640 515 1384 489 1510 787 490 523 1428 1318 1462 446 278 277 644 1563 918 426 427 569 47 1360 740 205 991 1306 431 1477 666 976 1076 875 846 121 845 867 1613 1232 1233 352 346 347 1596 1171 1170 1164 1660 463 433 461 1287 1011 462 1321 1314 522 1315 1317 1440 285 279 1497 1588 1291 1480 428 429 920 48 964 1361 1775 1165 435 432 1541 1574 1733 959 871 847 1081 120 1619 1229 1228 1231 363 357 1663 1286 960 1223 650 649 1659 437 434 451 422 420 419 1450 1313 519 1316 1319 290 286 305 1600 933 732 549 430 1463 1567 49 1727 180 1738 1241 436 1593 1437 924 1375 1326 1689 872 873 119 1618 1227 411 379 367 1664 1032 783 782 1366 556 507 448 447 438 450 467 421 397 371 360 351 348 327 291 1539 1607 934 928 731 726 785 1168 725 50 925 1374 169 466 1640 1635 566 742 1767 968 1710 874 1626 118 1230 1226 410 380 381 1666 956 660 590 557 508 506 465 547 1345 1506 468 1419 396 370 359 349 335 328 1410 1340 1603 1609 1612 1621 942 1167 944 674 51 1810 1376 1377 1240 505 1642 1344 567 752 969 1083 970 1641 117 512 443 417 1671 1216 1215 1327 591 559 558 1453 602 1512 1645 949 1598 648 1597 1590 616 1554 1502 336 337 1339 1334 637 932 1392 1633 1169 654 655 1380 52 1378 156 208 603 1372 657 651 1379 971 1238 1147 1622 116 477 444 1674 1217 767 727 593 592 1504 1553 898 697 943 1649 694 1029 1610 1025 1444 1573 1434 1435 338 342 471 473 491 1391 617 1627 606 607 656 1693 53 1683 1381 1239 1785 737 751 693 1617 1719 1237 1236 577 553 115 478 479 1676 1324 728 623 622 624 1023 1575 972 1715 1630 954 750 712 1369 906 1305 1308 713 355 343 358 472 474 492 496 498 503 605 1481 902 938 54 197 1398 177 1742 1784 939 1724 935 1739 1086 1235 576 554 114 1678 1162 1034 730 729 1517 748 758 1024 1790 1350 1352 1354 1629 1105 638 639 1304 788 1433 372 356 1460 641 1475 493 494 497 502 604 687 1518 1725 936 55 1397 1780 1085 1705 1349 1106 1107 667 997 762 658 578 581 113 1681 1035 754 753 965 1741 1080 1496 1729 159 1351 1353 179 1740 1793 157 609 562 483 455 406 373 1429 1534 1560 917 495 1452 564 1476 688 977 1117 1796 937 56 1399 1811 1048 1530 1348 89 1158 1584 1760 759 663 1555 1687 112 1037 1036 1523 1055 1295 1807 1347 94 93 92 91 90 88 87 608 561 482 449 407 408 903 1413 1581 1015 1247 1592 1595 1028 980 1084 196 1716 1403 57 163 1782 1225 191 1754 192 95 86 1431 760 761 1063 1690 111 1093 1108 1765 1281 167 1294 96 1571 563 1545 1449 409 415 1412 710 1578 1583 930 931 1615 1110 1803 1734 85 1126 1402 58 1743 1061 1709 97 1401 1125 1752 1060 1062 1064 1755 110 1805 193 99 98 1420 1559 1383 1430 416 452 598 646 665 746 922 1049 1721 162 84 1804 1124 59 200 1092 1078 1711 1707 100 83 1123 1789 1269 1703 175 109 101 1390 919 1382 456 453 501 599 664 745 921 1446 1772 1400 82 1127 1122 60 212 187 1779 102 775 104 103 1723 3 678 643 510 460 1445 1494 671 1454 1059 1119 198 81 173 61 1120 105 107 108 106 1720 774 677 628 511 575 1416 1528 1677 1801 1735 170 80 1713 62 1121 79 1748 899 1436 579 679 979 1090 1405 1404 78 63 1717 1408 1762 1787 1473 691 690 978 1089 1115 199 77 64 183 1407 981 747 1432 1114 178 76 1661 65 1406 75 982 1758 1091 1745 1694 74 202 66 1099 1100 1802 201 73 67 1751 1795 1698 1708 72 68 213 71 69 1778 70 2 </DataArray>
        <DataArray type="UInt8" Name="vtkGhostType" format="ascii" RangeMin="0" RangeMax="0">0 0 0 0 0 0 0 0 0 0 0 0 0 0 0 0 0 0 0 0 0 0 0 0 0 0 0 0 0 0 0 0 0 0 0 0 0 0 0 0 0 0 0 0 0 0 0 0 0 0 0 0 0 0 0 0 0 0 0 0 0 0 0 0 0 0 0 0 0 0 0 0 0 0 0 0 0 0 0 0 0 0 0 0 0 0 0 0 0 0 0 0 0 0 0 0 0 0 0 0 0 0 0 0 0 0 0 0 0 0 0 0 0 0 0 0 0 0 0 0 0 0 0 0 0 0 0 0 0 0 0 0 0 0 0 0 0 0 0 0 0 0 0 0 0 0 0 0 0 0 0 0 0 0 0 0 0 0 0 0 0 0 0 0 0 0 0 0 0 0 0 0 0 0 0 0 0 0 0 0 0 0 0 0 0 0 0 0 0 0 0 0 0 0 0 0 0 0 0 0 0 0 0 0 0 0 0 0 0 0 0 0 0 0 0 0 0 0 0 0 0 0 0 0 0 0 0 0 0 0 0 0 0 0 0 0 0 0 0 0 0 0 0 0 0 0 0 0 0 0 0 0 0 0 0 0 0 0 0 0 0 0 0 0 0 0 0 0 0 0 0 0 0 0 0 0 0 0 0 0 0 0 0 0 0 0 0 0 0 0 0 0 0 0 0 0 0 0 0 0 0 0 0 0 0 0 0 0 0 0 0 0 0 0 0 0 0 0 0 0 0 0 0 0 0 0 0 0 0 0 0 0 0 0 0 0 0 0 0 0 0 0 0 0 0 0 0 0 0 0 0 0 0 0 0 0 0 0 0 0 0 0 0 0 0 0 0 0 0 0 0 0 0 0 0 0 0 0 0 0 0 0 0 0 0 0 0 0 0 0 0 0 0 0 0 0 0 0 0 0 0 0 0 0 0 0 0 0 0 0 0 0 0 0 0 0 0 0 0 0 0 0 0 0 0 0 0 0 0 0 0 0 0 0 0 0 0 0 0 0 0 0 0 0 0 0 0 0 0 0 0 0 0 0 0 0 0 0 0 0 0 0 0 0 0 0 0 0 0 0 0 0 0 0 0 0 0 0 0 0 0 0 0 0 0 0 0 0 0 0 0 0 0 0 0 0 0 0 0 0 0 0 0 0 0 0 0 0 0 0 0 0 0 0 0 0 0 0 0 0 0 0 0 0 0 0 0 0 0 0 0 0 0 0 0 0 0 0 0 0 0 0 0 0 0 0 0 0 0 0 0 0 0 0 0 0 0 0 0 0 0 0 0 0 0 0 0 0 0 0 0 0 0 0 0 0 0 0 0 0 0 0 0 0 0 0 0 0 0 0 0 0 0 0 0 0 0 0 0 0 0 0 0 0 0 0 0 0 0 0 0 0 0 0 0 0 0 0 0 0 0 0 0 0 0 0 0 0 0 0 0 0 0 0 0 0 0 0 0 0 0 0 0 0 0 0 0 0 0 0 0 0 0 0 0 0 0 0 0 0 0 0 0 0 0 0 0 0 0 0 0 0 0 0 0 0 0 0 0 0 0 0 0 0 0 0 0 0 0 0 0 0 0 0 0 0 0 0 0 0 0 0 0 0 0 0 0 0 0 0 0 0 0 0 0 0 0 0 0 0 0 0 0 0 0 0 0 0 0 0 0 0 0 0 0 0 0 0 0 0 0 0 0 0 0 0 0 0 0 0 0 0 0 0 0 0 0 0 0 0 0 0 0 0 0 0 0 0 0 0 0 0 0 0 0 0 0 0 0 0 0 0 0 0 0 0 0 0 0 0 0 0 0 0 0 0 0 0 0 0 0 0 0 0 0 0 0 0 0 0 0 0 0 0 0 0 0 0 0 0 0 0 0 0 0 0 0 0 0 0 0 0 0 0 0 0 0 0 0 0 0 0 0 0 0 0 0 0 0 0 0 0 0 0 0 0 0 0 0 0 0 0 0 0 0 0 0 0 0 0 0 0 0 0 0 0 0 0 0 0 0 0 0 0 0 0 0 0 0 0 0 0 0 0 0 0 0 0 0 0 0 0 0 0 0 0 0 0 0 0 0 0 0 0 0 0 0 0 0 0 0 0 0 0 0 0 0 0 0 0 0 0 0 0 0 0 0 0 0 0 0 0 0 0 0 0 0 0 0 0 0 0 0 0 0 0 0 0 0 0 0 0 0 0 0 0 0 0 0 0 0 0 0 0 0 0 0 0 0 0 0 0 0 0 0 0 0 0 0 0 0 0 0 0 0 0 0 0 0 0 0 0 0 0 0 0 0 0 0 0 0 0 0 0 0 0 0 0 0 0 0 0 0 0 0 0 0 0 0 0 0 0 0 0 0 0 0 0 0 0 0 0 0 0 0 0 0 0 0 0 0 0 0 0 0 0 0 0 0 0 0 0 0 0 0 0 0 0 0 0 0 0 0 0 0 0 0 0 0 0 0 0 0 0 0 0 0 0 0 0 0 0 0 0 0 0 0 0 0 0 0 0 0 0 0 0 0 0 0 0 0 0 0 0 0 0 0 0 0 0 0 0 0 0 0 0 0 0 0 0 0 0 0 0 0 0 0 0 0 0 0 0 0 0 0 0 0 0 0 0 0 0 0 0 0 0 0 0 0 0 0 0 0 0 0 0 0 0 0 0 0 0 0 0 0 0 0 0 0 0 0 0 0 0 0 0 0 0 0 0 0 0 0 0 0 0 0 0 0 0 0 0 0 0 0 0 0 0 0 0 0 0 0 0 0 0 0 0 0 0 0 0 0 0 0 0 0 0 0 0 0 0 0 0 0 0 0 0 0 0 0 0 0 0 0 0 0 0 0 0 0 0 0 0 0 0 0 0 0 0 0 0 0 0 0 0 0 0 0 0 0 0 0 0 0 0 0 0 0 0 0 0 0 0 0 0 0 0 0 0 0 0 0 0 0 0 0 0 0 0 0 0 0 0 0 0 0 0 0 0 0 0 0 0 0 0 0 0 0 0 0 0 0 0 0 0 0 0 0 0 0 0 0 0 0 0 0 0 0 0 0 0 0 0 0 0 0 0 0 0 0 0 0 0 0 0 0 0 0 0 0 0 0 0 0 0 0 0 0 0 0 0 0 0 0 0 0 0 0 0 0 0 0 0 0 0 0 0 0 0 0 0 0 0 0 0 0 0 0 0 0 0 0 0 0 0 0 0 0 0 0 0 0 0 0 0 0 0 0 0 0 0 0 0 0 0 0 0 0 0 0 0 0 0 0 0 0 0 0 0 0 0 0 0 0 0 0 0 0 0 0 0 0 0 0 0 0 0 0 0 0 0 0 0 0 0 0 0 0 0 0 0 0 0 0 0 0 0 0 0 0 0 0 0 0 0 0 0 0 0 0 0 0 0 0 0 0 0 0 0 0 0 0 0 0 0 0 0 0 0 0 0 0 0 0 0 0 0 0 0 0 0 0 0 0 0 0 0 0 0 0 0 0 0 0 0 0 0 0 0 0 0 0 0 0 0 0 0 0 0 0 0 0 0 0 0 0 0 0 0 0 0 0 0 0 0 0 0 0 0 0 0 0 0 0 0 0 0 0 0 0 0 0 0 0 0 0 0 0 0 0 0 0 0 0 0 0 0 0 0 0 0 0 0 0 0 0 0 0 0 0 0 0 0 0 0 0 0 0 0 0 0 0 0 0 0 0 0 0 0 0 0 0 0 0 0 0 0 0 0 0 0 0 0 0 0 0 0 0 0 0 0 0 0 0 0 0 0 0 0 0 0 0 0 0 0 0 0 0 0 0 0 0 0 0 0 0 0 0 0 0 0 0 0 0 0 0 0 0 0 0 0 0 0 0 0 0 0 0 0 0 0 0 0 0 0 0 0 0 0 0 0 0 0 0 0 0 0 0 0 0 0 0 0 0 0 0 0 0 0 0 0 0 0 0 0 0 0 0 0 0 0 0 0 0 0 0 0 0 0 0 0 0 0 0 0 0 0 0 0 0 0 0 0 0 0 0 0 0 0 0 0 0 0 0 0 0 0 0 0 0 0 0 0 0 0 0 0 0 0 0 0 0 0 0 0 0 0 0 0 0 0 0 0 0 0 0 0 0 0 0 0 </DataArray>
      </PointData>
    </Piece>
  </UnstructuredGrid>
</VTKFile>
