<?xml version="1.0"?>
<VTKFile type="UnstructuredGrid" version="2.2">
  <UnstructuredGrid>
    <Piece NumberOfPoints="750" NumberOfCells="250">
      <Points>
        <DataArray type="Float64" NumberOfComponents="3" format="ascii">0.100000000000416 1 0 1.53358386690793e-17 1 0 0.07242270094929616 0.9287161546587119 0 1.560150154043339e-18 1 0 -1.560150154043339e-18 0.9042857142860057 0 0.07242270094929616 0.9287161546587119 0 0.1504496488130419 0.920529655141374 0 0.100000000000416 1 0 0.07242270094929615 0.9287161546587119 0 -1.859393613009556e-18 0.9042857142860055 0 0.08949214017363682 0.8499193320733646 0 0.07242270094929616 0.9287161546587119 0 0.2000000000008322 1 0 0.100000000000416 1 0 0.1504496488130419 0.9205296551413739 0 0.08949214017363682 0.8499193320733645 0 0.1504496488130419 0.9205296551413741 0 0.07242270094929615 0.9287161546587119 0 1.927864805474705e-18 0.9042857142860055 0 -1.927864805474705e-18 0.808571428572008 0 0.08949214017363682 0.8499193320733643 0 0.2000000000008322 1 0 0.1504496488130419 0.9205296551413742 0 0.2499721953898767 0.9185928771667901 0 0.1985034546005834 0.8442209309135895 0 0.1504496488130419 0.9205296551413741 0 0.08949214017363681 0.8499193320733643 0 -1.12206869474232e-18 0.8085714285720079 0 0.07981914983849681 0.7551853746224031 0 0.08949214017363682 0.8499193320733643 0 0.3000000000012483 1 0 0.2000000000008323 1 0 0.2499721953898767 0.9185928771667901 0 0.2499721953898767 0.9185928771667902 0 0.150449648813042 0.9205296551413741 0 0.1985034546005834 0.8442209309135894 0 0.1985034546005834 0.8442209309135895 0 0.08949214017363685 0.8499193320733646 0 0.164717243748273 0.7772037251075431 0 1.719486532314277e-18 0.8085714285720079 0 -1.719486532314277e-18 0.7128571428580416 0 0.07981914983849681 0.7551853746224029 0 0.08949214017363682 0.8499193320733645 0 0.07981914983849682 0.7551853746224031 0 0.164717243748273 0.7772037251075431 0 0.3498228780407905 0.9196059642995654 0 0.3000000000012484 1 0 0.2499721953898767 0.9185928771667901 0 0.2499721953898767 0.9185928771667902 0 0.1985034546005835 0.8442209309135896 0 0.2982782210013579 0.8494663949300398 0 0.1985034546005834 0.8442209309135895 0 0.164717243748273 0.7772037251075433 0 0.2569918718770645 0.788881251118369 0 0.07981914983849681 0.755185374622403 0 1.177835094642805e-17 0.7128571428580416 0 0.07928054190150086 0.663993488086444 0 0.07981914983849681 0.755185374622403 0 0.1576018681843648 0.6958879033296576 0 0.164717243748273 0.7772037251075431 0 0.4000000000016644 1 0 0.3000000000012484 1 0 0.3498228780407904 0.9196059642995653 0 0.3498228780407905 0.9196059642995654 0 0.2499721953898768 0.9185928771667903 0 0.2982782210013579 0.8494663949300398 0 0.2982782210013579 0.8494663949300399 0 0.1985034546005835 0.8442209309135896 0 0.2569918718770645 0.788881251118369 0 0.164717243748273 0.7772037251075432 0 0.2419461962806138 0.7223495853150375 0 0.2569918718770645 0.788881251118369 0 1.707883688939773e-18 0.7128571428580415 0 -1.707883688939773e-18 0.6171428571437531 0 0.07928054190150086 0.663993488086444 0 0.07981914983849681 0.755185374622403 0 0.07928054190150087 0.6639934880864442 0 0.1576018681843648 0.6958879033296573 0 0.1576018681843648 0.6958879033296574 0 0.2419461962806138 0.7223495853150375 0 0.164717243748273 0.7772037251075431 0 0.4000000000016644 1 0 0.3498228780407905 0.9196059642995656 0 0.4518775995166425 0.9201756489681183 0 0.3498228780407905 0.9196059642995654 0 0.298278221001358 0.8494663949300401 0 0.3974942312305073 0.8548415168052999 0 0.3344732598930564 0.7636851316684055 0 0.298278221001358 0.8494663949300401 0 0.2569918718770645 0.788881251118369 0 0.2419461962806138 0.7223495853150373 0 0.3344732598930564 0.7636851316684056 0 0.2569918718770645 0.788881251118369 0 -1.32903989252574e-18 0.6171428571437529 0 0.07947867006930193 0.5692879274260042 0 0.07928054190150086 0.663993488086444 0 0.1576018681843648 0.6958879033296574 0 0.07928054190150088 0.6639934880864442 0 0.1512795608421133 0.6093594627621803 0 0.1576018681843648 0.6958879033296574 0 0.2341354436611462 0.6391200623658057 0 0.2419461962806138 0.7223495853150372 0 0.5000000000020587 1 0 0.4000000000016645 1 0 0.4518775995166425 0.9201756489681183 0 0.4518775995166425 0.9201756489681184 0 0.3498228780407905 0.9196059642995655 0 0.3974942312305073 0.8548415168052999 0 0.2982782210013579 0.8494663949300399 0 0.3344732598930564 0.7636851316684056 0 0.3974942312305073 0.8548415168052999 0 0.3187788313469124 0.6664952827700944 0 0.3344732598930564 0.7636851316684056 0 0.2419461962806138 0.7223495853150372 0 1.712151821548243e-18 0.6171428571437529 0 -1.712151821548243e-18 0.5214285714291635 0 0.07947867006930193 0.569287927426004 0 0.07928054190150086 0.6639934880864441 0 0.07947867006930194 0.5692879274260042 0 0.1512795608421133 0.6093594627621803 0 0.2341354436611462 0.6391200623658055 0 0.1576018681843648 0.6958879033296576 0 0.1512795608421133 0.6093594627621803 0 0.2341354436611462 0.6391200623658055 0 0.3187788313469124 0.6664952827700945 0 0.2419461962806138 0.7223495853150372 0 0.5501260307163521 0.9157080124063748 0 0.5000000000020588 1 0 0.4518775995166425 0.9201756489681183 0 0.4982783550828405 0.828329070997229 0 0.4518775995166426 0.9201756489681185 0 0.3974942312305073 0.8548415168052999 0 0.3344732598930564 0.7636851316684055 0 0.4270018182566808 0.7748455101960322 0 0.3974942312305073 0.8548415168052999 0 0.403454463212996 0.6976365325937561 0 0.3344732598930564 0.7636851316684056 0 0.3187788313469123 0.6664952827700943 0 0.07947867006930193 0.5692879274260041 0 1.18045012659371e-17 0.5214285714291635 0 0.07539619259043898 0.4768398233241384 0 0.1512795608421133 0.6093594627621804 0 0.07947867006930195 0.5692879274260042 0 0.1430235002238064 0.5157881957001367 0 0.2175071670863923 0.5477913784148303 0 0.2341354436611462 0.6391200623658057 0 0.1512795608421133 0.6093594627621803 0 0.2341354436611462 0.6391200623658055 0 0.3009805024402902 0.5741244053762115 0 0.3187788313469123 0.6664952827700943 0 0.6000000000013869 1 0 0.5000000000020588 1 0 0.550126030716352 0.9157080124063747 0 0.5501260307163521 0.9157080124063748 0 0.4518775995166426 0.9201756489681185 0 0.4982783550828405 0.8283290709972289 0 0.4270018182566807 0.7748455101960321 0 0.4982783550828406 0.8283290709972291 0 0.3974942312305073 0.8548415168052999 0 0.403454463212996 0.6976365325937561 0 0.4270018182566808 0.7748455101960322 0 0.3344732598930563 0.7636851316684053 0 0.3874961043643119 0.6045058592691973 0 0.4034544632129961 0.6976365325937562 0 0.3187788313469123 0.6664952827700943 0 1.624205945682806e-18 0.5214285714291634 0 -1.624205945682806e-18 0.4257142857145928 0 0.07539619259043898 0.4768398233241384 0 0.07947867006930193 0.5692879274260041 0 0.07539619259043899 0.4768398233241386 0 0.1430235002238064 0.5157881957001367 0 0.2175071670863923 0.5477913784148303 0 0.1512795608421133 0.6093594627621806 0 0.1430235002238064 0.5157881957001367 0 0.2175071670863923 0.5477913784148303 0 0.3009805024402902 0.5741244053762115 0 0.2341354436611462 0.6391200623658054 0 0.3009805024402901 0.5741244053762113 0 0.387496104364312 0.6045058592691974 0 0.3187788313469123 0.6664952827700943 0 0.6000000000013869 1 0 0.5501260307163522 0.915708012406375 0 0.6547996067038542 0.9007657124885794 0 0.5501260307163521 0.9157080124063748 0 0.4982783550828406 0.8283290709972291 0 0.5904037090422988 0.8429143001779456 0 0.4270018182566807 0.7748455101960321 0 0.4913158036475584 0.7286208350277671 0 0.4982783550828405 0.8283290709972289 0 0.403454463212996 0.6976365325937561 0 0.4913158036475584 0.7286208350277671 0 0.4270018182566807 0.774845510196032 0 0.4745187976455848 0.6356120107071158 0 0.4034544632129961 0.6976365325937562 0 0.3874961043643119 0.6045058592691972 0 0.07539619259043898 0.4768398233241385 0 1.101170654329729e-17 0.4257142857145927 0 0.08017840601838515 0.3963300372633092 0 0.1430235002238064 0.5157881957001368 0 0.075396192590439 0.4768398233241386 0 0.1336105785134736 0.43617026892093 0 0.2005261161267241 0.4579553458730796 0 0.2175071670863923 0.5477913784148304 0 0.1430235002238064 0.5157881957001367 0 0.2845914509771853 0.4848763822095441 0 0.3009805024402902 0.5741244053762115 0 0.2175071670863923 0.5477913784148302 0 0.3009805024402901 0.5741244053762113 0 0.3706525466147029 0.5134749220451615 0 0.3874961043643119 0.6045058592691972 0 0.7000000000006934 1 0 0.600000000001387 1 0 0.6547996067038542 0.9007657124885794 0 0.6547996067038543 0.9007657124885795 0 0.5501260307163522 0.9157080124063749 0 0.5904037090422988 0.8429143001779456 0 0.4982783550828405 0.828329070997229 0 0.5766230053158812 0.75658719427689 0 0.5904037090422988 0.8429143001779456 0 0.4982783550828405 0.828329070997229 0 0.4913158036475585 0.7286208350277671 0 0.5766230053158811 0.7565871942768898 0 0.4745187976455848 0.6356120107071158 0 0.4913158036475584 0.7286208350277671 0 0.4034544632129959 0.697636532593756 0 0.457563969842983 0.5427700263048028 0 0.4745187976455849 0.6356120107071159 0 0.3874961043643119 0.6045058592691972 0 1.727225729790304e-18 0.4257142857145927 0 -1.727225729790304e-18 0.3300000000000001 0 0.08017840601838515 0.3963300372633092 0 0.07539619259043898 0.4768398233241385 0 0.08017840601838516 0.3963300372633093 0 0.1336105785134736 0.43617026892093 0 0.2005261161267241 0.4579553458730796 0 0.1430235002238064 0.5157881957001369 0 0.1336105785134736 0.43617026892093 0 0.2845914509771853 0.4848763822095441 0 0.2175071670863924 0.5477913784148304 0 0.2005261161267241 0.4579553458730796 0 0.2845914509771853 0.4848763822095441 0 0.3706525466147029 0.5134749220451615 0 0.3009805024402901 0.5741244053762113 0 0.3706525466147028 0.5134749220451614 0 0.457563969842983 0.5427700263048029 0 0.3874961043643119 0.6045058592691972 0 0.7543567317362885 0.9205245603071642 0 0.7000000000006935 1 0 0.6547996067038542 0.9007657124885794 0 0.6561937266592245 0.7952487040793246 0 0.6547996067038544 0.9007657124885796 0 0.5904037090422988 0.8429143001779456 0 0.5766230053158811 0.7565871942768899 0 0.6561937266592246 0.7952487040793247 0 0.5904037090422988 0.8429143001779456 0 0.4913158036475584 0.728620835027767 0 0.5631276294683253 0.6660590631089183 0 0.576623005315881 0.7565871942768898 0 0.4745187976455848 0.6356120107071158 0 0.5631276294683253 0.6660590631089183 0 0.4913158036475583 0.7286208350277669 0 0.5449520634070173 0.5736116873632144 0 0.4745187976455849 0.6356120107071159 0 0.4575639698429829 0.5427700263048026 0 -1.536348116418776e-18 0.33 0 0.0854102851163888 0.3187555226130792 0 0.08017840601838515 0.3963300372633092 0 0.08017840601838515 0.3963300372633093 0 0.1640593670546961 0.3719448044930115 0 0.1336105785134736 0.43617026892093 0 0.1640593670546961 0.3719448044930115 0 0.2005261161267241 0.4579553458730797 0 0.1336105785134736 0.43617026892093 0 0.2845914509771853 0.4848763822095441 0 0.2005261161267242 0.4579553458730797 0 0.2643248175621772 0.3987638366763465 0 0.3539299266278165 0.4249789750790705 0 0.3706525466147029 0.5134749220451615 0 0.2845914509771852 0.484876382209544 0 0.3706525466147028 0.5134749220451614 0 0.4393289521948476 0.4527926136921334 0 0.4575639698429829 0.5427700263048028 0 0.7999999999999998 1 0 0.7000000000006935 1 0 0.7543567317362884 0.9205245603071641 0 0.7543567317362885 0.9205245603071642 0 0.6547996067038544 0.9007657124885796 0 0.7337357534352459 0.8320636705894818 0 0.6547996067038543 0.9007657124885795 0 0.6561937266592246 0.7952487040793247 0 0.7337357534352459 0.8320636705894818 0 0.6531478674828473 0.7030485185081183 0 0.6561937266592246 0.7952487040793247 0 0.576623005315881 0.7565871942768898 0 0.5631276294683252 0.6660590631089182 0 0.6531478674828474 0.7030485185081184 0 0.576623005315881 0.7565871942768898 0 0.5449520634070173 0.5736116873632144 0 0.5631276294683253 0.6660590631089183 0 0.4745187976455847 0.6356120107071157 0 0.5264916765091932 0.482014321178542 0 0.5449520634070174 0.5736116873632146 0 0.4575639698429829 0.5427700263048026 0 0.0854102851163888 0.3187555226130791 0 0.1640593670546961 0.3719448044930115 0 0.08017840601838513 0.3963300372633092 0 0.2005261161267241 0.4579553458730796 0 0.1640593670546961 0.3719448044930115 0 0.2643248175621772 0.3987638366763465 0 0.3539299266278165 0.4249789750790705 0 0.2845914509771854 0.4848763822095442 0 0.2643248175621771 0.3987638366763465 0 0.3539299266278165 0.4249789750790705 0 0.4393289521948476 0.4527926136921334 0 0.3706525466147028 0.5134749220451614 0 0.4393289521948476 0.4527926136921333 0 0.5264916765091933 0.482014321178542 0 0.4575639698429829 0.5427700263048028 0 0.7999999999999998 1 0 0.7543567317362886 0.9205245603071645 0 0.8469936203143577 0.9266230858757654 0 0.7543567317362885 0.9205245603071642 0 0.7337357534352461 0.8320636705894821 0 0.8112077680452557 0.8636996853036777 0 0.6561937266592245 0.7952487040793246 0 0.739472295912085 0.7432808756035071 0 0.7337357534352459 0.8320636705894818 0 0.6531478674828473 0.7030485185081183 0 0.739472295912085 0.7432808756035071 0 0.6561937266592244 0.7952487040793245 0 0.5631276294683252 0.6660590631089182 0 0.6374023866986618 0.6062433926805765 0 0.6531478674828471 0.7030485185081182 0 0.5449520634070173 0.5736116873632144 0 0.6374023866986618 0.6062433926805765 0 0.5631276294683251 0.666059063108918 0 0.5264916765091932 0.482014321178542 0 0.6148622751821856 0.5113105423847631 0 0.5449520634070172 0.5736116873632144 0 0.0854102851163888 0.3187555226130791 0 0.1650000004351555 0.2857883829976277 0 0.1640593670546961 0.3719448044930114 0 0.1640593670546961 0.3719448044930115 0 0.2462583129076185 0.3160366088497619 0 0.2643248175621772 0.3987638366763465 0 0.336583731679023 0.3367909035536117 0 0.3539299266278166 0.4249789750790706 0 0.2643248175621771 0.3987638366763465 0 0.3539299266278165 0.4249789750790705 0 0.4214663514767307 0.3644860394694712 0 0.4393289521948475 0.4527926136921333 0 0.4393289521948476 0.4527926136921333 0 0.5075735779823184 0.3921138039661038 0 0.5264916765091932 0.4820143211785419 0 0.8999999999995836 1 0 0.7999999999999999 1 0 0.8469936203143577 0.9266230858757654 0 0.8469936203143578 0.9266230858757655 0 0.7543567317362886 0.9205245603071643 0 0.8112077680452557 0.8636996853036777 0 0.733735753435246 0.8320636705894819 0 0.8192566252405328 0.7890860953933758 0 0.8112077680452557 0.8636996853036777 0 0.7394722959120849 0.743280875603507 0 0.8192566252405328 0.7890860953933758 0 0.7337357534352459 0.8320636705894818 0 0.6531478674828473 0.7030485185081183 0 0.739117542547439 0.6347508716709132 0 0.7394722959120847 0.7432808756035069 0 0.6531478674828473 0.7030485185081183 0 0.6374023866986618 0.6062433926805765 0 0.7391175425474388 0.6347508716709129 0 0.5449520634070173 0.5736116873632144 0 0.6148622751821856 0.5113105423847631 0 0.6374023866986616 0.6062433926805763 0 0.5264916765091932 0.482014321178542 0 0.5953929619133023 0.4201954587110724 0 0.6148622751821854 0.511310542384763 0 0.1640593670546961 0.3719448044930115 0 0.1650000004351555 0.2857883829976277 0 0.2462583129076185 0.3160366088497618 0 0.2462583129076185 0.3160366088497618 0 0.3365837316790231 0.3367909035536117 0 0.2643248175621771 0.3987638366763465 0 0.336583731679023 0.3367909035536117 0 0.4214663514767307 0.3644860394694712 0 0.3539299266278165 0.4249789750790705 0 0.4393289521948476 0.4527926136921333 0 0.4214663514767307 0.3644860394694712 0 0.5075735779823183 0.3921138039661037 0 0.5264916765091932 0.482014321178542 0 0.5075735779823184 0.3921138039661038 0 0.595392961913302 0.4201954587110723 0 0.8999999999995836 1 0 0.8469936203143579 0.9266230858757657 0 0.9267949192429045 0.9267949192429457 0 0.9016961094998543 0.8502010143526014 0 0.8469936203143579 0.9266230858757656 0 0.8112077680452557 0.8636996853036777 0 0.8192566252405327 0.7890860953933757 0 0.9016961094998545 0.8502010143526015 0 0.8112077680452557 0.8636996853036777 0 0.7394722959120849 0.743280875603507 0 0.8288651147246974 0.698679757807666 0 0.8192566252405326 0.7890860953933756 0 0.7391175425474389 0.634750871670913 0 0.8288651147246974 0.698679757807666 0 0.7394722959120847 0.7432808756035069 0 0.6374023866986617 0.6062433926805764 0 0.702296650772572 0.5383879928347232 0 0.7391175425474388 0.6347508716709129 0 0.6374023866986617 0.6062433926805764 0 0.6148622751821856 0.5113105423847631 0 0.7022966507725718 0.5383879928347229 0 0.6148622751821855 0.511310542384763 0 0.5953929619133023 0.4201954587110725 0 0.6812846140412886 0.4460449154471239 0 0.1650000004351555 0.2857883829976276 0 0.2333452383548381 0.2333452372282833 0 0.2462583129076185 0.3160366088497618 0 0.2462583129076185 0.3160366088497618 0 0.325185383712115 0.2418990257178655 0 0.3365837316790229 0.3367909035536116 0 0.336583731679023 0.3367909035536117 0 0.4070425547712777 0.2792204871089636 0 0.4214663514767306 0.3644860394694711 0 0.5075735779823183 0.3921138039661038 0 0.4214663514767307 0.3644860394694712 0 0.4889892423138357 0.3038076761249732 0 0.5953929619133022 0.4201954587110724 0 0.5075735779823184 0.3921138039661038 0 0.5758076665880538 0.3296092558990192 0 1 1 0 0.8999999999995838 1 0 0.9267949192429045 0.9267949192429457 0 0.8469936203143578 0.9266230858757655 0 0.9016961094998545 0.8502010143526015 0 0.9267949192429045 0.9267949192429457 0 0.9016961094998543 0.8502010143526014 0 0.8192566252405328 0.7890860953933758 0 0.9105973158607926 0.7479451577263728 0 0.8192566252405327 0.7890860953933757 0 0.8288651147246974 0.698679757807666 0 0.9105973158607926 0.7479451577263728 0 0.8337113423553407 0.5996960087499144 0 0.8288651147246974 0.698679757807666 0 0.7391175425474388 0.6347508716709129 0 0.7391175425474389 0.634750871670913 0 0.702296650772572 0.5383879928347232 0 0.7760953731115514 0.5499323499659109 0 0.7022966507725719 0.5383879928347231 0 0.6148622751821856 0.5113105423847631 0 0.6812846140412886 0.4460449154471239 0 0.5953929619133022 0.4201954587110724 0 0.6649137529579178 0.357743695995514 0 0.6812846140412886 0.4460449154471239 0 0.2333452383548381 0.2333452372282832 0 0.325185383712115 0.2418990257178654 0 0.2462583129076185 0.3160366088497618 0 0.336583731679023 0.3367909035536117 0 0.325185383712115 0.2418990257178655 0 0.4070425547712775 0.2792204871089635 0 0.4214663514767306 0.3644860394694711 0 0.4070425547712777 0.2792204871089636 0 0.4889892423138357 0.3038076761249732 0 0.5758076665880539 0.3296092558990193 0 0.5075735779823184 0.3921138039661038 0 0.4889892423138357 0.3038076761249732 0 0.5953929619133022 0.4201954587110724 0 0.575807666588054 0.3296092558990193 0 0.6649137529579175 0.3577436959955139 0 1 0.8999999999997368 0 1 1 0 0.9267949192429045 0.9267949192429457 0 0.9016961094998543 0.8502010143526014 0 1 0.8999999999997369 0 0.9267949192429045 0.9267949192429457 0 1 0.7999999999994734 0 0.9016961094998546 0.8502010143526015 0 0.9105973158607926 0.7479451577263728 0 0.8288651147246973 0.6986797578076659 0 0.9137660456996721 0.6497040788059111 0 0.9105973158607926 0.7479451577263728 0 0.8337113423553407 0.5996960087499144 0 0.9137660456996721 0.6497040788059111 0 0.8288651147246971 0.6986797578076658 0 0.8337113423553407 0.5996960087499144 0 0.739117542547439 0.6347508716709132 0 0.7760953731115514 0.5499323499659109 0 0.7022966507725719 0.5383879928347231 0 0.7640906286245651 0.4727193297685515 0 0.7760953731115514 0.5499323499659109 0 0.7022966507725719 0.5383879928347231 0 0.6812846140412888 0.4460449154471241 0 0.7640906286245649 0.4727193297685514 0 0.6649137529579177 0.3577436959955139 0 0.7509658874862278 0.3837908846492591 0 0.6812846140412886 0.4460449154471239 0 0.2333452383548381 0.2333452372282832 0 0.2857883835161865 0.1649999995369853 0 0.3251853837121149 0.2418990257178654 0 0.4070425547712776 0.2792204871089636 0 0.325185383712115 0.2418990257178655 0 0.4035780771799722 0.2107049125048627 0 0.4889892423138357 0.3038076761249733 0 0.4070425547712777 0.2792204871089636 0 0.4711446761746211 0.2206591250436209 0 0.5533431996313982 0.2396037875354144 0 0.575807666588054 0.3296092558990193 0 0.4889892423138357 0.3038076761249732 0 0.6649137529579177 0.3577436959955139 0 0.575807666588054 0.3296092558990193 0 0.6436084350545209 0.2642353863415701 0 1 0.7999999999994734 0 1 0.8999999999997369 0 0.9016961094998542 0.8502010143526013 0 1 0.69999999999921 0 1 0.7999999999994735 0 0.9105973158607926 0.7479451577263728 0 0.913766045699672 0.649704078805911 0 1 0.6999999999992101 0 0.9105973158607926 0.7479451577263728 0 0.9143104164693288 0.5502457745856388 0 0.9137660456996721 0.6497040788059111 0 0.8337113423553406 0.5996960087499142 0 0.8396680954007476 0.5041237028824694 0 0.8337113423553408 0.5996960087499145 0 0.7760953731115514 0.5499323499659109 0 0.764090628624565 0.4727193297685514 0 0.8396680954007477 0.5041237028824695 0 0.7760953731115514 0.549932349965911 0 0.6812846140412887 0.446044915447124 0 0.7509658874862278 0.3837908846492591 0 0.7640906286245649 0.4727193297685514 0 0.6649137529579177 0.3577436959955139 0 0.7333924435874726 0.2993780894363458 0 0.7509658874862276 0.383790884649259 0 0.3251853837121149 0.2418990257178654 0 0.2857883835161865 0.1649999995369853 0 0.364895775260603 0.1555527535858053 0 0.3251853837121149 0.2418990257178654 0 0.3648957752606031 0.1555527535858053 0 0.4035780771799722 0.2107049125048627 0 0.4711446761746212 0.2206591250436209 0 0.4070425547712777 0.2792204871089636 0 0.4035780771799722 0.2107049125048627 0 0.5533431996313982 0.2396037875354144 0 0.4889892423138358 0.3038076761249733 0 0.4711446761746211 0.2206591250436209 0 0.643608435054521 0.2642353863415702 0 0.575807666588054 0.3296092558990193 0 0.5533431996313981 0.2396037875354144 0 0.6649137529579177 0.3577436959955139 0 0.6436084350545211 0.2642353863415702 0 0.7333924435874724 0.2993780894363456 0 1 0.5999999999989468 0 1 0.6999999999992101 0 0.9137660456996719 0.6497040788059109 0 1 0.5999999999989468 0 0.9137660456996722 0.6497040788059111 0 0.9143104164693286 0.5502457745856387 0 0.9143104164693288 0.5502457745856388 0 0.8337113423553408 0.5996960087499145 0 0.8396680954007475 0.5041237028824693 0 0.8342331509350035 0.4140361328318219 0 0.8396680954007477 0.5041237028824695 0 0.7640906286245649 0.4727193297685514 0 0.7509658874862277 0.3837908846492591 0 0.8342331509350036 0.4140361328318219 0 0.7640906286245649 0.4727193297685514 0 0.7509658874862277 0.3837908846492591 0 0.7333924435874726 0.2993780894363458 0 0.8263642251709324 0.3235072125777745 0 0.2857883835161864 0.1649999995369853 0 0.3187555227431478 0.08541028463096599 0 0.364895775260603 0.1555527535858053 0 0.3648957752606031 0.1555527535858053 0 0.4407949287895321 0.1503338094757088 0 0.4035780771799722 0.2107049125048627 0 0.4407949287895321 0.1503338094757088 0 0.4711446761746212 0.2206591250436209 0 0.4035780771799722 0.2107049125048627 0 0.5533431996313982 0.2396037875354144 0 0.4711446761746213 0.2206591250436209 0 0.5280186054028273 0.15706471926695 0 0.643608435054521 0.2642353863415702 0 0.5533431996313983 0.2396037875354144 0 0.6132366197277307 0.1702836710930531 0 0.7333924435874725 0.2993780894363457 0 0.6436084350545211 0.2642353863415702 0 0.7180649978892392 0.1971965142324815 0 1 0.4999999999986943 0 1 0.5999999999989469 0 0.9143104164693286 0.5502457745856387 0 0.916368709783832 0.4515076337375429 0 0.9143104164693289 0.5502457745856389 0 0.8396680954007475 0.5041237028824693 0 0.916368709783832 0.4515076337375429 0 0.8396680954007477 0.5041237028824695 0 0.8342331509350034 0.4140361328318218 0 0.7509658874862277 0.3837908846492591 0 0.8263642251709327 0.3235072125777746 0 0.8342331509350034 0.4140361328318218 0 0.8263642251709326 0.3235072125777746 0 0.7333924435874726 0.2993780894363458 0 0.7983682599267165 0.2535536781211906 0 0.3648957752606031 0.1555527535858053 0 0.3187555227431478 0.08541028463096599 0 0.3966376598822499 0.07841900855448647 0 0.3648957752606031 0.1555527535858053 0 0.39663765988225 0.07841900855448651 0 0.440794928789532 0.1503338094757088 0 0.5280186054028274 0.15706471926695 0 0.4711446761746213 0.2206591250436209 0 0.440794928789532 0.1503338094757088 0 0.6132366197277308 0.1702836710930531 0 0.5533431996313983 0.2396037875354144 0 0.5280186054028273 0.15706471926695 0 0.7180649978892393 0.1971965142324815 0 0.6436084350545211 0.2642353863415702 0 0.6132366197277307 0.1702836710930531 0 0.7333924435874725 0.2993780894363457 0 0.7180649978892394 0.1971965142324816 0 0.7983682599267165 0.2535536781211906 0 0.916368709783832 0.4515076337375429 0 1 0.4999999999986944 0 0.9143104164693286 0.5502457745856388 0 0.912755831832754 0.3564464450364736 0 0.9163687097838321 0.4515076337375429 0 0.8342331509350034 0.4140361328318218 0 0.8263642251709326 0.3235072125777746 0 0.9127558318327541 0.3564464450364737 0 0.8342331509350034 0.4140361328318218 0 0.8955554812928541 0.2551442917568861 0 0.8263642251709327 0.3235072125777746 0 0.7983682599267165 0.2535536781211906 0 0.3187555227431477 0.08541028463096596 0 0.3300000000000001 1.27415878492528e-17 0 0.3966376598822499 0.07841900855448648 0 0.3966376598822499 0.07841900855448648 0 0.4804947788369185 0.07960233789852755 0 0.440794928789532 0.1503338094757088 0 0.4804947788369185 0.07960233789852754 0 0.5280186054028275 0.15706471926695 0 0.440794928789532 0.1503338094757088 0 0.5713844803892864 0.08071061624839423 0 0.6132366197277309 0.1702836710930531 0 0.5280186054028273 0.15706471926695 0 0.6649999999991136 0.08289100293350835 0 0.7180649978892394 0.1971965142324815 0 0.6132366197277307 0.1702836710930531 0 0.7180649978892393 0.1971965142324815 0 0.8239593393238149 0.175865982407799 0 0.7983682599267165 0.2535536781211906 0 1 0.3999999999989749 0 1 0.4999999999986944 0 0.9163687097838319 0.4515076337375428 0 1 0.3999999999989749 0 0.9163687097838322 0.4515076337375429 0 0.9127558318327539 0.3564464450364735 0 0.8263642251709326 0.3235072125777746 0 0.8955554812928542 0.2551442917568861 0 0.9127558318327539 0.3564464450364735 0 0.8239593393238148 0.175865982407799 0 0.8955554812928542 0.2551442917568861 0 0.7983682599267165 0.2535536781211906 0 0.33 1.689324295732401e-18 0 0.4257142857140301 -1.689324295732401e-18 0 0.3966376598822499 0.07841900855448648 0 0.4257142857140301 -1.352324701325955e-18 0 0.4804947788369185 0.07960233789852754 0 0.3966376598822499 0.07841900855448648 0 0.4804947788369185 0.07960233789852754 0 0.5713844803892865 0.08071061624839425 0 0.5280186054028273 0.15706471926695 0 0.5713844803892864 0.08071061624839423 0 0.6649999999991137 0.08289100293350837 0 0.6132366197277307 0.1702836710930531 0 0.7180649978892393 0.1971965142324815 0 0.6649999999991137 0.08289100293350839 0 0.7614399244630435 0.1024449365784281 0 0.7180649978892393 0.1971965142324815 0 0.7614399244630438 0.1024449365784281 0 0.8239593393238147 0.175865982407799 0 1 0.2999999999992664 0 1 0.399999999998975 0 0.9127558318327539 0.3564464450364735 0 0.8955554812928541 0.2551442917568861 0 1 0.2999999999992665 0 0.9127558318327539 0.3564464450364735 0 0.8955554812928541 0.2551442917568861 0 0.8239593393238149 0.175865982407799 0 0.9177753013045605 0.1474028499237799 0 0.4257142857140301 1.71481590864093e-18 0 0.5214285714279892 -1.71481590864093e-18 0 0.4804947788369184 0.07960233789852754 0 0.4804947788369185 0.07960233789852754 0 0.5214285714279892 1.171091136225862e-17 0 0.5713844803892862 0.08071061624839423 0 0.6171428571420018 -1.428619940081068e-18 0 0.6649999999991137 0.08289100293350836 0 0.5713844803892862 0.08071061624839423 0 0.6649999999991136 0.08289100293350836 0 0.7128571428562256 1.179835700928075e-17 0 0.7614399244630435 0.1024449365784281 0 0.7614399244630436 0.1024449365784281 0 0.8564285714281222 0.08289100293390848 0 0.8239593393238147 0.175865982407799 0 1 0.1999999999995579 0 1 0.2999999999992665 0 0.895555481292854 0.2551442917568861 0 1 0.1999999999995579 0 0.8955554812928543 0.2551442917568861 0 0.9177753013045605 0.1474028499237799 0 0.8239593393238148 0.175865982407799 0 0.8564285714281222 0.0828910029339085 0 0.9177753013045605 0.1474028499237799 0 0.521428571427989 1.738690751964959e-18 0 0.6171428571420019 -1.738690751964959e-18 0 0.5713844803892862 0.08071061624839423 0 0.6171428571420018 1.785661254004595e-18 0 0.7128571428562256 -1.785661254004595e-18 0 0.6649999999991135 0.08289100293350836 0 0.7128571428562255 2.206897581680817e-18 0 0.8085714285708151 -2.206897581680817e-18 0 0.7614399244630435 0.1024449365784281 0 0.808571428570815 -9.604131103804991e-19 0 0.8564285714281222 0.08289100293390847 0 0.7614399244630435 0.1024449365784281 0 1 0.09999999999981465 0 1 0.1999999999995579 0 0.9177753013045605 0.1474028499237799 0 0.9177753013045606 0.1474028499237799 0 0.8564285714281222 0.0828910029339085 0 0.9307084157825725 0.07051582244471349 0 0.808571428570815 1.785661254013214e-18 0 0.9042857142854291 -1.785661254013214e-18 0 0.856428571428122 0.08289100293390847 0 1 0.09999999999981467 0 0.9177753013045609 0.1474028499237799 0 0.9307084157825725 0.07051582244471349 0 0.8564285714281221 0.08289100293390847 0 0.9042857142854291 1.24861829490224e-17 0 0.9307084157825725 0.07051582244471351 0 1 -2.301983213103187e-18 0 1 0.09999999999981467 0 0.9307084157825725 0.07051582244471351 0 0.904285714285429 1.519071642006769e-18 0 1 -1.519071642006769e-18 0 0.9307084157825725 0.07051582244471351 0 </DataArray>
      </Points>
      <Cells>
        <DataArray type="Int32" Name="connectivity" format="ascii">0 1 2 3 4 5 6 7 8 9 10 11 12 13 14 15 16 17 18 19 20 21 22 23 24 25 26 27 28 29 30 31 32 33 34 35 36 37 38 39 40 41 42 43 44 45 46 47 48 49 50 51 52 53 54 55 56 57 58 59 60 61 62 63 64 65 66 67 68 69 70 71 72 73 74 75 76 77 78 79 80 81 82 83 84 85 86 87 88 89 90 91 92 93 94 95 96 97 98 99 100 101 102 103 104 105 106 107 108 109 110 111 112 113 114 115 116 117 118 119 120 121 122 123 124 125 126 127 128 129 130 131 132 133 134 135 136 137 138 139 140 141 142 143 144 145 146 147 148 149 150 151 152 153 154 155 156 157 158 159 160 161 162 163 164 165 166 167 168 169 170 171 172 173 174 175 176 177 178 179 180 181 182 183 184 185 186 187 188 189 190 191 192 193 194 195 196 197 198 199 200 201 202 203 204 205 206 207 208 209 210 211 212 213 214 215 216 217 218 219 220 221 222 223 224 225 226 227 228 229 230 231 232 233 234 235 236 237 238 239 240 241 242 243 244 245 246 247 248 249 250 251 252 253 254 255 256 257 258 259 260 261 262 263 264 265 266 267 268 269 270 271 272 273 274 275 276 277 278 279 280 281 282 283 284 285 286 287 288 289 290 291 292 293 294 295 296 297 298 299 300 301 302 303 304 305 306 307 308 309 310 311 312 313 314 315 316 317 318 319 320 321 322 323 324 325 326 327 328 329 330 331 332 333 334 335 336 337 338 339 340 341 342 343 344 345 346 347 348 349 350 351 352 353 354 355 356 357 358 359 360 361 362 363 364 365 366 367 368 369 370 371 372 373 374 375 376 377 378 379 380 381 382 383 384 385 386 387 388 389 390 391 392 393 394 395 396 397 398 399 400 401 402 403 404 405 406 407 408 409 410 411 412 413 414 415 416 417 418 419 420 421 422 423 424 425 426 427 428 429 430 431 432 433 434 435 436 437 438 439 440 441 442 443 444 445 446 447 448 449 450 451 452 453 454 455 456 457 458 459 460 461 462 463 464 465 466 467 468 469 470 471 472 473 474 475 476 477 478 479 480 481 482 483 484 485 486 487 488 489 490 491 492 493 494 495 496 497 498 499 500 501 502 503 504 505 506 507 508 509 510 511 512 513 514 515 516 517 518 519 520 521 522 523 524 525 526 527 528 529 530 531 532 533 534 535 536 537 538 539 540 541 542 543 544 545 546 547 548 549 550 551 552 553 554 555 556 557 558 559 560 561 562 563 564 565 566 567 568 569 570 571 572 573 574 575 576 577 578 579 580 581 582 583 584 585 586 587 588 589 590 591 592 593 594 595 596 597 598 599 600 601 602 603 604 605 606 607 608 609 610 611 612 613 614 615 616 617 618 619 620 621 622 623 624 625 626 627 628 629 630 631 632 633 634 635 636 637 638 639 640 641 642 643 644 645 646 647 648 649 650 651 652 653 654 655 656 657 658 659 660 661 662 663 664 665 666 667 668 669 670 671 672 673 674 675 676 677 678 679 680 681 682 683 684 685 686 687 688 689 690 691 692 693 694 695 696 697 698 699 700 701 702 703 704 705 706 707 708 709 710 711 712 713 714 715 716 717 718 719 720 721 722 723 724 725 726 727 728 729 730 731 732 733 734 735 736 737 738 739 740 741 742 743 744 745 746 747 748 749 </DataArray>
        <DataArray type="Int32" Name="offsets" format="ascii">3 6 9 12 15 18 21 24 27 30 33 36 39 42 45 48 51 54 57 60 63 66 69 72 75 78 81 84 87 90 93 96 99 102 105 108 111 114 117 120 123 126 129 132 135 138 141 144 147 150 153 156 159 162 165 168 171 174 177 180 183 186 189 192 195 198 201 204 207 210 213 216 219 222 225 228 231 234 237 240 243 246 249 252 255 258 261 264 267 270 273 276 279 282 285 288 291 294 297 300 303 306 309 312 315 318 321 324 327 330 333 336 339 342 345 348 351 354 357 360 363 366 369 372 375 378 381 384 387 390 393 396 399 402 405 408 411 414 417 420 423 426 429 432 435 438 441 444 447 450 453 456 459 462 465 468 471 474 477 480 483 486 489 492 495 498 501 504 507 510 513 516 519 522 525 528 531 534 537 540 543 546 549 552 555 558 561 564 567 570 573 576 579 582 585 588 591 594 597 600 603 606 609 612 615 618 621 624 627 630 633 636 639 642 645 648 651 654 657 660 663 666 669 672 675 678 681 684 687 690 693 696 699 702 705 708 711 714 717 720 723 726 729 732 735 738 741 744 747 750 </DataArray>
        <DataArray type="Int8" Name="types" format="ascii">69 69 69 69 69 69 69 69 69 69 69 69 69 69 69 69 69 69 69 69 69 69 69 69 69 69 69 69 69 69 69 69 69 69 69 69 69 69 69 69 69 69 69 69 69 69 69 69 69 69 69 69 69 69 69 69 69 69 69 69 69 69 69 69 69 69 69 69 69 69 69 69 69 69 69 69 69 69 69 69 69 69 69 69 69 69 69 69 69 69 69 69 69 69 69 69 69 69 69 69 69 69 69 69 69 69 69 69 69 69 69 69 69 69 69 69 69 69 69 69 69 69 69 69 69 69 69 69 69 69 69 69 69 69 69 69 69 69 69 69 69 69 69 69 69 69 69 69 69 69 69 69 69 69 69 69 69 69 69 69 69 69 69 69 69 69 69 69 69 69 69 69 69 69 69 69 69 69 69 69 69 69 69 69 69 69 69 69 69 69 69 69 69 69 69 69 69 69 69 69 69 69 69 69 69 69 69 69 69 69 69 69 69 69 69 69 69 69 69 69 69 69 69 69 69 69 69 69 69 69 69 69 69 69 69 69 69 69 69 69 69 69 69 69 69 69 69 69 69 69 </DataArray>
      </Cells>
      <CellData>
        <DataArray type="UInt8" Name="vtkGhostType" format="ascii" RangeMin="0" RangeMax="1">0 0 0 0 0 0 0 0 0 0 0 0 0 0 0 0 0 0 0 0 0 0 0 0 0 0 0 0 0 0 0 0 0 0 0 0 0 0 0 0 0 0 0 0 0 0 0 0 0 0 0 0 0 0 0 0 0 0 0 0 0 0 0 0 0 0 0 0 0 0 0 0 0 0 0 0 0 0 0 0 0 0 0 0 0 0 0 0 0 0 0 0 0 0 0 0 0 0 0 0 0 0 0 0 0 0 0 0 0 0 0 0 0 0 0 0 0 0 0 0 0 0 0 0 0 0 0 0 0 0 0 0 0 0 0 0 0 0 0 0 0 0 0 0 0 0 0 0 0 0 0 0 0 0 0 0 0 0 0 0 0 0 0 0 0 0 0 0 0 0 0 0 0 0 0 0 0 0 0 0 0 0 0 0 0 0 0 0 0 0 0 0 0 0 0 0 0 0 0 0 0 0 0 0 0 0 0 0 0 0 0 0 0 0 0 0 0 0 0 0 0 0 0 0 0 0 0 0 0 0 0 0 0 0 0 0 0 0 0 0 0 0 0 0 0 0 0 0 0 0 </DataArray>
        <DataArray type="Int64" IdType="1" Name="vtkOriginalCellIds" format="ascii" RangeMin="0" RangeMax="249">0 1 2 3 4 5 6 7 8 9 10 11 12 13 14 15 16 17 18 19 20 21 22 23 24 25 26 27 28 29 30 31 32 33 34 35 36 37 38 39 40 41 42 43 44 45 46 47 48 49 50 51 52 53 54 55 56 57 58 59 60 61 62 63 64 65 66 67 68 69 70 71 72 73 74 75 76 77 78 79 80 81 82 83 84 85 86 87 88 89 90 91 92 93 94 95 96 97 98 99 100 101 102 103 104 105 106 107 108 109 110 111 112 113 114 115 116 117 118 119 120 121 122 123 124 125 126 127 128 129 130 131 132 133 134 135 136 137 138 139 140 141 142 143 144 145 146 147 148 149 150 151 152 153 154 155 156 157 158 159 160 161 162 163 164 165 166 167 168 169 170 171 172 173 174 175 176 177 178 179 180 181 182 183 184 185 186 187 188 189 190 191 192 193 194 195 196 197 198 199 200 201 202 203 204 205 206 207 208 209 210 211 212 213 214 215 216 217 218 219 220 221 222 223 224 225 226 227 228 229 230 231 232 233 234 235 236 237 238 239 240 241 242 243 244 245 246 247 248 249 </DataArray>
      </CellData>
      <PointData Tensors="stress">
        <DataArray type="Int64" IdType="1" Name="vtkOriginalPointIds" format="ascii" RangeMin="0" RangeMax="749">0 1 2 3 4 5 6 7 8 9 10 11 12 13 14 15 16 17 18 19 20 21 22 23 24 25 26 27 28 29 30 31 32 33 34 35 36 37 38 39 40 41 42 43 44 45 46 47 48 49 50 51 52 53 54 55 56 57 58 59 60 61 62 63 64 65 66 67 68 69 70 71 72 73 74 75 76 77 78 79 80 81 82 83 84 85 86 87 88 89 90 91 92 93 94 95 96 97 98 99 100 101 102 103 104 105 106 107 108 109 110 111 112 113 114 115 116 117 118 119 120 121 122 123 124 125 126 127 128 129 130 131 132 133 134 135 136 137 138 139 140 141 142 143 144 145 146 147 148 149 150 151 152 153 154 155 156 157 158 159 160 161 162 163 164 165 166 167 168 169 170 171 172 173 174 175 176 177 178 179 180 181 182 183 184 185 186 187 188 189 190 191 192 193 194 195 196 197 198 199 200 201 202 203 204 205 206 207 208 209 210 211 212 213 214 215 216 217 218 219 220 221 222 223 224 225 226 227 228 229 230 231 232 233 234 235 236 237 238 239 240 241 242 243 244 245 246 247 248 249 250 251 252 253 254 255 256 257 258 259 260 261 262 263 264 265 266 267 268 269 270 271 272 273 274 275 276 277 278 279 280 281 282 283 284 285 286 287 288 289 290 291 292 293 294 295 296 297 298 299 300 301 302 303 304 305 306 307 308 309 310 311 312 313 314 315 316 317 318 319 320 321 322 323 324 325 326 327 328 329 330 331 332 333 334 335 336 337 338 339 340 341 342 343 344 345 346 347 348 349 350 351 352 353 354 355 356 357 358 359 360 361 362 363 364 365 366 367 368 369 370 371 372 373 374 375 376 377 378 379 380 381 382 383 384 385 386 387 388 389 390 391 392 393 394 395 396 397 398 399 400 401 402 403 404 405 406 407 408 409 410 411 412 413 414 415 416 417 418 419 420 421 422 423 424 425 426 427 428 429 430 431 432 433 434 435 436 437 438 439 440 441 442 443 444 445 446 447 448 449 450 451 452 453 454 455 456 457 458 459 460 461 462 463 464 465 466 467 468 469 470 471 472 473 474 475 476 477 478 479 480 481 482 483 484 485 486 487 488 489 490 491 492 493 494 495 496 497 498 499 500 501 502 503 504 505 506 507 508 509 510 511 512 513 514 515 516 517 518 519 520 521 522 523 524 525 526 527 528 529 530 531 532 533 534 535 536 537 538 539 540 541 542 543 544 545 546 547 548 549 550 551 552 553 554 555 556 557 558 559 560 561 562 563 564 565 566 567 568 569 570 571 572 573 574 575 576 577 578 579 580 581 582 583 584 585 586 587 588 589 590 591 592 593 594 595 596 597 598 599 600 601 602 603 604 605 606 607 608 609 610 611 612 613 614 615 616 617 618 619 620 621 622 623 624 625 626 627 628 629 630 631 632 633 634 635 636 637 638 639 640 641 642 643 644 645 646 647 648 649 650 651 652 653 654 655 656 657 658 659 660 661 662 663 664 665 666 667 668 669 670 671 672 673 674 675 676 677 678 679 680 681 682 683 684 685 686 687 688 689 690 691 692 693 694 695 696 697 698 699 700 701 702 703 704 705 706 707 708 709 710 711 712 713 714 715 716 717 718 719 720 721 722 723 724 725 726 727 728 729 730 731 732 733 734 735 736 737 738 739 740 741 742 743 744 745 746 747 748 749 </DataArray>
        <DataArray type="UInt8" Name="vtkGhostType" format="ascii" RangeMin="0" RangeMax="0">0 0 0 0 0 0 0 0 0 0 0 0 0 0 0 0 0 0 0 0 0 0 0 0 0 0 0 0 0 0 0 0 0 0 0 0 0 0 0 0 0 0 0 0 0 0 0 0 0 0 0 0 0 0 0 0 0 0 0 0 0 0 0 0 0 0 0 0 0 0 0 0 0 0 0 0 0 0 0 0 0 0 0 0 0 0 0 0 0 0 0 0 0 0 0 0 0 0 0 0 0 0 0 0 0 0 0 0 0 0 0 0 0 0 0 0 0 0 0 0 0 0 0 0 0 0 0 0 0 0 0 0 0 0 0 0 0 0 0 0 0 0 0 0 0 0 0 0 0 0 0 0 0 0 0 0 0 0 0 0 0 0 0 0 0 0 0 0 0 0 0 0 0 0 0 0 0 0 0 0 0 0 0 0 0 0 0 0 0 0 0 0 0 0 0 0 0 0 0 0 0 0 0 0 0 0 0 0 0 0 0 0 0 0 0 0 0 0 0 0 0 0 0 0 0 0 0 0 0 0 0 0 0 0 0 0 0 0 0 0 0 0 0 0 0 0 0 0 0 0 0 0 0 0 0 0 0 0 0 0 0 0 0 0 0 0 0 0 0 0 0 0 0 0 0 0 0 0 0 0 0 0 0 0 0 0 0 0 0 0 0 0 0 0 0 0 0 0 0 0 0 0 0 0 0 0 0 0 0 0 0 0 0 0 0 0 0 0 0 0 0 0 0 0 0 0 0 0 0 0 0 0 0 0 0 0 0 0 0 0 0 0 0 0 0 0 0 0 0 0 0 0 0 0 0 0 0 0 0 0 0 0 0 0 0 0 0 0 0 0 0 0 0 0 0 0 0 0 0 0 0 0 0 0 0 0 0 0 0 0 0 0 0 0 0 0 0 0 0 0 0 0 0 0 0 0 0 0 0 0 0 0 0 0 0 0 0 0 0 0 0 0 0 0 0 0 0 0 0 0 0 0 0 0 0 0 0 0 0 0 0 0 0 0 0 0 0 0 0 0 0 0 0 0 0 0 0 0 0 0 0 0 0 0 0 0 0 0 0 0 0 0 0 0 0 0 0 0 0 0 0 0 0 0 0 0 0 0 0 0 0 0 0 0 0 0 0 0 0 0 0 0 0 0 0 0 0 0 0 0 0 0 0 0 0 0 0 0 0 0 0 0 0 0 0 0 0 0 0 0 0 0 0 0 0 0 0 0 0 0 0 0 0 0 0 0 0 0 0 0 0 0 0 0 0 0 0 0 0 0 0 0 0 0 0 0 0 0 0 0 0 0 0 0 0 0 0 0 0 0 0 0 0 0 0 0 0 0 0 0 0 0 0 0 0 0 0 0 0 0 0 0 0 0 0 0 0 0 0 0 0 0 0 0 0 0 0 0 0 0 0 0 0 0 0 0 0 0 0 0 0 0 0 0 0 0 0 0 0 0 0 0 0 0 0 0 0 0 0 0 0 0 0 0 0 0 0 0 0 0 0 0 0 0 0 0 0 0 0 0 0 0 0 0 0 0 0 0 0 0 0 0 0 0 0 0 0 0 0 0 0 0 0 0 0 0 0 0 0 0 0 0 0 0 0 0 0 0 0 0 0 0 0 0 0 0 0 0 0 0 0 0 0 0 0 0 0 0 0 0 0 0 0 0 0 0 0 0 0 0 0 0 0 0 0 0 0 0 0 0 </DataArray>
        <DataArray type="Float64" Name="stress" format="ascii" NumberOfComponents="9">107367907.9073128 2457062.684051562 2457062.684051562 13402135.12217465 0 0 0 0 0 107167133.0694812 23403.0100291456 23403.01002914556 14689851.67392284 0 0 0 0 0 108721289.4213071 2081412.260571093 2081412.260571093 15733913.05754919 0 0 0 0 0 107034743.9444124 -114264.048902487 -114264.048902487 14303495.11168671 0 0 0 0 0 109177723.8892486 27160.97734472889 27160.97734472888 16994036.59815558 0 0 0 0 0 108820938.5721093 2201081.209107098 2201081.209107098 16086126.56875369 0 0 0 0 0 109636772.9448147 4173173.405066199 4173173.405066199 14100007.85031551 0 0 0 0 0 107335059.9731084 2385308.276964929 2385308.276964929 13472532.02459294 0 0 0 0 0 108853009.122665 2197759.419982373 2197759.419982373 15632116.48034067 0 0 0 0 0 109322407.8611282 3557.278478731263 3557.278478731263 17633338.56758453 0 0 0 0 0 111044345.6514738 3087463.30604745 3087463.30604745 17642812.44562949 0 0 0 0 0 108751876.3250221 2191004.469432158 2191004.469432158 15680436.75178308 0 0 0 0 0 108145764.3895118 4304796.858131461 4304796.85813146 10768323.17039355 0 0 0 0 0 107481915.339083 2512430.74934613 2512430.749346131 13694002.51768931 0 0 0 0 0 109531059.1173695 4092874.645490548 4092874.645490548 13961630.15421782 0 0 0 0 0 111096411.4164438 3248337.498071345 3248337.498071345 17748079.62901441 0 0 0 0 0 109556026.8869323 4138757.231422863 4138757.231422863 13854011.28505697 0 0 0 0 0 108864791.8143152 2171013.131260369 2171013.131260369 15698000.22080152 0 0 0 0 0 109066900.6862514 -165170.0669235135 -165170.0669235135 17064428.60393567 0 0 0 0 0 112222263.4937407 169694.2230350384 169694.2230350384 20507639.60840878 0 0 0 0 0 111254093.3606875 3235363.37247999 3235363.37247999 18324625.28944051 0 0 0 0 0 108111210.3566914 4211527.808303606 4211527.808303606 10942957.87610401 0 0 0 0 0 109552942.098539 4234212.355315936 4234212.355315936 13700055.43643579 0 0 0 0 0 110799732.6996832 5695181.241330973 5695181.241330973 10188475.31600503 0 0 0 0 0 112659066.0422691 6025716.260486133 6025716.260486133 13618892.7404903 0 0 0 0 0 109485965.8964594 4127426.703743495 4127426.703743495 13926947.24409931 0 0 0 0 0 111107273.2721047 3281340.38250012 3281340.38250012 17646441.31522923 0 0 0 0 0 112434993.3744053 66576.06374687111 66576.06374687111 21377089.02595899 0 0 0 0 0 114969919.0614187 3409953.448669244 3409953.448669244 21277842.62205857 0 0 0 0 0 111043302.4747542 3343163.030908172 3343163.030908172 17541141.38396002 0 0 0 0 0 109078845.1221423 5108758.484745776 5108758.484745776 7235325.5761691 0 0 0 0 0 108316408.9595672 4368117.483768864 4368117.483768864 11206959.9601735 0 0 0 0 0 110571961.3601902 5503332.48853294 5503332.48853294 9862981.545976009 0 0 0 0 0 110629376.6814641 5634371.277623603 5634371.277623603 9630237.892121455 0 0 0 0 0 109722576.7714974 4316437.232208198 4316437.232208198 14252269.21951418 0 0 0 0 0 112412491.614279 5770383.183427935 5770383.183427935 13171410.0979702 0 0 0 0 0 112456179.422125 5950183.154214227 5950183.154214227 12971480.79832719 0 0 0 0 0 111349419.3803797 3362237.312372857 3362237.312372857 18423360.53363395 0 0 0 0 0 114718465.2006001 5927279.080863996 5927279.080863996 16348324.06181277 0 0 0 0 0 112103911.2045975 -172102.9455900157 -172102.9455900157 20505606.08281621 0 0 0 0 0 117202135.6996579 210779.342059067 210779.3420590671 24899095.93047601 0 0 0 0 0 115248131.2857468 3627971.711543343 3627971.711543343 22216149.2018438 0 0 0 0 0 110932348.0498837 3032844.111772921 3032844.111772921 17591552.34392973 0 0 0 0 0 115133397.6591292 3753471.074564968 3753471.074564968 21233847.85073886 0 0 0 0 0 115028662.0287682 6188401.265543289 6188401.265543289 17030907.04749884 0 0 0 0 0 111619125.7329483 5703927.220197855 5703927.220197855 5510955.359550561 0 0 0 0 0 109004877.0764865 5015170.347908678 5015170.347908678 7410445.462111662 0 0 0 0 0 110674218.5180041 5632519.195785499 5632519.195785499 9621237.019285791 0 0 0 0 0 110572547.9901541 5534443.385343056 5534443.385343056 9852082.149477066 0 0 0 0 0 112496835.3889953 5914650.103001043 5914650.103001043 12850650.77750687 0 0 0 0 0 113498683.7024543 6474504.972411909 6474504.972411909 7885406.93114086 0 0 0 0 0 112392692.8203744 5800438.707916385 5800438.707916385 13180812.14544531 0 0 0 0 0 114991331.5263231 6176277.26963943 6176277.26963943 16008545.64175133 0 0 0 0 0 115524121.3976537 7036662.036403176 7036662.036403176 10470519.5686778 0 0 0 0 0 114937375.2817514 3822190.608745133 3822190.608745133 21324099.58055045 0 0 0 0 0 117449843.7550049 61652.00242222141 61652.00242222128 26027709.38235255 0 0 0 0 0 121236030.7522279 4087093.823805447 4087093.823805447 25274602.35534118 0 0 0 0 0 115341078.501855 3786677.034683465 3786677.034683465 22204389.08006552 0 0 0 0 0 119402675.558459 6653733.929967863 6653733.929967864 18567857.05328768 0 0 0 0 0 114851201.0427729 6159317.856004843 6159317.856004842 16199535.27849811 0 0 0 0 0 109782617.1678056 4856001.840297986 4856001.840297986 3582948.834566258 0 0 0 0 0 109245357.0278246 5173878.716113029 5173878.716113029 7676625.870915331 0 0 0 0 0 111356067.827034 5514071.509666578 5514071.509666578 5190196.566265102 0 0 0 0 0 111457709.6402707 5619644.820701135 5619644.820701135 4965319.969523286 0 0 0 0 0 110843866.7059747 5723618.00594386 5723618.00594386 10194920.88592938 0 0 0 0 0 113214959.6334732 6243054.650157677 6243054.650157677 7455310.791836047 0 0 0 0 0 113306152.6322042 6406222.016408576 6406222.016408576 7206804.842794369 0 0 0 0 0 112721758.1796695 6012188.468422481 6012188.468422481 13651592.59893083 0 0 0 0 0 115284857.0080653 6825884.04980717 6825884.04980717 9893405.565208867 0 0 0 0 0 115200723.1048442 6246115.446418071 6246115.446418071 16823254.27477956 0 0 0 0 0 118542074.0102788 7401225.668643237 7401225.668643237 11061909.06790233 0 0 0 0 0 115365463.4095409 6972551.850794607 6972551.850794607 9840238.327193679 0 0 0 0 0 117027380.6489771 -224576.812411257 -224576.812411257 24971565.09043887 0 0 0 0 0 125764355.1725954 333832.2465502069 333832.2465502069 30341172.90420995 0 0 0 0 0 121490910.625038 4289657.502223385 4289657.502223385 26511200.00558536 0 0 0 0 0 114902205.6099202 3478242.088640802 3478242.088640802 21318831.66764893 0 0 0 0 0 121349287.3466319 4529789.558620868 4529789.558620868 25301777.44684822 0 0 0 0 0 119699448.2316268 6897350.546706509 6897350.546706509 19413752.45323509 0 0 0 0 0 119631928.5658726 6992084.723595839 6992084.723595839 18557877.2798329 0 0 0 0 0 118708678.1078033 7529264.207984708 7529264.207984708 11526774.03796726 0 0 0 0 0 114841833.303463 6015451.440447328 6015451.440447328 16229596.45363105 0 0 0 0 0 109674702.7891593 4794254.263101625 4794254.263101625 3707352.845920679 0 0 0 0 0 111509951.2278637 5593532.425366699 5593532.425366699 5028582.932969201 0 0 0 0 0 111846249.0402599 4506604.668122684 4506604.668122684 1121345.081576705 0 0 0 0 0 111395593.8687924 5532547.69478824 5532547.69478824 5181706.941106198 0 0 0 0 0 113338030.7707741 6346987.372321012 6346987.372321012 7183074.486416132 0 0 0 0 0 113665282.894664 5325546.692714844 5325546.692714844 2460090.0969376 0 0 0 0 0 117029311.1814643 6452131.995960168 6452131.995960168 4654799.118852152 0 0 0 0 0 113117468.0167324 6278780.069772416 6278780.069772416 7505193.830642566 0 0 0 0 0 115497201.2364686 6884305.343082814 6884305.343082814 9732582.979654748 0 0 0 0 0 118679775.8630341 7545036.954892849 7545036.954892849 11010836.88633664 0 0 0 0 0 116777600.9738832 6283731.364138315 6283731.364138315 4133087.790806415 0 0 0 0 0 115547839.9489585 6896546.877768588 6896546.877768588 9931716.702896785 0 0 0 0 0 126104760.1777629 88964.52556163254 88964.52556163254 31793624.91415181 0 0 0 0 0 132708620.8116394 4315094.066385187 4315094.066385187 29943023.02839601 0 0 0 0 0 120898488.6159598 4672918.597890521 4672918.597890521 25322426.31173444 0 0 0 0 0 119407860.909893 7047711.400424338 7047711.400424338 18535142.39816956 0 0 0 0 0 121540575.5742719 4477367.894894922 4477367.894894922 26242901.40224127 0 0 0 0 0 127156086.0927025 6998362.138215489 6998362.138215489 21174044.84617417 0 0 0 0 0 119759078.5725971 6976919.845144807 6976919.845144807 19108677.34736411 0 0 0 0 0 124279402.9288612 7663053.335535909 7663053.33553591 11416371.04975812 0 0 0 0 0 118567039.8551194 7568568.754868397 7568568.754868397 11003907.06961472 0 0 0 0 0 109993494.2538119 3811306.64173124 3811306.641731238 389537.9990444788 0 0 0 0 0 109901009.4319008 4918459.747482108 4918459.747482109 3915968.195448716 0 0 0 0 0 111591577.6587699 4362585.052107531 4362585.052107531 878365.7918073586 0 0 0 0 0 111725781.9949461 4426845.629283221 4426845.629283221 715891.2713543895 0 0 0 0 0 111632377.0869834 5675792.697567998 5675792.697567998 5440687.758569401 0 0 0 0 0 113403605.1511425 5166866.864567519 5166866.864567519 2173025.005401642 0 0 0 0 0 113498016.2107138 6475316.549757374 6475316.549757374 7782003.056137331 0 0 0 0 0 116641625.3963546 6163736.476458697 6163736.476458697 4270609.242445976 0 0 0 0 0 113507688.3167251 5244334.214687576 5244334.214687576 1891543.757548972 0 0 0 0 0 121864493.5291664 6199757.156818474 6199757.156818474 3314203.049645627 0 0 0 0 0 116688437.9851341 6366684.791592548 6366684.791592548 4257838.483754038 0 0 0 0 0 118734667.2483473 7502032.886803541 7502032.886803541 11027313.22670894 0 0 0 0 0 125623718.1158317 -236015.5115197287 -236015.5115197287 30513922.65210941 0 0 0 0 0 142372364.7976353 487729.8196727313 487729.8196727312 36213113.30008131 0 0 0 0 0 132675955.0717481 4354872.479165753 4354872.479165753 31404329.9573641 0 0 0 0 0 121290226.0964925 4259832.490415033 4259832.490415033 25437699.08790272 0 0 0 0 0 132286493.4193478 4878610.388368106 4878610.388368106 29819451.63791007 0 0 0 0 0 127213044.462686 7129099.635945814 7129099.635945814 21938417.46888491 0 0 0 0 0 124281125.8307082 7715689.740530006 7715689.740530006 11816378.16651832 0 0 0 0 0 119624833.3539593 6857401.987002807 6857401.987002807 18635389.84251935 0 0 0 0 0 127037774.0027848 7397002.49246725 7397002.49246725 21063274.85033663 0 0 0 0 0 124198596.5757985 7759443.29221216 7759443.29221216 11369197.07579354 0 0 0 0 0 121656174.4555319 6091600.183020364 6091600.183020364 3186680.08690316 0 0 0 0 0 118834548.6727861 7553555.0643392 7553555.064339202 11085683.14278861 0 0 0 0 0 111401092.0655644 2675697.184140306 2675697.184140306 -2227231.856661723 0 0 0 0 0 109882364.111152 3783851.228694101 3783851.228694101 445750.2157091437 0 0 0 0 0 111734854.7451518 4381079.056044079 4381079.056044079 835630.0360438497 0 0 0 0 0 113845121.2080949 3028542.274252916 3028542.274252915 -2466068.100797374 0 0 0 0 0 111576433.1352009 4381020.298608371 4381020.298608372 915162.3246651215 0 0 0 0 0 113550994.4532344 5219328.679182303 5219328.679182303 1956594.221313321 0 0 0 0 0 116932850.306788 6282013.77644576 6282013.77644576 3961912.998718575 0 0 0 0 0 115893897.1439436 4221413.493932774 4221413.493932774 -857121.2672989082 0 0 0 0 0 113374041.5574008 5147725.953759711 5147725.953759711 2122032.119194135 0 0 0 0 0 118792419.7114192 3638152.449367935 3638152.449367937 -2374296.681565999 0 0 0 0 0 117042843.6299973 6431142.840316699 6431142.840316698 4328407.631347789 0 0 0 0 0 121597782.0476436 6123623.093159547 6123623.093159547 3272785.665118311 0 0 0 0 0 131421158.9337303 5132220.80499401 5132220.80499401 29827060.9680724 0 0 0 0 0 142825039.4559096 174731.986555911 174731.986555911 37596527.14695007 0 0 0 0 0 154974405.3673714 1585602.302118989 1585602.302118989 34197625.46915258 0 0 0 0 0 126384161.3073309 7654602.30056827 7654602.30056827 20971013.48960945 0 0 0 0 0 132680811.2489901 4625557.680887605 4625557.680887605 30666824.81409188 0 0 0 0 0 141223423.9016828 5184680.496705909 5184680.496705909 24109314.93023448 0 0 0 0 0 133444234.4037424 6265097.902906821 6265097.902906821 12398826.18205643 0 0 0 0 0 123898996.4065728 7989961.029986925 7989961.029986925 11166017.58323083 0 0 0 0 0 127195473.9656732 7347480.661211708 7347480.661211708 21679399.96575152 0 0 0 0 0 124263169.1667319 7682844.364674957 7682844.364674957 11359653.74951033 0 0 0 0 0 128121242.1121484 4648150.76089003 4648150.76089003 1851352.862937586 0 0 0 0 0 121508454.2568834 6250942.411935791 6250942.411935791 3140130.256189355 0 0 0 0 0 109640885.0733107 2340616.398376668 2340616.398376668 -2041321.310900386 0 0 0 0 0 110045999.8846941 3854289.18388886 3854289.18388886 557764.7449326764 0 0 0 0 0 111217589.4858943 2592733.805227522 2592733.805227522 -2359718.911512454 0 0 0 0 0 111340441.0461391 2605910.288975851 2605910.288975851 -2402985.024442434 0 0 0 0 0 111821662.1874531 4490837.54341328 4490837.54341328 1083259.884413313 0 0 0 0 0 113507193.7682704 2874453.612379261 2874453.612379261 -2701633.236543756 0 0 0 0 0 115718463.4651792 4086513.671753537 4086513.671753537 -1021986.236564308 0 0 0 0 0 113577975.0395102 2821934.461075304 2821934.461075305 -2987252.164250508 0 0 0 0 0 113776644.3714256 5383724.911022732 5383724.911022731 2426808.653211818 0 0 0 0 0 118999704.2206427 3763840.368153453 3763840.368153453 -2110634.863004903 0 0 0 0 0 115847762.225282 4163317.194996008 4163317.194996008 -1081861.698166589 0 0 0 0 0 116971576.0006197 6379619.489688188 6379619.489688188 4204216.026290247 0 0 0 0 0 123199811.9638017 1781728.96108087 1781728.96108087 -4829323.220266838 0 0 0 0 0 118699302.6552557 3772231.108094294 3772231.108094294 -2138367.677101336 0 0 0 0 0 121649300.3429973 5996052.241449133 5996052.241449133 2832370.071806428 0 0 0 0 0 142582334.2928097 3288.024617325867 3288.024617325867 36664253.63087671 0 0 0 0 0 179174702.1981236 488741.5234490242 488741.5234490242 38723383.27997858 0 0 0 0 0 153704270.0898399 867399.2191009137 867399.2191009137 34851844.91780006 0 0 0 0 0 133186665.141576 4757051.869095974 4757051.869095974 30396678.26955464 0 0 0 0 0 152502122.8101521 2125045.856135581 2125045.856135581 33398357.96769983 0 0 0 0 0 140374208.7943523 4989643.77506103 4989643.77506103 24700502.14129319 0 0 0 0 0 132963325.572859 6189429.263956133 6189429.263956133 12706012.87357964 0 0 0 0 0 127627363.7932651 7412471.203523546 7412471.203523546 21390822.51643144 0 0 0 0 0 139810680.7788562 5630402.735431951 5630402.735431951 23593033.36464934 0 0 0 0 0 132620426.4938384 6528705.451804278 6528705.451804278 12050743.62854696 0 0 0 0 0 127563559.8841389 4436336.603130278 4436336.603130278 1640682.933526559 0 0 0 0 0 124712444.9057932 7835543.558613212 7835543.558613212 11459099.93926781 0 0 0 0 0 127378028.0003701 4586683.689086667 4586683.689086668 1684921.69079662 0 0 0 0 0 122527118.0186542 1412968.176889898 1412968.176889899 -5523092.097845881 0 0 0 0 0 122249728.3063193 6295219.686280677 6295219.686280675 3314754.379250181 0 0 0 0 0 109558210.0607586 2346377.487924844 2346377.487924844 -2046597.212147988 0 0 0 0 0 111360541.6115826 2589802.043232446 2589802.043232446 -2362679.695738054 0 0 0 0 0 110371908.79979 389612.4215682209 389612.4215682209 -4785498.948896308 0 0 0 0 0 111267532.280368 2590241.371361756 2590241.371361756 -2371711.183276152 0 0 0 0 0 113629663.5447253 2869924.807453201 2869924.807453201 -2700953.176883681 0 0 0 0 0 111924191.4521626 749016.0500301737 749016.0500301737 -4891262.561441889 0 0 0 0 0 115891913.6120075 4052718.215574457 4052718.215574457 -1319337.344694008 0 0 0 0 0 116201119.4050674 1410931.946733827 1410931.946733827 -5164139.611454203 0 0 0 0 0 113397040.4175885 2849305.197105364 2849305.197105364 -2618604.63540557 0 0 0 0 0 118791591.1775147 3694247.410570347 3694247.410570347 -2098179.81172882 0 0 0 0 0 115811921.7219106 1177153.439483062 1177153.439483062 -5662718.7625012 0 0 0 0 0 116085008.8697611 4172541.053288785 4172541.053288785 -1038869.404998954 0 0 0 0 0 118063310.324797 -1358704.351901147 -1358704.351901147 -8848676.654788798 0 0 0 0 0 119403682.2901754 3949038.414600604 3949038.414600604 -2025513.421513125 0 0 0 0 0 122426806.0293499 1562367.831407872 1562367.831407872 -4941788.25672914 0 0 0 0 0 150343577.5325822 2611762.156744119 2611762.156744119 33736327.65837404 0 0 0 0 0 181890254.5138361 -763566.3151034606 -763566.3151034606 37890541.88583761 0 0 0 0 0 195539260.9188397 -10079417.00356913 -10079417.00356913 31786090.9095418 0 0 0 0 0 138761167.1763444 5987366.872916116 5987366.872916116 23392013.77123379 0 0 0 0 0 153838890.0014015 1301451.362443096 1301451.362443096 34329498.12856001 0 0 0 0 0 162153543.4562747 -2605892.23770915 -2605892.23770915 26360826.69822546 0 0 0 0 0 146929344.9979723 -38564.03199792163 -38564.03199792163 14021885.29237741 0 0 0 0 0 131833231.8606187 7038146.44269018 7038146.44269018 11671459.22369728 0 0 0 0 0 140499546.8241845 5103128.47888202 5103128.47888202 24127564.63817283 0 0 0 0 0 135361901.1198848 28818.81283071518 28818.81283071518 -226688.0459372989 0 0 0 0 0 127161254.9313395 4859398.866942806 4859398.866942806 1424737.704324447 0 0 0 0 0 132928070.7604357 6173508.591219621 6173508.591219621 12086270.38130499 0 0 0 0 0 127561632.279173 4254601.238594639 4254601.238594639 969559.9089975859 0 0 0 0 0 126970259.9094476 -2595120.170906715 -2595120.170906715 -8447665.878642831 0 0 0 0 0 122338492.661157 1694101.339746203 1694101.339746204 -5098387.848475365 0 0 0 0 0 108806830.4821363 780599.5278985959 780599.5278985959 -3661915.514773939 0 0 0 0 0 109636675.0227022 2360015.341198021 2360015.341198021 -2025472.11448816 0 0 0 0 0 110275069.4896063 392203.2892617353 392203.2892617355 -4780876.604889725 0 0 0 0 0 110304283.3740347 298252.5351025537 298252.5351025537 -4904600.613015996 0 0 0 0 0 111392209.8137014 2632094.967224723 2632094.967224723 -2306255.569949082 0 0 0 0 0 111873360.6338105 768667.7067418997 768667.7067418997 -4859787.730387893 0 0 0 0 0 113575112.1281057 2850355.168731791 2850355.168731791 -2927176.397007755 0 0 0 0 0 113588141.6626939 -584962.0129899399 -584962.0129899399 -6734266.839840237 0 0 0 0 0 111917106.2982602 791776.6669754465 791776.6669754465 -4852818.224911318 0 0 0 0 0 113908730.532036 3050942.658949826 3050942.658949826 -2504033.568463348 0 0 0 0 0 115835540.8161665 1292447.68350342 1292447.68350342 -5250645.59053334 0 0 0 0 0 113242525.7311609 -797858.595408899 -797858.5954088989 -7195153.970852257 0 0 0 0 0 118710256.0963412 -986821.019362177 -986821.019362177 -8101977.323764819 0 0 0 0 0 115785337.0661692 1273753.676880999 1273753.676880999 -5304146.103427622 0 0 0 0 0 118773069.0543962 3614612.754882598 3614612.754882598 -2615421.663258395 0 0 0 0 0 120304222.9181681 -5315211.752990348 -5315211.752990349 -11723410.9406837 0 0 0 0 0 117949056.1532321 -1134839.2770088 -1134839.2770088 -8278637.70472086 0 0 0 0 0 122522534.6698943 1307894.099755739 1307894.099755739 -5780433.078337004 0 0 0 0 0 183825873.5111059 992990.0841724614 992990.08417246 39000266.51034349 0 0 0 0 0 275088139.2731654 -3354401.18241863 -3354401.18241863 13527126.69849089 0 0 0 0 0 189060478.1685994 -16957298.17263134 -16957298.17263134 33813693.64305277 0 0 0 0 0 157139657.8135914 3006309.850422929 3006309.850422929 35814305.98077846 0 0 0 0 0 185365745.8823149 -11392650.78181576 -11392650.78181576 28563707.43484079 0 0 0 0 0 159024356.4958706 -3945833.905130253 -3945833.905130252 27621754.14965732 0 0 0 0 0 145301587.5529044 -575284.0715731678 -575284.0715731678 13642863.75398326 0 0 0 0 0 142263213.3760972 5672889.984176857 5672889.984176857 24494969.41415432 0 0 0 0 0 158249757.5733638 -2057675.308574305 -2057675.308574305 25070329.14370362 0 0 0 0 0 133839068.2773879 -541673.4699833767 -541673.4699833768 -692710.7001430857 0 0 0 0 0 134591024.2763354 6782258.201072764 6782258.201072764 12535279.94606076 0 0 0 0 0 143714398.9014869 612206.2612805141 612206.2612805144 12839772.27893828 0 0 0 0 0 133267344.2385685 -93830.10085177756 -93830.10085177756 -730965.6618433793 0 0 0 0 0 125682504.3276954 -3256997.685917725 -3256997.685917725 -9546510.646555059 0 0 0 0 0 128932443.7648119 4906424.569396057 4906424.569396057 1878504.816700463 0 0 0 0 0 125400151.8973301 -2916917.241669295 -2916917.241669295 -8712856.565843711 0 0 0 0 0 119234289.2624683 -5901342.03496505 -5901342.03496505 -12819263.55346765 0 0 0 0 0 123683759.6861441 1893509.594650429 1893509.594650429 -4834081.842342422 0 0 0 0 0 108537757.3486155 -1168655.285269774 -1168655.285269774 -5570603.501505815 0 0 0 0 0 108816140.1856261 803519.5392279174 803519.5392279174 -3689942.219716603 0 0 0 0 0 110239594.6540431 332530.7894082725 332530.7894082725 -4709017.504067659 0 0 0 0 0 111222612.3354837 -1663671.265745729 -1663671.265745729 -6894793.688026249 0 0 0 0 0 110141357.6892957 324679.4571784756 324679.4571784756 -4782821.021534805 0 0 0 0 0 111953996.5035175 772139.2159974067 772139.2159974067 -4996298.990493189 0 0 0 0 0 113155958.7239127 -733721.2983458823 -733721.2983458823 -6791604.661945034 0 0 0 0 0 110938743.0757408 -1827012.426592694 -1827012.426592694 -7199455.772648718 0 0 0 0 0 112183770.6529757 895660.6492766858 895660.6492766858 -4822499.272081182 0 0 0 0 0 115858091.4777247 1148063.876308663 1148063.876308663 -5776513.078613561 0 0 0 0 0 114704537.0884801 -3142602.838968726 -3142602.838968726 -9234547.921910729 0 0 0 0 0 113209549.5949974 -673527.5555799344 -673527.5555799343 -6810469.654374969 0 0 0 0 0 117972273.9985703 -1197713.857973197 -1197713.857973197 -8201249.543213848 0 0 0 0 0 114165702.1686058 -3455110.919579684 -3455110.919579684 -9870127.93731777 0 0 0 0 0 116428398.2172728 1455913.543891227 1455913.543891227 -5216880.268293793 0 0 0 0 0 114151725.294137 -7511116.404279254 -7511116.404279254 -12963769.00355884 0 0 0 0 0 118973154.2548047 -936754.4686510593 -936754.4686510593 -8097806.062262913 0 0 0 0 0 119031351.2222085 -5606947.409999311 -5606947.409999311 -11926332.42057336 0 0 0 0 0 306137680.1754421 -12893664.69528836 -12893664.69528835 2714680.799314214 0 0 0 0 0 266408279.6850039 -64472426.42908452 -64472426.42908453 24415313.48593789 0 0 0 0 0 168172882.6626615 -8317501.929841674 -8317501.929841671 28650763.25325841 0 0 0 0 0 192457193.6606792 -15057422.76909746 -15057422.76909746 33236053.10424468 0 0 0 0 0 170042692.1333237 -19481141.36918765 -19481141.36918765 21380114.90735159 0 0 0 0 0 157071839.8676136 -2970312.706448028 -2970312.706448028 26589146.00050179 0 0 0 0 0 168653070.9411722 -19673031.47594665 -19673031.47594665 21014371.42405327 0 0 0 0 0 142929977.2026404 1640818.141443281 1640818.141443281 11476159.36112423 0 0 0 0 0 159429967.9525997 -3035731.348332096 -3035731.348332096 26692923.63265678 0 0 0 0 0 132692717.6758474 608591.7479768532 608591.7479768532 -1469351.78425463 0 0 0 0 0 144914060.9335611 -628826.0879232873 -628826.0879232872 13495350.25983156 0 0 0 0 0 140815945.0500664 -10620063.78020194 -10620063.78020194 -785883.6183784712 0 0 0 0 0 127508842.9813579 -10675414.71938787 -10675414.71938787 -12251456.45485854 0 0 0 0 0 125263493.9966077 -2671755.124694907 -2671755.124694907 -9016287.055177022 0 0 0 0 0 133824050.8698523 -898828.1326528883 -898828.1326528883 -1560453.611312205 0 0 0 0 0 125660739.0551065 -3428323.708103607 -3428323.708103608 -9767021.215045333 0 0 0 0 0 119020488.3066964 -12144428.42868006 -12144428.42868006 -15544556.50720124 0 0 0 0 0 119031525.2734708 -5516001.077104838 -5516001.077104838 -12058195.54417134 0 0 0 0 0 107645478.7714712 -658851.4646214553 -658851.4646214554 -4595283.994195224 0 0 0 0 0 108760828.04934 759209.2255347632 759209.2255347633 -3770804.719825238 0 0 0 0 0 108613232.7429715 -1104383.111010029 -1104383.111010029 -5452384.317300585 0 0 0 0 0 108550073.8087982 -1118890.925928803 -1118890.925928803 -5425367.347290616 0 0 0 0 0 110205439.6943474 268833.588065181 268833.588065181 -4964648.210155506 0 0 0 0 0 109332737.2637231 -2389050.739837708 -2389050.739837708 -6779367.072121787 0 0 0 0 0 110507778.1365358 431795.422136646 431795.422136646 -4669273.26575301 0 0 0 0 0 110880152.6863962 -1743455.674548635 -1743455.674548635 -7000218.070202162 0 0 0 0 0 109125390.8898865 -2506353.284826461 -2506353.284826461 -7009348.833150471 0 0 0 0 0 111338686.4581721 -4319038.325865208 -4319038.325865208 -8999125.926255703 0 0 0 0 0 110873546.3620557 -1771448.555925406 -1771448.555925406 -7049070.478594028 0 0 0 0 0 113225405.3444116 -801631.749857557 -801631.749857557 -7124208.90822133 0 0 0 0 0 114061882.4948694 -3314765.571560412 -3314765.571560412 -9347083.954429755 0 0 0 0 0 110935821.7494489 -4556316.19558508 -4556316.19558508 -9463077.506610071 0 0 0 0 0 113655112.1729533 -559083.8974459093 -559083.8974459094 -6730527.096377212 0 0 0 0 0 114954467.9228779 -7072190.09154135 -7072190.09154135 -12145792.9896194 0 0 0 0 0 114079118.1683991 -3263765.109719093 -3263765.109719093 -9389563.435748193 0 0 0 0 0 118042044.0537723 -1409093.328404933 -1409093.328404933 -8869337.369534396 0 0 0 0 0 112666659.4002361 -12867109.54278021 -12867109.54278021 -15072763.83423261 0 0 0 0 0 113992462.9149558 -7231171.483482498 -7231171.483482498 -12373434.86833298 0 0 0 0 0 119226166.1374027 -5961074.006155794 -5961074.006155794 -12709584.38815237 0 0 0 0 0 228979359.3620818 -56498923.74352448 -56498923.74352448 14741859.88906263 0 0 0 0 0 168055847.0381336 -24290284.340995 -24290284.340995 29262428.12525829 0 0 0 0 0 197728841.2666982 -9391724.86960995 -9391724.86960995 37206419.92947557 0 0 0 0 0 148766078.0653508 553280.8701795853 553280.8701795853 13485078.69341601 0 0 0 0 0 160400112.9942038 -18988085.59041325 -18988085.59041325 19167374.79708186 0 0 0 0 0 137108195.6691687 -11351137.66492359 -11351137.66492359 973697.9283320663 0 0 0 0 0 125394264.9899743 -11651055.93940603 -11651055.93940603 -13484212.11613946 0 0 0 0 0 136474974.9098358 264759.6194925189 264759.619492519 -314589.9347146024 0 0 0 0 0 136081104.3792949 -10614155.08423459 -10614155.08423459 -1967321.096158173 0 0 0 0 0 124832754.1787732 -11094377.53432843 -11094377.53432843 -12758315.75603073 0 0 0 0 0 117502630.2506396 -12942614.43588092 -12942614.43588092 -16941088.69603617 0 0 0 0 0 127528988.8906915 -2535943.755835426 -2535943.755835426 -8478498.523393231 0 0 0 0 0 117152139.4873188 -12494905.90163772 -12494905.90163772 -15847381.5341227 0 0 0 0 0 111613815.6411275 -13420616.62201747 -13420616.62201747 -16039456.24420943 0 0 0 0 0 120522645.2974564 -5330857.284465953 -5330857.284465953 -11766059.44218148 0 0 0 0 0 107666901.5593799 -641581.9873121512 -641581.9873121512 -4624611.653386758 0 0 0 0 0 108556898.8073494 -1127685.938616911 -1127685.938616911 -5411902.676489589 0 0 0 0 0 107025263.5840704 -2346523.577841809 -2346523.577841809 -5811440.986576269 0 0 0 0 0 108693354.4396408 -1066208.513248208 -1066208.513248208 -5422044.651341027 0 0 0 0 0 109045885.8413266 -2475442.607327666 -2475442.607327666 -6797774.656907664 0 0 0 0 0 107555700.3777937 -3028554.573854167 -3028554.573854167 -6595456.382165527 0 0 0 0 0 110988242.036788 -1837847.625853139 -1837847.625853139 -7211222.63149184 0 0 0 0 0 108811886.6927457 -4778842.056177536 -4778842.056177536 -8297347.98660488 0 0 0 0 0 109050542.7383905 -2439425.478817846 -2439425.478817846 -6837341.622848867 0 0 0 0 0 110833286.8963755 -4414178.343201944 -4414178.343201944 -9142069.295549821 0 0 0 0 0 108590654.0411968 -4912734.531055695 -4912734.531055695 -8541712.609738838 0 0 0 0 0 111265826.8016336 -1671818.713774042 -1671818.713774042 -6940336.23455942 0 0 0 0 0 114168683.2603396 -3463771.29505612 -3463771.29505612 -9787754.297722237 0 0 0 0 0 110626287.8642706 -7934740.932979314 -7934740.932979314 -11211721.80243445 0 0 0 0 0 110826945.8257385 -4424370.478593724 -4424370.478593724 -9176387.160300642 0 0 0 0 0 113973642.4097016 -7277627.454190874 -7277627.454190874 -12298890.05867737 0 0 0 0 0 110026558.3887128 -8259715.483172129 -8259715.483172129 -11778082.19708435 0 0 0 0 0 114827461.8191937 -3123236.495289382 -3123236.495289382 -9264368.779750565 0 0 0 0 0 111365344.0501138 -13073481.48867113 -13073481.48867113 -15304992.88316799 0 0 0 0 0 107316785.0948323 -13083182.46516426 -13083182.46516426 -13831080.68895907 0 0 0 0 0 115032038.7199917 -7105941.655447451 -7105941.655447451 -12166890.94129277 0 0 0 0 0 256074355.2636176 -71030374.06306449 -71030374.06306449 28556836.32254528 0 0 0 0 0 164511236.8901155 -86919884.77632776 -86919884.77632776 46647421.38281524 0 0 0 0 0 150759447.0625646 -14442198.74871546 -14442198.74871546 14054646.52570065 0 0 0 0 0 166433022.8869249 -25289272.32955855 -25289272.32955855 25826337.96424666 0 0 0 0 0 130737223.7418869 -31455769.68545092 -31455769.68545092 6539857.144110734 0 0 0 0 0 133700822.6627527 -8219563.209341334 -8219563.209341334 -4088095.985760852 0 0 0 0 0 117339763.2470089 -23013329.33255281 -23013329.33255281 -14196822.50851817 0 0 0 0 0 124611186.458261 -10612519.48599029 -10612519.48599029 -13358253.68885695 0 0 0 0 0 137645536.7262116 -12522381.88465023 -12522381.88465023 -1628050.414090655 0 0 0 0 0 125356376.9350393 -11935155.35403994 -11935155.35403994 -13815454.56566607 0 0 0 0 0 110648180.4502671 -21604148.75117769 -21604148.75117769 -18594590.49931585 0 0 0 0 0 117235091.5639903 -12426711.66533926 -12426711.66533926 -16024042.87111707 0 0 0 0 0 117469088.8708675 -13016419.30460745 -13016419.30460745 -16637987.93566428 0 0 0 0 0 105389101.7817497 -20365000.51128181 -20365000.51128181 -17248183.73198124 0 0 0 0 0 111429867.2238271 -13074881.36197984 -13074881.36197984 -15380524.79526112 0 0 0 0 0 106336541.2940668 -1835037.667821418 -1835037.667821418 -4969836.486117146 0 0 0 0 0 107603156.4030507 -682001.3005472034 -682001.3005472034 -4693351.71955071 0 0 0 0 0 107091810.0086498 -2296306.609545471 -2296306.609545471 -5724449.099323784 0 0 0 0 0 107057916.5321987 -2328236.420820616 -2328236.420820616 -5690559.313155338 0 0 0 0 0 108515030.210683 -1153612.211426242 -1153612.211426242 -5568335.313100242 0 0 0 0 0 107647671.6629353 -2980124.45990012 -2980124.45990012 -6507547.878839466 0 0 0 0 0 109094569.5097923 -2534929.404821905 -2534929.404821905 -6924682.936271247 0 0 0 0 0 107034256.6253483 -4707743.21069326 -4707743.21069326 -7428180.513772745 0 0 0 0 0 107519129.2802776 -2983565.263436275 -2983565.263436275 -6497709.398091605 0 0 0 0 0 108481044.9083476 -4845512.103996401 -4845512.103996401 -8406556.27327656 0 0 0 0 0 106946289.9681494 -4767079.043165661 -4767079.043165661 -7507702.907391655 0 0 0 0 0 109276669.9279481 -2411891.961825039 -2411891.961825039 -6765732.353411419 0 0 0 0 0 110977317.9340387 -4542486.254089909 -4542486.254089909 -9393704.305244848 0 0 0 0 0 106984701.230343 -8418766.833983297 -8418766.833983297 -9852761.155234369 0 0 0 0 0 108469382.5181352 -4809704.488647993 -4809704.488647993 -8403066.977491543 0 0 0 0 0 111442774.8571205 -4305847.947882408 -4305847.947882408 -9057106.192748098 0 0 0 0 0 109904608.0333135 -8066138.539669853 -8066138.539669853 -11354700.97858405 0 0 0 0 0 106516090.362825 -8655196.924762798 -8655196.924762798 -10180339.16377873 0 0 0 0 0 114129957.2937397 -7535972.125291089 -7535972.125291089 -12792645.13624459 0 0 0 0 0 108047953.8637179 -12719262.66568161 -12719262.66568161 -13251842.5012612 0 0 0 0 0 109894071.0487631 -8044724.196906865 -8044724.196906865 -11380377.59599412 0 0 0 0 0 111600961.0108986 -13425623.05577148 -13425623.05577148 -15703085.96654698 0 0 0 0 0 101699900.1849265 -18511016.55426706 -18511016.55426706 -14406931.1006029 0 0 0 0 0 107173464.5752168 -12840696.03979857 -12840696.03979857 -13460672.46038015 0 0 0 0 0 176407873.6633442 -20823341.93050809 -20823341.93050809 21565249.94584367 0 0 0 0 0 142196430.3842454 -73758998.88017635 -73758998.88017635 40328999.87636059 0 0 0 0 0 127062790.306418 -32691857.56787075 -32691857.56787075 12557631.08255946 0 0 0 0 0 122757418.3988218 -30713879.79631775 -30713879.79631775 4069905.347299376 0 0 0 0 0 114806370.9950416 -24000780.14048959 -24000780.14048959 -14719269.41340666 0 0 0 0 0 142153256.5930081 -10723174.89966973 -10723174.89966972 -482331.5569108436 0 0 0 0 0 114110542.9377042 -23628202.73703882 -23628202.73703882 -14732418.12414642 0 0 0 0 0 108941244.9427492 -22511762.83473593 -22511762.83473593 -20222310.23222522 0 0 0 0 0 127851145.6515761 -10815707.07231268 -10815707.07231268 -12396542.94581067 0 0 0 0 0 119000271.3515682 -12297254.09402509 -12297254.09402509 -15629962.50541278 0 0 0 0 0 108553553.0249458 -22052122.15703725 -22052122.15703725 -18905488.1899096 0 0 0 0 0 104286352.9480581 -20939551.73023078 -20939551.73023077 -18240941.27448748 0 0 0 0 0 112555848.0313518 -12992078.52743464 -12992078.52743464 -15134628.6817889 0 0 0 0 0 104005697.1852507 -20568955.43021852 -20568955.43021852 -17493615.83779096 0 0 0 0 0 101026959.7146984 -18830666.82059835 -18830666.82059835 -14872754.81422468 0 0 0 0 0 106348433.2524613 -1821969.200680905 -1821969.200680905 -5002065.289615482 0 0 0 0 0 107060949.7217637 -2305033.713533175 -2305033.713533175 -5696898.731885813 0 0 0 0 0 105749652.9804557 -3182028.974099806 -3182028.974099806 -5741083.004387199 0 0 0 0 0 105702178.0117524 -4291024.32152427 -4291024.32152427 -6562208.731007157 0 0 0 0 0 107133135.6061849 -2298768.070228241 -2298768.070228241 -5740768.777308307 0 0 0 0 0 107557487.4154636 -3008337.710466699 -3008337.710466699 -6459005.196467602 0 0 0 0 0 106876787.0861366 -4737171.03554585 -4737171.03554585 -7482030.613858608 0 0 0 0 0 105748060.2567186 -4258146.742708473 -4258146.742708473 -6444028.582810105 0 0 0 0 0 107553860.565306 -2994835.534899275 -2994835.534899275 -6490831.156984445 0 0 0 0 0 108576453.6336226 -4903363.121125448 -4903363.121125448 -8393744.35007574 0 0 0 0 0 105358079.3593135 -7180413.233589784 -7180413.233589784 -8277043.699242702 0 0 0 0 0 106869826.424776 -4721511.068962249 -4721511.068962249 -7477855.111119576 0 0 0 0 0 106561701.8890464 -8435348.907248296 -8435348.907248296 -9979515.919115193 0 0 0 0 0 105319397.2637156 -7208821.305125129 -7208821.305125129 -8256315.889921138 0 0 0 0 0 108743093.0822389 -4787356.166193916 -4787356.166193916 -8321146.400749899 0 0 0 0 0 109995461.6796117 -8280187.707816307 -8280187.707816307 -11658445.10435575 0 0 0 0 0 104782019.8204959 -12099379.81419674 -12099379.81419674 -11227761.6885735 0 0 0 0 0 106410102.4890913 -8404104.642667195 -8404104.642667195 -9821433.207881246 0 0 0 0 0 110691308.4840118 -7981055.680794494 -7981055.680794494 -11222788.75512975 0 0 0 0 0 107128457.3635964 -12814505.98469896 -12814505.98469896 -13419902.03666445 0 0 0 0 0 104234889.3473138 -12330216.64549215 -12330216.64549215 -11555352.50298876 0 0 0 0 0 107933555.5401247 -12825716.96691002 -12825716.96691002 -13273102.2897314 0 0 0 0 0 100818821.2135155 -18572440.92613341 -18572440.9261334 -14599539.24923468 0 0 0 0 0 98852328.6173304 -16712984.38423883 -16712984.38423883 -11842531.53851936 0 0 0 0 0 152910020.2562733 -81702501.02323043 -81702501.02323043 56311916.93395828 0 0 0 0 0 56264578.76313257 -57046748.52561026 -57046748.52561026 45571497.81132333 0 0 0 0 0 121315123.0827359 -28883506.46812517 -28883506.46812517 1265893.957743676 0 0 0 0 0 125977358.1609365 -34097027.44962973 -34097027.44962973 8713101.325283948 0 0 0 0 0 73716864.53537376 -31992942.09074574 -31992942.09074574 -12443379.89367791 0 0 0 0 0 114558119.8132007 -23664762.63422294 -23664762.63422294 -14895558.75073984 0 0 0 0 0 114602701.0164697 -24445481.01612178 -24445481.01612178 -15852941.43657685 0 0 0 0 0 88075623.16074929 -30684244.75215557 -30684244.75215557 -19427961.71522398 0 0 0 0 0 109064624.810991 -22341341.56080334 -22341341.56080334 -18858224.9773981 0 0 0 0 0 104247414.4122034 -20712817.28521017 -20712817.28521017 -17472570.76961207 0 0 0 0 0 108862252.7908577 -22566158.9242672 -22566158.9242672 -19563445.99298105 0 0 0 0 0 89541372.67246771 -28020256.68666054 -28020256.68666054 -17624196.15938198 0 0 0 0 0 100935270.5881355 -18653835.69234774 -18653835.69234774 -14578749.96413417 0 0 0 0 0 104262117.0070754 -20907799.43586528 -20907799.43586528 -17661292.23467681 0 0 0 0 0 89626644.07471861 -24355870.56800282 -24355870.56800282 -13969767.28893802 0 0 0 0 0 105012224.2967681 -2713627.890484498 -2713627.890484498 -4970772.786603774 0 0 0 0 0 106306833.0057685 -1848075.453211008 -1848075.453211009 -5035146.014622046 0 0 0 0 0 105782149.8068876 -3146730.847937857 -3146730.847937857 -5700463.065387588 0 0 0 0 0 107023871.9585358 -2347852.646421435 -2347852.646421435 -5821292.097766171 0 0 0 0 0 105816455.3003085 -4224624.007706496 -4224624.007706496 -6444864.747335835 0 0 0 0 0 105766339.5679972 -3147780.995668009 -3147780.99566801 -5684821.130557248 0 0 0 0 0 105717467.9733881 -4237041.653218438 -4237041.653218438 -6504655.450363766 0 0 0 0 0 106931914.9241234 -4767547.845681356 -4767547.845681356 -7431899.653900656 0 0 0 0 0 104253146.5287016 -6451164.909427569 -6451164.909427569 -7146216.979772986 0 0 0 0 0 106971109.7160381 -4734440.244360276 -4734440.244360276 -7452099.641805029 0 0 0 0 0 105230805.7423224 -7176762.652807853 -7176762.652807853 -8312900.882753976 0 0 0 0 0 104233321.8621646 -6470764.621637305 -6470764.621637305 -7101590.353120685 0 0 0 0 0 102156510.714558 -10166554.10047391 -10166554.10047391 -8628813.141092876 0 0 0 0 0 105284310.3044264 -7185788.642157801 -7185788.642157803 -8318568.704982068 0 0 0 0 0 106609310.4638957 -8475433.417045437 -8475433.417045437 -9816177.656949027 0 0 0 0 0 107030348.646906 -8347769.340326524 -8347769.340326524 -9780074.958001982 0 0 0 0 0 104143255.2953638 -12123146.63534349 -12123146.63534349 -11305940.50928966 0 0 0 0 0 101854918.4320104 -11924062.78668474 -11924062.78668474 -9803647.531493405 0 0 0 0 0 104132039.658152 -12154216.31352864 -12154216.31352864 -11350429.08371401 0 0 0 0 0 107313355.0736085 -13078122.56857489 -13078122.56857489 -13580044.33045864 0 0 0 0 0 99296864.54908168 -16544011.32692872 -16544011.32692872 -11668370.47474087 0 0 0 0 0 101018925.6893962 -18791095.28260456 -18791095.28260457 -14486973.07029978 0 0 0 0 0 90064158.97655293 -20587355.30667284 -20587355.30667283 -10706556.90779591 0 0 0 0 0 98767153.73284762 -16588199.85593815 -16588199.85593815 -11771953.01967887 0 0 0 0 0 54951278.01266803 -47224480.03299395 -47224480.03299395 41189480.71400466 0 0 0 0 0 76165380.52612583 -31387081.96476629 -31387081.96476629 -12994210.57348283 0 0 0 0 0 128486169.7372801 -34130896.49221572 -34130896.49221572 5403125.16548645 0 0 0 0 0 114945880.6211386 -24107355.00639721 -24107355.00639721 -14645516.91594497 0 0 0 0 0 77542635.28802262 -34444532.81406146 -34444532.81406146 -10577114.19497577 0 0 0 0 0 88295517.77853692 -31081017.5448981 -31081017.5448981 -22199206.21663883 0 0 0 0 0 109630152.5961186 -22148848.74803681 -22148848.74803681 -18788817.07928818 0 0 0 0 0 88166678.92803851 -31295830.65041221 -31295830.65041221 -19131717.027806 0 0 0 0 0 89005138.03562158 -28404412.48653021 -28404412.48653021 -18592065.45597283 0 0 0 0 0 89360034.8635588 -24487305.90030343 -24487305.90030343 -14180376.91059918 0 0 0 0 0 104817996.4872917 -20663194.81461599 -20663194.81461599 -17352220.88620472 0 0 0 0 0 88964014.15826759 -28239324.11633955 -28239324.11633955 -17652336.88926168 0 0 0 0 0 101276425.08091 -18702424.61163281 -18702424.61163281 -14463420.00364142 0 0 0 0 0 89276978.84075366 -24358972.1474406 -24358972.1474406 -14057812.92226562 0 0 0 0 0 90046665.21033895 -20564583.21523863 -20564583.21523863 -10575493.69328447 0 0 0 0 0 104490068.6802631 -4106810.011970835 -4106810.011970835 -5669187.236765006 0 0 0 0 0 105023376.7072674 -2704599.991394199 -2704599.991394199 -5015457.393725155 0 0 0 0 0 105776307.3790215 -3148972.293381366 -3148972.293381366 -5686295.268732192 0 0 0 0 0 105645955.2911587 -4268718.135331517 -4268718.135331517 -6439981.835212297 0 0 0 0 0 104463937.5996582 -4131901.428877128 -4131901.428877128 -5676428.060578314 0 0 0 0 0 105795511.140684 -3127806.613480065 -3127806.613480065 -5696599.367660227 0 0 0 0 0 103323431.4780653 -5785352.130449871 -5785352.130449871 -6117758.306955346 0 0 0 0 0 105788760.0128425 -4268395.636852056 -4268395.636852056 -6490872.932280511 0 0 0 0 0 104172168.1705004 -6436628.275994949 -6436628.275994949 -7166653.321726157 0 0 0 0 0 105315704.326032 -7229027.808986539 -7229027.808986539 -8213974.20189887 0 0 0 0 0 101798193.2232798 -8745729.460009279 -8745729.460009279 -7344276.300114709 0 0 0 0 0 104185421.6625123 -6440649.331072702 -6440649.331072702 -7172922.817059427 0 0 0 0 0 102215490.4572942 -10082229.03188684 -10082229.03188684 -8600506.033468846 0 0 0 0 0 101823635.5748798 -8728021.770698087 -8728021.770698087 -7232689.03836953 0 0 0 0 0 105306327.5678454 -7236939.548542925 -7236939.548542925 -8318527.556489354 0 0 0 0 0 102240281.7501002 -10112255.32003434 -10112255.32003434 -8456671.532321956 0 0 0 0 0 106469972.136658 -8565058.910401631 -8565058.910401631 -10106597.41206565 0 0 0 0 0 102092512.2393545 -11834633.28836829 -11834633.28836829 -9668449.754852172 0 0 0 0 0 104211010.8648912 -12344498.39875586 -12344498.39875586 -11388580.49585715 0 0 0 0 0 97902359.21977861 -14622310.10113877 -14622310.10113877 -9461724.833075322 0 0 0 0 0 101823301.9568102 -11744517.89829104 -11744517.89829104 -9652520.700384501 0 0 0 0 0 104640882.8039965 -12185944.74293193 -12185944.74293193 -11203062.00312871 0 0 0 0 0 98718743.59618646 -16543418.48977727 -16543418.48977727 -11814494.47073578 0 0 0 0 0 97726127.84632701 -14667484.05903992 -14667484.05903992 -9471724.385250324 0 0 0 0 0 89987300.25189698 -20519489.39212983 -20519489.39212983 -10760239.98803955 0 0 0 0 0 90660062.48035824 -17407640.07628097 -17407640.07628097 -8025426.694863491 0 0 0 0 0 98892853.62429455 -16678718.74798288 -16678718.74798288 -11694127.91312601 0 0 0 0 0 55591526.23054377 -43552222.27342217 -43552222.27342217 46433959.41186349 0 0 0 0 0 -2640121.303690038 -6914930.592971032 -6914930.592971032 -134779.7072461624 0 0 0 0 0 76337444.10435066 -34011405.51591218 -34011405.51591218 -14586539.66363535 0 0 0 0 0 90297161.45627712 -32394441.47735081 -32394441.47735081 -18727308.96308018 0 0 0 0 0 73292481.96882454 -31440756.9479472 -31440756.9479472 -15183301.13688776 0 0 0 0 0 58584145.63274246 -32730463.69631128 -32730463.69631128 -18982830.13257197 0 0 0 0 0 89506861.04046984 -28680714.81429113 -28680714.81429113 -17293686.80133462 0 0 0 0 0 87696635.0752621 -31050845.90046038 -31050845.90046038 -20399650.77866234 0 0 0 0 0 64452221.23329067 -31725182.96029399 -31725182.96029399 -16046300.00801907 0 0 0 0 0 70548579.17479379 -27837358.12495921 -27837358.1249592 -11542143.07071549 0 0 0 0 0 89501378.42444786 -24580278.98379967 -24580278.98379967 -13869722.73858953 0 0 0 0 0 88977646.49975701 -28260654.32427041 -28260654.32427042 -17667504.26777074 0 0 0 0 0 90116379.09926304 -20665395.21469946 -20665395.21469947 -10651029.15660496 0 0 0 0 0 89363330.02914546 -24363017.74990398 -24363017.74990398 -13656193.31979883 0 0 0 0 0 75892201.00814898 -23125828.79105695 -23125828.79105693 -8084107.658490685 0 0 0 0 0 103357474.2420254 -5761299.619475387 -5761299.619475387 -6131942.620366791 0 0 0 0 0 104429261.8101538 -4108374.758851388 -4108374.758851388 -5699918.589638244 0 0 0 0 0 105715761.3997646 -4319186.845683599 -4319186.845683598 -6487039.454686929 0 0 0 0 0 101361402.8168974 -7590868.475059773 -7590868.475059773 -6255973.125034466 0 0 0 0 0 103276272.7099919 -5756007.634449564 -5756007.634449564 -6170576.427472973 0 0 0 0 0 104229031.61819 -6472678.80862121 -6472678.80862121 -7077074.222749255 0 0 0 0 0 101784417.6797452 -8704309.100077668 -8704309.100077668 -7344921.236918571 0 0 0 0 0 101387342.2217357 -7574717.875662584 -7574717.875662585 -6160654.01713269 0 0 0 0 0 104217898.1843024 -6479179.85261742 -6479179.85261742 -7166442.873646549 0 0 0 0 0 98008676.20926428 -11016105.97998759 -11016105.97998759 -6886000.99654812 0 0 0 0 0 101825783.7581685 -8723124.806281818 -8723124.806281818 -7341871.228708016 0 0 0 0 0 102256586.8373271 -10112733.75029326 -10112733.75029326 -8453540.097063255 0 0 0 0 0 97454420.40532917 -12852140.12071093 -12852140.12071093 -7994698.929130043 0 0 0 0 0 102347582.6343277 -10119962.12554888 -10119962.12554888 -8604609.019594345 0 0 0 0 0 101863050.5466245 -11785688.53859172 -11785688.53859172 -9515545.729200212 0 0 0 0 0 97665601.34983872 -14607528.13900567 -14607528.13900567 -9533525.216070671 0 0 0 0 0 97555305.33771914 -12783464.13375469 -12783464.13375468 -7796302.361615622 0 0 0 0 0 101889175.6636993 -11785833.67061405 -11785833.67061405 -9617394.855457941 0 0 0 0 0 98868791.58622988 -16662841.25777429 -16662841.25777428 -11583362.33561472 0 0 0 0 0 90574298.26031302 -17487270.95643185 -17487270.95643186 -8265789.032912588 0 0 0 0 0 97658536.10745654 -14597990.50384885 -14597990.50384885 -9508842.958693912 0 0 0 0 0 90063867.01886344 -20504170.21022984 -20504170.21022984 -10345041.49890168 0 0 0 0 0 81181467.05398358 -19012906.17039022 -19012906.17039022 -6061016.457331761 0 0 0 0 0 90661187.02979308 -17449753.11618613 -17449753.11618613 -8179229.461831148 0 0 0 0 0 73684000.2369808 -35970984.60806204 -35970984.60806204 -11861296.55054516 0 0 0 0 0 6128051.284851553 -6771309.164451146 -6771309.164451146 14727.21587533577 0 0 0 0 0 29782856.00968336 -24888967.21623966 -24888967.21623966 -27199069.0421833 0 0 0 0 0 70927456.1151623 -34325038.91328426 -34325038.91328426 -10020312.63275911 0 0 0 0 0 28875130.72225388 -23228685.28711179 -23228685.28711179 -25165085.96809466 0 0 0 0 0 59136479.96331296 -32177405.11281421 -32177405.1128142 -19308221.64737905 0 0 0 0 0 64881505.25629305 -31750406.74510951 -31750406.74510951 -16760318.78798138 0 0 0 0 0 86969335.69221735 -31163392.47409285 -31163392.47409284 -19879876.37044579 0 0 0 0 0 60337849.10967909 -33620391.23213703 -33620391.23213703 -18343715.27007849 0 0 0 0 0 71084636.85650304 -27671404.04414709 -27671404.04414709 -11463786.04592181 0 0 0 0 0 88456727.8692963 -28414211.32570118 -28414211.32570118 -17714885.51001862 0 0 0 0 0 65569345.10528224 -32043770.37093606 -32043770.37093606 -15578381.80110248 0 0 0 0 0 76506647.39956528 -22820293.22579779 -22820293.22579779 -7571341.299270252 0 0 0 0 0 88858443.16146822 -24598044.96778596 -24598044.96778596 -14013713.57812005 0 0 0 0 0 71344745.65846881 -27841744.04990207 -27841744.04990208 -11346385.86466892 0 0 0 0 0 89595279.47064042 -20744531.87782807 -20744531.87782807 -10734730.64922055 0 0 0 0 0 76789345.69728281 -23031231.53735304 -23031231.53735304 -7914942.015622741 0 0 0 0 0 81660854.29955907 -18752675.31087658 -18752675.31087658 -5587882.736878245 0 0 0 0 0 98386383.25694849 -9374324.761715807 -9374324.761715807 -5852738.726181424 0 0 0 0 0 101373004.333953 -7563460.968194991 -7563460.968194991 -6265080.726172104 0 0 0 0 0 101822071.9194816 -8730411.889405796 -8730411.889405796 -7201266.20376813 0 0 0 0 0 98490495.71551456 -9308084.528714815 -9308084.528714815 -5681051.754718813 0 0 0 0 0 101724865.7738634 -8792506.767390788 -8792506.767390788 -7373131.237443697 0 0 0 0 0 98155023.15561098 -10936616.30013924 -10936616.30013924 -6840969.696188707 0 0 0 0 0 98129407.58592193 -10938476.77548512 -10938476.77548512 -6667016.090737074 0 0 0 0 0 102120410.844976 -10199542.92703636 -10199542.92703636 -8684867.724480532 0 0 0 0 0 97595864.35197222 -12786379.19238032 -12786379.19238031 -7942097.303573548 0 0 0 0 0 91532160.25056331 -14882559.24589788 -14882559.24589788 -6618501.733575871 0 0 0 0 0 97543697.31833205 -12786120.24043185 -12786120.24043185 -7905274.231663632 0 0 0 0 0 97718860.68895893 -14626761.19212676 -14626761.19212676 -9300117.038074652 0 0 0 0 0 90660429.61489071 -17407707.61349575 -17407707.61349575 -8272399.623428929 0 0 0 0 0 91731129.96025787 -14755906.47062441 -14755906.4706244 -6322687.095462337 0 0 0 0 0 97618733.19834627 -14696553.09805168 -14696553.09805168 -9481919.687112939 0 0 0 0 0 90235066.04034887 -17548760.67391278 -17548760.67391278 -8235741.29686148 0 0 0 0 0 81813621.34889282 -18905586.74432771 -18905586.74432771 -5955485.979718911 0 0 0 0 0 84388122.8894628 -15542881.20077627 -15542881.20077627 -3931069.41340922 0 0 0 0 0 5956672.829582864 1421179.765032048 1421179.765032045 -9484923.314934297 0 0 0 0 0 -13851138.0609114 18527444.70844262 18527444.70844263 -69359331.00574908 0 0 0 0 0 32171303.91272993 -28274267.94453435 -28274267.94453435 -15197295.39986718 0 0 0 0 0 31186699.46674646 -25051577.39897615 -25051577.39897615 -21785860.41576314 0 0 0 0 0 37413871.27569716 -28915162.82133836 -28915162.82133836 -18535659.21900115 0 0 0 0 0 59109647.61623371 -32238498.26459898 -32238498.26459898 -19171484.67690643 0 0 0 0 0 37232760.24981247 -27915235.53157297 -27915235.53157297 -16710362.43591441 0 0 0 0 0 65672864.16982055 -32326180.85829514 -32326180.85829514 -14727732.89248275 0 0 0 0 0 59506677.53432595 -32704306.64346556 -32704306.64346556 -20050028.13222803 0 0 0 0 0 71500332.55661641 -28126214.1647144 -28126214.1647144 -10910752.22081404 0 0 0 0 0 65077252.23368749 -31372910.23301199 -31372910.23301199 -15911534.02092103 0 0 0 0 0 47569362.12370947 -25675157.79854742 -25675157.79854742 -8409934.01411307 0 0 0 0 0 76804814.82095242 -23244115.52929455 -23244115.52929455 -7612090.672002099 0 0 0 0 0 71124768.05676854 -27396921.97895239 -27396921.97895239 -10900636.51864433 0 0 0 0 0 57393564.89229057 -21663766.40102406 -21663766.40102406 -4248452.424951463 0 0 0 0 0 82101994.40523441 -19205331.80217566 -19205331.80217566 -5858960.804000624 0 0 0 0 0 76491591.86952376 -22663145.53350401 -22663145.53350401 -7298275.794266951 0 0 0 0 0 67446690.3874225 -17532852.42527993 -17532852.42527993 -2083146.813847297 0 0 0 0 0 94351936.82218264 -10777069.28172926 -10777069.28172926 -4794288.804812382 0 0 0 0 0 98530355.92714357 -9328540.765880754 -9328540.765880754 -5814269.415745019 0 0 0 0 0 98131402.79399186 -10927210.00270015 -10927210.00270015 -6651628.193700693 0 0 0 0 0 92824581.20117265 -12699080.68716212 -12699080.68716212 -5537324.503408174 0 0 0 0 0 98208419.15091437 -10974469.39167192 -10974469.39167192 -6815372.405837907 0 0 0 0 0 97525073.88237844 -12758932.4777727 -12758932.4777727 -7714898.836323599 0 0 0 0 0 93064993.05067441 -12553932.12945344 -12553932.12945344 -5230073.572104723 0 0 0 0 0 97305689.56160516 -12888001.17479648 -12888001.17479648 -7959889.199975091 0 0 0 0 0 91785799.77978815 -14798465.80202425 -14798465.80202425 -6556455.923743434 0 0 0 0 0 90651464.45734377 -17329372.07063747 -17329372.07063747 -7883440.042811133 0 0 0 0 0 83947996.37529722 -15780880.9869201 -15780880.9869201 -4340882.173187642 0 0 0 0 0 91766739.58968483 -14823347.14513614 -14823347.14513614 -6498161.742871547 0 0 0 0 0 84377051.13657992 -15616117.78351083 -15616117.78351082 -4190121.706861056 0 0 0 0 0 81792577.82911032 -18788484.39533139 -18788484.39533139 -5704456.581489784 0 0 0 0 0 77027887.33268014 -15765460.63185665 -15765460.63185665 -2221038.752424652 0 0 0 0 0 22439707.53299059 -22717346.1219236 -22717346.1219236 -24634940.84184433 0 0 0 0 0 -888148.9456427008 8343209.205041216 8343209.205041216 -51319792.71008728 0 0 0 0 0 3888170.964251876 -15481610.26187639 -15481610.26187639 -34627477.55663516 0 0 0 0 0 29645629.95846598 -25469059.22834026 -25469059.22834025 -26744836.93604606 0 0 0 0 0 3762104.379279228 -11797153.75874292 -11797153.75874292 -30491665.31483607 0 0 0 0 0 38960371.28786132 -30056697.1234022 -30056697.12340221 -12614370.20796253 0 0 0 0 0 48935308.38282989 -25419144.02881076 -25419144.02881076 -8524958.242313344 0 0 0 0 0 63668563.76540985 -31635865.68140753 -31635865.68140753 -15789639.16546261 0 0 0 0 0 38811256.24957694 -28905066.15714289 -28905066.15714289 -15343795.80997299 0 0 0 0 0 58848946.57467399 -21119902.23303788 -21119902.23303788 -3511509.215595259 0 0 0 0 0 69609129.28619117 -27903297.15663945 -27903297.15663945 -11494389.23101787 0 0 0 0 0 49476959.92863959 -25795441.69534065 -25795441.69534065 -7907076.917098381 0 0 0 0 0 68793810.14549413 -16918706.04231116 -16918706.04231116 -1264221.055578753 0 0 0 0 0 75201032.20040983 -23223357.89564171 -23223357.89564171 -7953783.397460481 0 0 0 0 0 59274330.40100933 -21695871.54116299 -21695871.54116299 -3841011.70652903 0 0 0 0 0 80930161.20362775 -19239077.5019337 -19239077.5019337 -6173103.314116616 0 0 0 0 0 69355380.02094349 -17392499.22754403 -17392499.22754403 -1604997.513119869 0 0 0 0 0 77440870.8171722 -15566378.71237744 -15566378.71237744 -2151691.067564985 0 0 0 0 0 93173009.75274082 -12602265.93706434 -12602265.93706434 -5427685.740340109 0 0 0 0 0 94559612.93964016 -10647769.71500289 -10647769.71500289 -4546269.702904418 0 0 0 0 0 97903733.54475462 -11068619.15601624 -11068619.15601624 -6911761.125609147 0 0 0 0 0 86737224.70298144 -13314497.08908133 -13314497.08908133 -3502557.795144972 0 0 0 0 0 93154779.66222043 -12636569.49942743 -12636569.49942743 -5380733.59152739 0 0 0 0 0 91717161.6434208 -14721678.94544014 -14721678.94544014 -6265503.465997134 0 0 0 0 0 84506533.66286293 -15664212.79811787 -15664212.79811787 -4203596.360237505 0 0 0 0 0 87125967.10698432 -13095207.63226775 -13095207.63226775 -3115218.474316379 0 0 0 0 0 91320543.60282983 -14938204.9825017 -14938204.9825017 -6602929.373330074 0 0 0 0 0 79938366.5405115 -12393928.2656408 -12393928.2656408 -527014.2804952599 0 0 0 0 0 83980500.37475421 -15644876.3103848 -15644876.3103848 -4216936.84934204 0 0 0 0 0 77436594.37895836 -15655419.52689439 -15655419.52689439 -2281284.884591113 0 0 0 0 0 -6850547.321799456 14915177.40719513 14915177.40719513 -76947674.84071633 0 0 0 0 0 -5410649.648971556 8350199.640173618 8350199.640173618 -103388200.8474524 0 0 0 0 0 9911684.535844458 -17246756.03406982 -17246756.03406982 -12633613.65580674 0 0 0 0 0 10117637.33011291 -15077627.23407887 -15077627.23407887 -25138581.42068065 0 0 0 0 0 23503039.9315605 -17033393.7144831 -17033393.7144831 -10810087.86662617 0 0 0 0 0 34595389.53339744 -27773784.52217189 -27773784.52217189 -16344659.90054419 0 0 0 0 0 21904364.62555644 -16534957.97402228 -16534957.97402228 -9980257.182983657 0 0 0 0 0 49663049.99060966 -26343087.53462912 -26343087.53462912 -6684888.014243856 0 0 0 0 0 38156242.79377773 -28195319.7347104 -28195319.7347104 -17083125.70551007 0 0 0 0 0 37270849.25069432 -13942823.55596017 -13942823.55596017 -1613416.609872272 0 0 0 0 0 59189727.92904686 -21862190.56325057 -21862190.56325056 -3370357.560957225 0 0 0 0 0 49191610.86507685 -24988939.09176958 -24988939.09176958 -7754936.61418427 0 0 0 0 0 49849303.56037551 -10863768.76953609 -10863768.76953609 1700550.169949656 0 0 0 0 0 69424498.92595404 -17917340.1213847 -17917340.1213847 -1470872.209653573 0 0 0 0 0 58879766.67658495 -20922024.08218722 -20922024.08218722 -3286585.990811196 0 0 0 0 0 68457406.22043735 -16974937.57679312 -16974937.57679312 -1587496.682619574 0 0 0 0 0 71470672.3910149 -12009711.22135153 -12009711.22135153 1038085.741688189 0 0 0 0 0 77813344.92794368 -15728743.32494924 -15728743.32494924 -2261661.932373215 0 0 0 0 0 89444750.85582687 -11342228.9621119 -11342228.9621119 -3059004.340862775 0 0 0 0 0 94679238.54995006 -10715780.91936471 -10715780.91936471 -4685133.42325341 0 0 0 0 0 93040809.68809891 -12528445.09490702 -12528445.09490702 -5218460.330252434 0 0 0 0 0 89759471.69307655 -11153741.01125097 -11153741.01125097 -2770031.705888358 0 0 0 0 0 92703859.75687253 -12729177.12523789 -12729177.12523789 -5506261.597306021 0 0 0 0 0 87306155.60936227 -13217357.53331428 -13217357.53331428 -3342229.69228114 0 0 0 0 0 84348106.64090231 -15469476.61455114 -15469476.61455114 -3935022.377615226 0 0 0 0 0 79472108.60644734 -12614114.44077708 -12614114.44077708 -875906.3726414124 0 0 0 0 0 87293879.21033885 -13283070.42907803 -13283070.42907803 -3281060.269409776 0 0 0 0 0 71744604.11857447 -12037328.09041476 -12037328.09041476 1067856.988509422 0 0 0 0 0 79868831.61705501 -12487837.01573958 -12487837.01573958 -772318.048363721 0 0 0 0 0 77442186.01836249 -15645217.8332059 -15645217.8332059 -2261182.597664203 0 0 0 0 0 -7987627.88240539 477284.0971655038 477284.0971655038 -79795200.78433536 0 0 0 0 0 3530990.386171107 -80220.11570400445 -80220.11570400446 -22774870.43903219 0 0 0 0 0 2302050.75123933 -10142225.65576851 -10142225.65576851 -28570694.81446759 0 0 0 0 0 -196258.0385900948 414727.1857251588 414727.1857251578 -22908997.99799545 0 0 0 0 0 24964725.24681069 -18330140.60894068 -18330140.60894068 -6093552.884083181 0 0 0 0 0 8106692.259226353 -14280936.67848187 -14280936.67848187 -31748285.15933186 0 0 0 0 0 24778595.69472444 -17497233.04345344 -17497233.04345344 -8497445.286061462 0 0 0 0 0 39670472.39016781 -13486471.97399521 -13486471.97399521 -927302.9865749839 0 0 0 0 0 46900601.0979479 -25333908.93575643 -25333908.93575643 -8261666.610070758 0 0 0 0 0 39906656.58279499 -14270996.02647155 -14270996.02647155 -956404.253062765 0 0 0 0 0 52241092.86231249 -10203820.47644594 -10203820.47644594 2700547.706252269 0 0 0 0 0 56446506.53166362 -21479424.97968341 -21479424.97968341 -4107728.255315237 0 0 0 0 0 67200924.38033587 -17757263.50030654 -17757263.50030654 -1878282.806152438 0 0 0 0 0 52556386.45349387 -11109477.55761832 -11109477.55761832 2262136.887194355 0 0 0 0 0 62527069.40317784 -9008355.254560327 -9008355.254560327 3004565.581628442 0 0 0 0 0 68333438.98113804 -17365393.72170812 -17365393.72170812 -1271286.253836202 0 0 0 0 0 61816294.54677918 -9236283.804632351 -9236283.804632351 2646486.139735136 0 0 0 0 0 71450286.0729242 -12025768.52689892 -12025768.52689892 992875.8708453643 0 0 0 0 0 84110238.18494858 -10631611.79099151 -10631611.79099151 -850825.5759594891 0 0 0 0 0 89930636.03945477 -11280094.42319267 -11280094.42319267 -2880971.548919324 0 0 0 0 0 87115949.78972104 -13073834.66755897 -13073834.66755897 -3139384.934733378 0 0 0 0 0 80257705.55987133 -12513709.21979927 -12513709.21979927 -705728.7709680095 0 0 0 0 0 84568278.12215258 -10373833.34414734 -10373833.34414734 -571640.2598829863 0 0 0 0 0 86651821.64195019 -13335809.37060789 -13335809.37060789 -3433201.012681269 0 0 0 0 0 79999152.37238513 -12597334.70835882 -12597334.70835882 -520882.7510008285 0 0 0 0 0 71430864.54321626 -11911627.09480376 -11911627.09480376 891253.3710076313 0 0 0 0 0 74145525.13231173 -8098864.445528782 -8098864.445528782 2395731.716701399 0 0 0 0 0 3843224.791944302 -1433956.97450893 -1433956.974508931 -19870764.15436311 0 0 0 0 0 24940690.36709766 606891.8151339781 606891.8151339785 -2450793.591712024 0 0 0 0 0 20391596.38319359 -16157829.87415847 -16157829.87415847 -9698757.646945372 0 0 0 0 0 24453154.97959425 -16083024.26707266 -16083024.26707266 -9433211.731116662 0 0 0 0 0 21199274.34913447 -130780.6990189327 -130780.699018933 -3666583.731340778 0 0 0 0 0 39956203.46084752 -14509821.05931631 -14509821.05931631 -82635.83903206173 0 0 0 0 0 39025879.49162699 -107661.5014857473 -107661.5014857459 2039205.525276063 0 0 0 0 0 52229134.10299321 -10907788.53957983 -10907788.53957983 2518263.151636093 0 0 0 0 0 39929046.73710936 -13020083.29934988 -13020083.29934988 -628687.99815935 0 0 0 0 0 51987200.07063626 -9950202.671910347 -9950202.671910347 2451284.730392398 0 0 0 0 0 52037644.99157865 -172843.6322624474 -172843.6322624474 3730042.29943224 0 0 0 0 0 62976084.43526481 -9791338.468717718 -9791338.468717718 3123195.574444706 0 0 0 0 0 62388483.44248849 -9331332.966156786 -9331332.966156786 2604574.682878886 0 0 0 0 0 68415028.23846337 -5603124.285226534 -5603124.285226534 3741571.900114122 0 0 0 0 0 71259313.2603807 -12029380.02405599 -12029380.02405599 1106841.575834686 0 0 0 0 0 79278509.3257075 -8364292.22767919 -8364292.22767919 1432364.583928118 0 0 0 0 0 84814164.33988249 -10583618.96321007 -10583618.96321007 -588690.5379806786 0 0 0 0 0 79863556.01455292 -12165836.47257009 -12165836.47257009 -566388.1635456129 0 0 0 0 0 79615539.85996632 -8141835.343573836 -8141835.343573836 1595729.822030273 0 0 0 0 0 79336791.48807757 -12516191.1892427 -12516191.1892427 -649551.6805161225 0 0 0 0 0 74529174.95120928 -8160354.162773535 -8160354.162773535 2462388.682896162 0 0 0 0 0 71516784.62350076 -11905796.120992 -11905796.120992 1270897.049704442 0 0 0 0 0 68022052.28217149 -5820021.58873724 -5820021.588737239 3464529.78963128 0 0 0 0 0 74200885.91016893 -8006454.494088967 -8006454.494088967 2304061.655981498 0 0 0 0 0 25148863.17119703 -924584.8097026994 -924584.8097026994 -2594086.22279876 0 0 0 0 0 41917318.56935789 572687.8854240831 572687.8854240832 3080540.85267524 0 0 0 0 0 36634332.16048014 -13579243.57630971 -13579243.57630971 -1462757.708406869 0 0 0 0 0 41960996.92642788 -594589.4995607233 -594589.4995607233 2742645.058785856 0 0 0 0 0 54439216.58642209 327773.2088036237 327773.208803624 4476074.421849463 0 0 0 0 0 49726473.34449051 -10406230.78004898 -10406230.78004898 1774405.713680029 0 0 0 0 0 54230046.88413088 -520863.0177017988 -520863.0177017977 4366767.460233366 0 0 0 0 0 63288095.61059944 386767.6762098414 386767.6762098413 4720184.393840208 0 0 0 0 0 60752183.01821213 -9486988.781983638 -9486988.781983638 2541674.266587049 0 0 0 0 0 61858079.8381482 31259.03568825383 31259.03568825383 4131209.822356686 0 0 0 0 0 68233461.32893796 -5876491.406493141 -5876491.406493141 3613687.820892095 0 0 0 0 0 62675796.30147807 -9097729.435885718 -9097729.435885718 3220318.119813684 0 0 0 0 0 76013015.21991566 -4587103.792700526 -4587103.792700526 3227555.568408688 0 0 0 0 0 79965897.80924687 -8333050.995766428 -8333050.995766428 1693472.951892102 0 0 0 0 0 74183581.91700757 -7967846.012661212 -7967846.012661212 2306674.084351489 0 0 0 0 0 74217495.90659241 -8066244.942593995 -8066244.942593995 2493149.211612352 0 0 0 0 0 68216491.78185014 -5858760.716998638 -5858760.716998637 3434729.099210468 0 0 0 0 0 72351610.19093807 -3885281.471664415 -3885281.471664416 3677081.99054462 0 0 0 0 0 63462581.91484215 -172605.6723197055 -172605.6723197055 4411809.924537631 0 0 0 0 0 70074922.7794347 216193.5518453819 216193.551845382 4259764.434470844 0 0 0 0 0 67394531.4433393 -5791836.98498104 -5791836.98498104 3503564.122665707 0 0 0 0 0 76210674.03168786 -4468907.468236276 -4468907.468236276 3203288.063255804 0 0 0 0 0 74090035.97340097 -8020324.033066468 -8020324.033066468 2478476.327454025 0 0 0 0 0 72396640.8036129 -3996153.46734197 -3996153.46734197 3640517.462873232 0 0 0 0 0 68422883.10980169 -5603260.562608128 -5603260.562608129 3780003.785433377 0 0 0 0 0 69261981.80395511 27878.92709972891 27878.92709972896 3975783.250430803 0 0 0 0 0 72325700.51172212 -3978353.600006361 -3978353.600006361 3730790.139667353 0 0 0 0 0 74655672.92714375 37392.38035842258 37392.38035842258 3863084.148876503 0 0 0 0 0 76374277.40464637 -4590604.039754277 -4590604.039754277 3372119.3790592 0 0 0 0 0 72255678.63814399 -3872955.082206174 -3872955.082206174 3665670.061971282 0 0 0 0 0 70096505.17002596 -55978.75728943341 -55978.75728943341 4200115.685831676 0 0 0 0 0 75188947.29109842 179323.4415761536 179323.4415761537 3873893.099493757 0 0 0 0 0 71817235.96280268 -3989478.528506023 -3989478.528506023 3657388.031818903 0 0 0 0 0 </DataArray>
      </PointData>
    </Piece>
  </UnstructuredGrid>
</VTKFile>
