<?xml version="1.0"?>
<VTKFile type="UnstructuredGrid" version="2.2">
  <UnstructuredGrid>
    <Piece NumberOfPoints="60" NumberOfCells="20">
      <Points>
        <DataArray type="Float64" NumberOfComponents="3" format="ascii">0.6649999999989589 7.081984536725934e-18 0 1 -1.667508320826672e-17 0 0.7120860473842829 0.285712920631055 0 1 6.461918308419718e-17 0 1 0.499999999998694 0 0.7120860473842829 0.285712920631055 0 0.6649999999989589 3.738810011486465e-17 0 0.7120860473842835 0.285712920631055 0 0.4802408687884172 0.181944016252365 0 0.3300000000000001 4.50985803093221e-18 0 0.6649999999989589 -1.061881137035513e-17 0 0.4802408687884172 0.181944016252365 0 1 0.4999999999986941 0 0.6492432261032556 0.6624668562821413 0 0.7120860473842829 0.2857129206310549 0 0.7120860473842834 0.285712920631055 0 0.4607730582040067 0.3906619234024867 0 0.4802408687884172 0.1819440162523649 0 0.2333452383548383 0.2333452372282832 0 0.33 2.171670935600941e-18 0 0.4802408687884172 0.1819440162523649 0 1 0.4999999999986941 0 1 1 0 0.649243226103255 0.662466856282141 0 0.6492432261032555 0.6624668562821413 0 0.4607730582040067 0.3906619234024867 0 0.712086047384283 0.2857129206310548 0 0.4607730582040067 0.3906619234024866 0 0.2333452383548382 0.2333452372282832 0 0.4802408687884172 0.1819440162523649 0 1 1 0 0.5000000000020592 1 0 0.649243226103255 0.6624668562821409 0 0.2908264624586157 0.7254034792038848 0 0.4607730582040067 0.3906619234024867 0 0.6492432261032551 0.662466856282141 0 0.1959439281583373 0.4796741651915143 0 0.2333452383548382 0.2333452372282832 0 0.4607730582040064 0.3906619234024864 0 0.5000000000020591 1 0 0.2908264624586157 0.7254034792038849 0 0.6492432261032551 0.6624668562821409 0 0.1959439281583374 0.4796741651915143 0 0.4607730582040066 0.3906619234024867 0 0.2908264624586155 0.7254034792038845 0 3.33944316867437e-17 0.3300000000000001 0 0.2333452383548382 0.2333452372282832 0 0.1959439281583372 0.4796741651915141 0 0.500000000002059 1 0 1.139534957297076e-17 1 0 0.2908264624586155 0.7254034792038844 0 2.975686362412621e-17 0.6650000000010194 0 0.1959439281583373 0.4796741651915143 0 0.2908264624586155 0.7254034792038845 0 4.856874747623337e-18 0.6650000000010194 0 -1.143588920997425e-17 0.3300000000000001 0 0.1959439281583373 0.4796741651915141 0 7.208734226836901e-18 1 0 -1.697352520828265e-17 0.6650000000010196 0 0.2908264624586155 0.7254034792038844 0 </DataArray>
      </Points>
      <Cells>
        <DataArray type="Int32" Name="connectivity" format="ascii">0 1 2 3 4 5 6 7 8 9 10 11 12 13 14 15 16 17 18 19 20 21 22 23 24 25 26 27 28 29 30 31 32 33 34 35 36 37 38 39 40 41 42 43 44 45 46 47 48 49 50 51 52 53 54 55 56 57 58 59 </DataArray>
        <DataArray type="Int32" Name="offsets" format="ascii">3 6 9 12 15 18 21 24 27 30 33 36 39 42 45 48 51 54 57 60 </DataArray>
        <DataArray type="Int8" Name="types" format="ascii">69 69 69 69 69 69 69 69 69 69 69 69 69 69 69 69 69 69 69 69 </DataArray>
      </Cells>
      <CellData>
        <DataArray type="UInt8" Name="vtkGhostType" format="ascii" RangeMin="0" RangeMax="1">0 0 0 0 0 0 0 0 0 0 0 0 0 0 0 0 0 0 0 0 </DataArray>
        <DataArray type="Int64" IdType="1" Name="vtkOriginalCellIds" format="ascii" RangeMin="0" RangeMax="19">0 1 2 3 4 5 6 7 8 9 10 11 12 13 14 15 16 17 18 19 </DataArray>
      </CellData>
      <PointData Tensors="stress">
        <DataArray type="Int64" IdType="1" Name="vtkOriginalPointIds" format="ascii" RangeMin="0" RangeMax="59">0 1 2 3 4 5 6 7 8 9 10 11 12 13 14 15 16 17 18 19 20 21 22 23 24 25 26 27 28 29 30 31 32 33 34 35 36 37 38 39 40 41 42 43 44 45 46 47 48 49 50 51 52 53 54 55 56 57 58 59 </DataArray>
        <DataArray type="UInt8" Name="vtkGhostType" format="ascii" RangeMin="0" RangeMax="0">0 0 0 0 0 0 0 0 0 0 0 0 0 0 0 0 0 0 0 0 0 0 0 0 0 0 0 0 0 0 0 0 0 0 0 0 0 0 0 0 0 0 0 0 0 0 0 0 0 0 0 0 0 0 0 0 0 0 0 0 </DataArray>
        <DataArray type="Float64" Name="stress" format="ascii" NumberOfComponents="9">51586455.13488154 -4283141.927104025 -4283141.927104023 6210280.902786701 0 0 0 0 0 77955674.08532463 2723361.660364129 2723361.660364128 7990814.826560871 0 0 0 0 0 66663172.46517692 -22668411.24773553 -22668411.24773553 -7427299.840853858 0 0 0 0 0 64536987.35083085 -2318748.167349621 -2318748.167349621 2799469.87228678 0 0 0 0 0 100042857.0288269 -13047538.95339809 -13047538.95339809 -2876706.356744805 0 0 0 0 0 78963513.56606409 -18057428.91117768 -18057428.91117768 -2709706.237141572 0 0 0 0 0 32198362.45559179 -5350519.940004141 -5350519.940004141 1338084.926415452 0 0 0 0 0 87818556.04996586 -22748374.01603988 -22748374.01603988 -1573297.58596348 0 0 0 0 0 52574338.63225363 -26817578.53666306 -26817578.53666306 -9866417.598300373 0 0 0 0 0 -9429491.630808802 -4477639.811892594 -4477639.811892591 -42314653.75801365 0 0 0 0 0 51573129.80980996 3057510.104543269 3057510.104543268 12968658.44795145 0 0 0 0 0 32119186.81809652 -31389543.01680285 -31389543.01680285 -5688502.988829653 0 0 0 0 0 95275533.3626232 -10954672.82862031 -10954672.82862031 -3171502.022287171 0 0 0 0 0 108716399.8403548 -8570022.726318117 -8570022.726318117 -14773680.92981223 0 0 0 0 0 87957618.34785715 -21267632.19315382 -21267632.19315382 -7779007.380258206 0 0 0 0 0 82914466.52645898 -19017233.89594596 -19017233.89594597 -4256269.857221498 0 0 0 0 0 101133277.9234684 -24051184.76974213 -24051184.76974213 -24521240.86957497 0 0 0 0 0 62618098.24481676 -35147357.0091756 -35147357.00917559 -12407170.21993096 0 0 0 0 0 55265757.59435222 -31277800.59389589 -31277800.59389589 14076474.87718183 0 0 0 0 0 -29375628.8894347 18887395.82524921 18887395.82524921 -102209972.9566065 0 0 0 0 0 51274400.9858714 -38739739.94580784 -38739739.94580784 -2180635.350021053 0 0 0 0 0 93384778.87814896 -12173080.93870784 -12173080.93870784 -6702453.635821756 0 0 0 0 0 105957312.6006155 -2496851.620706409 -2496851.620706409 -5903577.772125755 0 0 0 0 0 112382357.5464961 -6107570.315387675 -6107570.315387675 -9338209.017591963 0 0 0 0 0 119172116.1407434 -6053595.843178535 -6053595.843178535 -10803402.43861054 0 0 0 0 0 109221269.2941748 -17937438.90641093 -17937438.90641093 -16347058.87273548 0 0 0 0 0 75936184.77280547 -24171865.98251628 -24171865.98251628 -12348626.27265093 0 0 0 0 0 135007723.0179782 -28047530.19899529 -28047530.19899529 -15599482.62074309 0 0 0 0 0 55008956.53002856 -26834853.50668651 -26834853.50668651 -10184554.98866588 0 0 0 0 0 47949009.91165805 -35683380.19276246 -35683380.19276246 -16821790.31036581 0 0 0 0 0 105591682.4667305 -2590033.3389871 -2590033.3389871 -5109363.618524449 0 0 0 0 0 110949960.883813 4447365.182149375 4447365.182149375 9978.615087658707 0 0 0 0 0 110501096.1708774 -5154052.670629284 -5154052.670629284 -10978803.39885586 0 0 0 0 0 123335424.2505229 9843510.188425727 9843510.188425731 5277099.86141835 0 0 0 0 0 117848666.3032055 -16996019.85190794 -16996019.85190795 -20153187.94015086 0 0 0 0 0 111704405.8380666 -4688234.766155955 -4688234.766155955 -12102044.43949587 0 0 0 0 0 151485177.9037797 11328916.50740899 11328916.507409 13295499.48678045 0 0 0 0 0 106220735.5477636 -55041316.19895484 -55041316.19895484 28296141.63172106 0 0 0 0 0 113096250.7443586 -14523062.8931064 -14523062.8931064 -46736024.74622878 0 0 0 0 0 108894911.3943128 4225944.6162809 4225944.6162809 -488552.5277868606 0 0 0 0 0 121451188.71482 7625677.852417775 7625677.852417775 2103391.402564234 0 0 0 0 0 112342675.0800336 -4533026.077488085 -4533026.077488085 -10015953.96930505 0 0 0 0 0 145056821.2881745 5206585.787018999 5206585.787018999 8695991.321658909 0 0 0 0 0 115828361.9324014 -17130796.80173055 -17130796.80173055 -20438506.51358916 0 0 0 0 0 122019945.9873281 9785913.712956714 9785913.712956714 5134469.565335533 0 0 0 0 0 312213605.2538649 -39637941.60546484 -39637941.60546484 30116541.12671047 0 0 0 0 0 112434566.0424516 -77268170.27376685 -77268170.27376685 27028338.05904872 0 0 0 0 0 120829642.615385 18203179.40030831 18203179.40030831 10260265.81335923 0 0 0 0 0 109302444.4643177 5237066.447598287 5237066.447598287 -3051494.709693764 0 0 0 0 0 108358625.300258 2573089.057266077 2573089.057266077 21580427.93023991 0 0 0 0 0 115695231.4220572 6416771.956099281 6416771.956099281 6955504.087374629 0 0 0 0 0 120967250.8855221 6052079.920784025 6052079.920784025 38072073.51290607 0 0 0 0 0 143124998.96843 1332647.005618721 1332647.005618721 12462072.5552373 0 0 0 0 0 116025598.7300884 10339939.70099872 10339939.70099872 3605283.599642722 0 0 0 0 0 109919952.5091992 1594436.522469543 1594436.522469543 33229381.96841473 0 0 0 0 0 221660275.5879715 -6337070.760127052 -6337070.760127052 27341863.46823848 0 0 0 0 0 134588272.6022379 3248252.130278947 3248252.130278947 30889937.471828 0 0 0 0 0 103126452.1653318 -1053901.770917873 -1053901.770917873 13007186.70888252 0 0 0 0 0 119442362.2129871 3080984.639114669 3080984.639114669 25966080.68116587 0 0 0 0 0 119482936.3396801 9531379.391922431 9531379.391922431 15191117.48763122 0 0 0 0 0 </DataArray>
      </PointData>
    </Piece>
  </UnstructuredGrid>
</VTKFile>
