<?xml version="1.0"?>
<VTKFile type="UnstructuredGrid" version="2.2">
  <UnstructuredGrid>
    <Piece NumberOfPoints="7058" NumberOfCells="13804">
      <Points>
        <DataArray type="Float64" NumberOfComponents="3" format="ascii">0.9875925925925668 0 0 1 0 0 0.9909330519583092 0.009092035120655317 0 1 0.01249999999997642 0 0.981236087833541 0.009384804025009979 0 0.988051534560252 0.01848938527450317 0 0.9751851851851336 0 0 1 0.02499999999995287 0 0.9689358255359719 0.01015806840269271 0 0.9747007252986775 0.01778140907894848 0 0.9898047665823162 0.03135447436134356 0 0.9627777777777005 0 0 0.9786036581502088 0.02764756447660824 0 1 0.03749999999992728 0 0.9559751956434887 0.01092001010164909 0 0.9627777777776919 0.01740999411221878 0 0.9674367642069052 0.02525660512644066 0 0.9905461975190516 0.04376583944112587 0 1 0.04999999999989965 0 0.9808337364892372 0.03952832972184749 0 0.950370370370224 0 0 0.9702346028093125 0.03619517821035448 0 0.9898969123347322 0.05624714897654829 0 1 0.06249999999987325 0 0.9442929485569007 0.008568425916816497 0 0.9557746443779631 0.02280619296859193 0 0.9585202132042672 0.03407231738467301 0 0.982666410639927 0.04999425894106788 0 0.9894765352417904 0.06843801396815494 0 1 0.07499999999985282 0 0.9731467832346073 0.04821266290058494 0 0.9379629629627908 0 0 0.9446345804982387 0.01907737174052533 0 0.9616802183005904 0.04595372139347902 0 0.978282380252733 0.06030217706058991 0 0.9894519851930792 0.08050744408996416 0 0.9325216333097617 0.01284474774190806 0 0.9465170805369059 0.03069153536676962 0 0.9496934608695522 0.04256781340883226 0 0.9795050742412865 0.07337817574427756 0 1 0.08749999999983374 0 0.9652162332992799 0.0572051292058192 0 0.9255555555553578 0 0 0.934517063505362 0.02719558346165609 0 0.9530938154871544 0.05405921440541826 0 0.9685460058506155 0.06909536583254043 0 0.987283693909052 0.09382659378941247 0 0.980522644260394 0.08514170610765619 0 1 0.09999999999981467 0 1 0.1124999999997956 0 0.9889937376802297 0.1070784737743989 0 0.9184213778408077 0.01153481072298539 0 0.9223932261392692 0.02381901807563509 0 0.937642568411493 0.03909845439219133 0 0.9410785228560361 0.05075649555720694 0 0.9720472864580189 0.08087326891005035 0 0.9894886508996851 0.1189207605969177 0 1 0.1249999999997738 0 0.9565481966699797 0.06560763364230271 0 0.9131481481478814 0 0 0.9256394326032247 0.03591922196450554 0 0.9445312595081425 0.06233595698467127 0 0.9599378992570968 0.07751709926140754 0 0.9751463398341418 0.09296133504415301 0 0.9776850131102177 0.1037319287289962 0 0.9810986690329918 0.1134226928158033 0 0.9892291597298686 0.1312762650808314 0 1 0.13749999999974 0 1 0.1499999999997036 0 0.9891738418632872 0.1437446394041747 0 0.9055302637765776 0.01013025364172235 0 0.9103058984969106 0.0209939721908202 0 0.9137203867288344 0.03267443667541636 0 0.9290557276375058 0.04757911448864775 0 0.9325145141653725 0.05916486362668329 0 0.9631498161107248 0.08951087247535272 0 0.9793974639034817 0.1233896481263904 0 0.9892504408922186 0.1561987623506822 0 1 0.1624999999996672 0 0.9480237354561266 0.07416040310422416 0 0.9007407407404482 0 0 0.9168131676180282 0.0445061286515528 0 0.9360190900115791 0.07083238511371798 0 0.9511626858607093 0.086084593630714 0 0.9662588572374344 0.1010948051843251 0 0.9699284795713441 0.1139926528523134 0 0.9766014072019095 0.1359404142882937 0 0.9782682008822393 0.1499161975500698 0 0.9897133697892564 0.1685239443992052 0 0.8933901096739858 0.009436185770324807 0 0.8983317592083117 0.0188374653035286 0 0.9017488556602361 0.0293401717481774 0 0.904786927262336 0.04131532277975749 0 0.9204682369066024 0.05619066321840828 0 0.9239884312890478 0.06761082730102737 0 0.9544733516673873 0.09751690899639545 0 0.9697733599502339 0.1253958683519393 0 0.9801423744067999 0.1626564265554969 0 1 0.1749999999996307 0 0.9391166733947728 0.08287876937547738 0 0.888333333333015 0 0 0.9075625082539731 0.05302522004732081 0 0.9271212373978612 0.07951631680769131 0 0.9424154800515652 0.09458456433567994 0 0.957888784368876 0.1088935957245133 0 0.9604213595184917 0.1209516686117915 0 0.9637488135307649 0.1332447003848231 0 0.9668432490205927 0.1450780233996095 0 0.9694748410158781 0.1575501707470499 0 0.9887236713469699 0.18156989091061 0 0.981595792320155 0.1736451256768851 0 1 0.1874999999995943 0 1 0.1999999999995579 0 0.9917067147364975 0.1933253362656631 0 0.8820492215469427 0.01040767816391424 0 0.8881822481943416 0.01734674086011062 0 0.8900261939595701 0.0265654930890703 0 0.8928815704654227 0.03804595474431621 0 0.8959456776193 0.05005331224618811 0 0.9116768086241616 0.06446485118116729 0 0.9151380011685443 0.07617171313708132 0 0.9457678289245669 0.1059278755328468 0 0.9723457764199017 0.1703066898351493 0 0.989870970462521 0.2040798474015806 0 1 0.2124999999995214 0 0.9303062095830248 0.09130389553928489 0 0.875925925925582 0 0 0.8992435267678855 0.0616348038513834 0 0.9182124173284728 0.08822117361030535 0 0.9336464510680893 0.1029160467280007 0 0.9491352146130471 0.1175148516016366 0 0.9521480277993657 0.129500370277036 0 0.9551291464641416 0.1416041482896007 0 0.9581404898871955 0.1535170980980045 0 0.9613278971593902 0.1658553448142875 0 0.9759598231591728 0.1812555885609985 0 0.9799389318729972 0.1934769430169727 0 0.9870483146996849 0.2170972481178003 0 1 0.224999999999485 0 1 0.2374999999994486 0 1 0.2499999999994121 0 0.9905152135455222 0.2438876645106994 0 0.988992172892517 0.2311933402830158 0 0.8702405722523116 0.01153183707159665 0 0.8778446069385524 0.02226596653946782 0 0.880917977148322 0.03471233856844624 0 0.8840098105070739 0.0467526089080334 0 0.8870381423344079 0.05872508366836825 0 0.9028083494007737 0.07325309055091495 0 0.9062819421601533 0.08493945213777117 0 0.9371640182798897 0.1144061874668821 0 0.96435177850668 0.1782320640942792 0 0.9796819702344397 0.2062253616226671 0 0.9918555620729392 0.2542926600188802 0 1 0.2624999999993757 0 0.9214361269412868 0.09985788521741613 0 0.8635185185181053 0 0 0.8904296743746972 0.07028726541434099 0 0.9092205619725361 0.09684906310483829 0 0.9247890426282031 0.1114158722758944 0 0.9401313854526544 0.1261505528828438 0 0.9432381348244068 0.1382318401150468 0 0.9463455456527508 0.1503147613974565 0 0.9494520603780396 0.1623987735212665 0 0.9525600098163045 0.1744790571692413 0 0.9676037198428913 0.189936083752686 0 0.9702491220307903 0.2021462906954815 0 0.9737989536110786 0.2144719318283297 0 0.9770273006187208 0.2263178053721451 0 0.9796932750041856 0.2392893339991166 0 0.9824711673029745 0.2517369549410634 0 0.9863511237465593 0.2624426994156865 0 0.857911384616497 0.01085327189871606 0 0.864397503281743 0.02106207912382392 0 0.8688199017652783 0.03182307588303497 0 0.8720376003011454 0.04341538079815062 0 0.8751310852246079 0.0554527739327673 0 0.8781492506433912 0.06741321201970128 0 0.8937591412305625 0.08202745617141505 0 0.8973363492107469 0.09367221887502719 0 0.9281811679914537 0.1230396118208985 0 0.9556153663941906 0.1866346818656151 0 0.9907071581530302 0.2714043257736509 0 1 0.2749999999993392 0 0.912621679321205 0.1084503313568227 0 0.8511111111106724 0 0 0.8814594790843923 0.07910042073733589 0 0.9003522198125549 0.1055977157155019 0 0.9157959408511922 0.1199765539042076 0 0.9312230053713525 0.1348821343114796 0 0.9343284894141526 0.1469639338338291 0 0.9374345575343574 0.1590472428852331 0 0.9405406528655538 0.1711305601882004 0 0.9436472643543161 0.183213018066939 0 0.9587763284619367 0.1986505642887068 0 0.9618824498113567 0.2107367457545779 0 0.9649471303546546 0.2228598147913635 0 0.9679751608629628 0.2347761396466854 0 0.9709608846027936 0.2472311371812102 0 0.9742265508111935 0.2594147824417957 0 0.9789870721959796 0.2724087443978292 0 0.9890874855643719 0.2821801687092956 0 1 0.2874999999993028 0 0.8445253332640956 0.01160751185062759 0 0.8529631394294243 0.01931322795291363 0 0.8568982244146903 0.02832287141206782 0 0.860066924316643 0.04007853496626276 0 0.8631601832197058 0.05211347913388188 0 0.866241429953623 0.06413871241138436 0 0.8692582942163997 0.07605838032216475 0 0.884774854498374 0.09088641662918602 0 0.8881402657126589 0.1024850490300754 0 0.9192104846512577 0.1315340674012905 0 0.9467530973830168 0.1952973038218385 0 0.9929472411488911 0.2937499999992849 0 1 0.2999999999992664 0 0.903363053007284 0.1171325952402851 0 0.8387037037032392 0 0 0.8723856595429293 0.08792979386720735 0 0.8913653618910802 0.1142963245805821 0 0.9070289343080608 0.1286266820276385 0 0.9223147815692159 0.1436121314067997 0 0.9254221947877788 0.1556983023870765 0 0.9285239212892582 0.167778666814093 0 0.93162915527724 0.1798604881969076 0 0.934733746049525 0.1919434879553477 0 0.9498576995040133 0.2073829611198312 0 0.9529632490704836 0.219464489376915 0 0.9560755309535769 0.2315428106366876 0 0.9591832350435942 0.2436317458046421 0 0.9622893721049866 0.2557258806275185 0 0.9653953514287335 0.2678187565727977 0 0.9781177030179091 0.2840368429794013 0 0.9827039490816991 0.293661401001209 0 0.9892425494703284 0.3063675491218947 0 1 0.3124999999992299 0 1 0.3249999999991935 0 0.9897999028296587 0.3199385458521996 0 0.8306400280685323 0.009849342422350601 0 0.8450106993730884 0.02470841823379376 0 0.8480974541420525 0.03674279012917255 0 0.8511899809716149 0.04877572162487465 0 0.854283587185928 0.06081103386952796 0 0.857376893770283 0.072850048324689 0 0.8604728536495411 0.08489222188875659 0 0.8759136103711916 0.09962048331585549 0 0.8792454579338758 0.1113040558910389 0 0.9103897615922382 0.140356562608083 0 0.9378388600816596 0.2040278532433395 0 0.9685076098277532 0.2798889604542947 0 0.9713023984197413 0.292044940334378 0 0.990794835065738 0.3322427776335659 0 1 0.3374999999991571 0 0.8946788507284646 0.1257811933589426 0 0.826296296295737 0 0 0.8327697283071906 0.02232352841605901 0 0.8636441366783036 0.09660923507401772 0 0.882515173634428 0.1229809769206081 0 0.8980903103915978 0.1374440141034597 0 0.9134210374841916 0.1523624691922146 0 0.9165103814354977 0.1644253701902894 0 0.919614188995318 0.1765074505418181 0 0.9227180423713257 0.1885894049823416 0 0.9258219163366785 0.2006725798424437 0 0.9409420654980776 0.2161107519099462 0 0.9440496506294881 0.2281954669323065 0 0.9471581852301929 0.2402774710706712 0 0.9502633948963337 0.2523672487235059 0 0.9533683720454922 0.2644556468453038 0 0.9564790363359167 0.2765300324178836 0 0.9750097940466453 0.3039142304251171 0 0.9781389095181703 0.3159738368443984 0 0.9803157199135373 0.3279776592193426 0 0.9904675417503023 0.3454132082416786 0 1 0.3499999999991206 0 1 0.3624999999990842 0 0.9888731005603204 0.3563942151250872 0 0.8202175923102903 0.008128506806592906 0 0.8214636635623955 0.01861825211878881 0 0.8360775746149376 0.0335908648519622 0 0.8392124567486765 0.045469441289789 0 0.8423131067591965 0.05747224104457202 0 0.8454062361113648 0.06950827544563151 0 0.8484997073805671 0.08154803136661698 0 0.85156944448073 0.09337722618890633 0 0.8671307294440673 0.1081215280761144 0 0.8705738838013861 0.1198325256510826 0 0.9014500755453675 0.1491898861023694 0 0.9289254457154199 0.2127557395556429 0 0.9595920418307453 0.2886002912962738 0 0.9626978648866329 0.3006949018105294 0 0.9825579934631752 0.3385365599449617 0 0.9892607388396761 0.3685474363274787 0 1 0.3749999999990478 0 0.8859067639886042 0.1345595498750739 0 0.8138888888882863 0 0 0.8241174228491759 0.03022902673780658 0 0.8550115562319789 0.1049786959928788 0 0.8736669918530576 0.1317098183778017 0 0.8890874761868517 0.1461502106486512 0 0.9044995836499305 0.1610760139440822 0 0.9076018431105632 0.1731565966621339 0 0.9107034306967212 0.1852331789578188 0 0.9138073921328314 0.1973184510066602 0 0.9169102056449694 0.2094009345939323 0 0.9320284833703945 0.2248391030491599 0 0.9351353856697782 0.236922909537409 0 0.938240355411055 0.2490088998635626 0 0.9413442847949811 0.2610931334245062 0 0.9444501864386214 0.273173027238121 0 0.9475624680925834 0.2852457846739932 0 0.9657406992328715 0.3127831483541278 0 0.9687247916159804 0.3248618880937085 0 0.9720124174281466 0.336983351451897 0 0.9775954192627606 0.3493191496719615 0 0.9782687107116861 0.362340446280337 0 0.9890784814264044 0.381435209022403 0 0.8090490841730631 0.01246689065479606 0 0.8120502408746201 0.02661711878376781 0 0.8272521750002636 0.04210148749687278 0 0.8303444490039946 0.05413354259127979 0 0.8334366208370778 0.06616735219197076 0 0.8365280558160034 0.07820235079931723 0 0.8395395135630861 0.09012483706562802 0 0.8428543367977042 0.1018227114340023 0 0.8584815766107018 0.1165908295779545 0 0.861707408722075 0.1283856973144094 0 0.8924910781891959 0.1577293047099617 0 0.9200132982810938 0.2214834423412371 0 0.9506698268204985 0.2973360357718035 0 0.9537737978098622 0.3094309497655469 0 0.9792785964987936 0.3749877948623281 0 1 0.3874999999990114 0 0.8766805753590255 0.1432703444332161 0 0.8014814814808531 0 0 0.8152893529001994 0.0387621521545442 0 0.8463891133803662 0.1133506456062777 0 0.8647156623255823 0.1403631724317482 0 0.8803220634656995 0.1547947294611761 0 0.8955929520824915 0.1698070962274539 0 0.8986933951536946 0.1818878962959572 0 0.9017950505009114 0.1939665050307852 0 0.9048972276349568 0.2060461059545068 0 0.9079983047112026 0.2181288871090635 0 0.9231172522769154 0.2335667234065993 0 0.9262207441183771 0.2456511073872865 0 0.9293228497600099 0.2577388449164753 0 0.9324283832472049 0.2698170560586854 0 0.9355356825754498 0.2818967474335808 0 0.9386440007736558 0.2939809643076036 0 0.9568776298374724 0.3215269255288584 0 0.9599819382165454 0.3336227036167677 0 0.9630867495209413 0.3457140970369366 0 0.9664444510830354 0.3578073684643465 0 0.9686198947892459 0.3698475881984272 0 0.9873040642314882 0.395066558661795 0 0.9781966743361445 0.3872464777681606 0 1 0.3999999999989749 0 1 0.4124999999989385 0 0.9894588942509992 0.4076377221495834 0 0.7949820515410659 0.01151341351231175 0 0.7997795941785301 0.0232049960358247 0 0.8032152269612653 0.03537881368150285 0 0.8183783599035446 0.05079374477015272 0 0.8214685049223474 0.06282782472977703 0 0.8245585411522438 0.07486144037210857 0 0.8276412213363205 0.08688846605581449 0 0.8306728077137659 0.09886270796004999 0 0.8340294303793327 0.1104488128364143 0 0.8497764608255929 0.1251564549600165 0 0.8528113563514356 0.1370945615147946 0 0.8836712010666599 0.1665401940157406 0 0.9111021218274307 0.230211848299929 0 0.9417478253923399 0.3060721209384452 0 0.9448510611728307 0.3181659051810525 0 0.9703892443528946 0.3802349851720363 0 0.9893611784257562 0.4194621493664479 0 1 0.4249999999989021 0 0.8679910993367123 0.1519149640751919 0 0.7890740740733984 0 0 0.8063884688913562 0.04744765816734681 0 0.8374573733033346 0.1221287721577006 0 0.8558276180339688 0.1490814372605979 0 0.8713847711985739 0.1636031608266474 0 0.886685854442778 0.1785362455236923 0 0.8897854368495461 0.1906165237735954 0 0.8928867783996259 0.2026914379630274 0 0.8959873184843397 0.2147668388628856 0 0.8990885106077522 0.2268571627676444 0 0.9142041898079805 0.2422947349023739 0 0.9173063822490063 0.2543780391900838 0 0.9204090196415463 0.2664597542802625 0 0.9235154047975787 0.2785409279863451 0 0.9266214851318857 0.2906246474353534 0 0.929723786090988 0.3027141726466748 0 0.9479560841769925 0.3302539452516802 0 0.9510573656140275 0.3423361020162288 0 0.954162980578265 0.3543938747434078 0 0.9572396215407026 0.3664253904177546 0 0.9601024343738704 0.3783025809176707 0 0.9750603775375439 0.3964639595374597 0 0.9652132907191839 0.3903602373153008 0 0.9786362290695884 0.4061076680777876 0 0.9799740975461887 0.4157382830323988 0 0.9885677683085599 0.4315579009107385 0 1 0.4374999999988656 0 1 0.4499999999988292 0 0.9888225073677758 0.4440808879982013 0 0.78274973939952 0.01050110781183883 0 0.7874792080314095 0.02091811229617765 0 0.7912988536777966 0.032120301415371 0 0.794417631269811 0.04411531177701511 0 0.8095000092796728 0.05948747738819117 0 0.812591669494265 0.07152338790941039 0 0.8156842456014519 0.08356054802914423 0 0.8187772368661814 0.09560035903677044 0 0.8218030668949814 0.1075738686021887 0 0.8251745214361899 0.1191563514324318 0 0.8409103466937099 0.1338420560982508 0 0.8439181648236396 0.1458083296591581 0 0.8747305715676721 0.1753630088098255 0 0.9021901100957078 0.2389408655142642 0 0.9328263772189977 0.314804898914043 0 0.9359315516077724 0.3268897120093721 0 0.9779253409589466 0.4252578704488946 0 0.9895766848833265 0.4564013572173978 0 1 0.4624999999987927 0 0.8592086216670666 0.1606950303271339 0 0.7766666666659507 0 0 0.7975302330336437 0.05614844923267488 0 0.828464367104816 0.1308183120128124 0 0.8469715510171585 0.1578317742507885 0 0.8623850700876332 0.1723110382708167 0 0.8777799713185264 0.1872625150344119 0 0.8808785481995716 0.1993395991844723 0 0.8839790105036549 0.211414317668438 0 0.8870795759660887 0.2234877836393384 0 0.8901795448171663 0.2355805499685063 0 0.9052915730498954 0.2510218967258229 0 0.9083936486641382 0.2631035351742497 0 0.9114971093501953 0.2751858783174975 0 0.9146015622227954 0.2872685808012592 0 0.9177041240158184 0.2993541148784357 0 0.9208055602348738 0.3114408338949609 0 0.9390398075056018 0.3389483851947262 0 0.9421462028623245 0.3510262089209373 0 0.9452442493015113 0.3630962367475367 0 0.9483687777381427 0.3751841796255895 0 0.9514710721218045 0.3872823648046739 0 0.9666037543309219 0.4027448913845572 0 0.9698499447441179 0.4162164091621146 0 0.9760596533285463 0.4375528038204914 0 0.9786687668103633 0.4513093152220107 0 0.9895296853039626 0.4687504347444234 0 1 0.4749999999987564 0 1 0.48749999999872 0 0.989175168562254 0.4812508419651529 0 0.770444398695237 0.01011196051114532 0 0.7752565841444912 0.01905981896946302 0 0.7793983427255908 0.02928361700794114 0 0.7824746540995567 0.04077923723674923 0 0.7855680089007604 0.05281010858461346 0 0.800623099901678 0.06818338087201342 0 0.8037141641069165 0.08021891684048055 0 0.8068043594519472 0.09225768008922663 0 0.8098953690927427 0.1042977550605443 0 0.8127388219644784 0.1161268016770511 0 0.8158453112168588 0.1278521714518209 0 0.8319385996804491 0.1424654190442267 0 0.8350136693465846 0.1545106764030651 0 0.8657757724570083 0.1839136230691521 0 0.893278741578461 0.2476684587247288 0 0.9239066572695513 0.3235242268640168 0 0.9270171996221479 0.3355871761768133 0 0.9548587173286608 0.3993346732763601 0 0.9688288582201157 0.4278399516628819 0 0.9798268517746781 0.4631500067135488 0 0.9887729656592291 0.495541337736492 0 1 0.4999999999986943 0 0.8499908314934985 0.1694165311602685 0 0.7642592592585096 0 0 0.7886552733956651 0.06484282513603865 0 0.8197391563052838 0.1392260291587114 0 0.8380269772442152 0.1664905183717476 0 0.8536079187493553 0.1809742390585466 0 0.8688704389908157 0.1959954542438967 0 0.8719682865558782 0.2080686789855437 0 0.8750693418139301 0.2201454573439505 0 0.878171783794932 0.2322181975429925 0 0.881268546860056 0.2443108316220698 0 0.896380404010906 0.2597489166024492 0 0.8994823909014817 0.2718307216150132 0 0.9025843614215419 0.2839133882938233 0 0.9056860339627451 0.2959955708144764 0 0.9087880368417146 0.3080775969786542 0 0.9118874791497481 0.3201580848604455 0 0.9301319801646177 0.3476408695469422 0 0.9332309010886761 0.3597318064085578 0 0.9363419236176387 0.3718237688264093 0 0.9394436273241228 0.3839192190619296 0 0.9426015008674364 0.3960050982743973 0 0.9577150908561075 0.4114656342925886 0 0.9599559811843383 0.42396181837946 0 0.9631664484926993 0.4357413600212954 0 0.9669522262789647 0.4475744415878068 0 0.9701253066671941 0.4597463180307552 0 0.978792636310059 0.4749758434703063 0 0.9785707911570241 0.4875000085724897 0 0.992284534648316 0.5062499999987043 0 1 0.5124999999987164 0 0.758247974315568 0.01005637536490741 0 0.7643755866832678 0.0171792173102619 0 0.7674268725365216 0.02647987910331275 0 0.7705077653838839 0.0374426141128994 0 0.7736019228568498 0.04946951522430332 0 0.7766901227574281 0.06150106731303898 0 0.7917458348811006 0.07687700400748008 0 0.7948358737816188 0.08891320034430492 0 0.7979252396963853 0.1009518639906532 0 0.8009145599392414 0.1128631426180129 0 0.8039456287103661 0.1247537968749988 0 0.8070775528189384 0.1365456165166263 0 0.8229961116384847 0.1512392308518539 0 0.8261306624502971 0.1632316461939131 0 0.8569559008915517 0.1927554397871231 0 0.884367810810448 0.2563941451607671 0 0.9149889338033967 0.3322298405341059 0 0.9181023139329715 0.344291542913826 0 0.9457003595345028 0.4081054110405973 0 0.970709541325095 0.4692765892831279 0 0.9781831625285733 0.4979404645264145 0 0.9825202993923563 0.5077983991000502 0 0.9891746824526707 0.5187499999987335 0 1 0.5249999999987492 0 1 0.5374999999987822 0 0.9908484328511817 0.5312499999987657 0 0.841292243539122 0.1780690981573031 0 0.7518518518510555 0 0 0.7797784932241482 0.07353533236776849 0 0.8106809371157259 0.1481158349496058 0 0.8291430170117278 0.1752107833617201 0 0.844726859514931 0.1897754073463181 0 0.8599485017162877 0.2047563984742141 0 0.8630599156686334 0.2168152058819176 0 0.8661567565715469 0.2288886787379692 0 0.8692596301198541 0.2409571237104054 0 0.8723582078248812 0.2530382084411505 0 0.8874688156809984 0.2684754939840255 0 0.890569516319148 0.2805578616556108 0 0.8936703752151166 0.2926398793079474 0 0.896772597336848 0.3047205038528153 0 0.8998745949434948 0.3168004440018842 0 0.9029736304253433 0.3288818602686152 0 0.9212130295022274 0.3563699571821718 0 0.9243166746208563 0.3684632680240565 0 0.9274186750073528 0.380557116002573 0 0.9305290021761661 0.3926484262365733 0 0.9336413147982421 0.40473798124111 0 0.9487581814784865 0.4201925369732703 0 0.9517399639576302 0.4322611768249126 0 0.9549886723617911 0.4442926301853787 0 0.9580938186895033 0.4563812718746522 0 0.9607755659922317 0.468052727585847 0 0.9662693475541912 0.4798578220393772 0 0.9674014326291297 0.4926720810308142 0 0.989367586578398 0.5439044913595914 0 1 0.5499999999988151 0 0.7456481481473323 0.008476090977905323 0 0.7552567143754744 0.02182169162364492 0 0.7585497138949038 0.03428793546110574 0 0.7616494174546534 0.0461602270786121 0 0.7647233324147074 0.05816278094075206 0 0.7678113003684182 0.07019693835297233 0 0.7828669325039259 0.08557127948270707 0 0.7859566168512547 0.0976098181458341 0 0.7890237075097295 0.1096389898353946 0 0.7919984879010193 0.1216334297709007 0 0.7950990384216597 0.1335016192155807 0 0.7981967036711168 0.1454275369001561 0 0.814100168592109 0.1601768638129596 0 0.8172957931631478 0.1720017606274445 0 0.8480482403013039 0.2014931278356784 0 0.8754577721569472 0.2651203211684665 0 0.906074947352102 0.3409521211476314 0 0.909180653764449 0.3530248040433582 0 0.9367283657926313 0.4168201740972277 0 0.9704806794143935 0.5051914766099316 0 0.9752847799571129 0.5170861916482229 0 0.9799352709124149 0.5283381337873138 0 0.9828565689458769 0.537078742580075 0 0.991902346827072 0.5551795661952137 0 1 0.562499999998848 0 0.8325637330266812 0.1868374036405101 0 0.7394444444436055 0 0 0.7708981267097876 0.0822299495741404 0 0.8017500532663822 0.157160180606057 0 0.8202415120781974 0.1839125931978742 0 0.8358931205815715 0.1985231355987474 0 0.8510637299268367 0.2134886582341856 0 0.8541528774273213 0.2255433635156426 0 0.8572513334710942 0.2376099027369808 0 0.8603497199501309 0.2496840242573466 0 0.8634500777036627 0.2617616540762781 0 0.8785571281390349 0.2772026472776344 0 0.8816572093160131 0.289284601315024 0 0.8847575815517226 0.3013654492266127 0 0.8878586736009929 0.313446070505853 0 0.8909612870343857 0.3255281041707959 0 0.8940587834551443 0.3376095476533987 0 0.9122911530101205 0.365106881909196 0 0.9153952511078624 0.377196798256705 0 0.9184967769386738 0.3892891713963262 0 0.9215972461808889 0.401380177792049 0 0.9246914142378275 0.4134686000058153 0 0.9398381794376675 0.4288853595947542 0 0.9429600592217802 0.4409243510340696 0 0.9460622339096834 0.4530201007696578 0 0.9491639495816877 0.4651194645072856 0 0.9522663705142641 0.4772156182400292 0 0.955369094951535 0.4893118860930262 0 0.958471304895071 0.5014097054103117 0 0.9800347959745148 0.5443730350528772 0 0.9827395900378374 0.5537801746482268 0 0.9865599461976056 0.5635722973633488 0 1 0.574999999998881 0 1 0.5874999999989139 0 0.9894304399610838 0.5815186875300706 0 0.9912169743666419 0.5721038250552645 0 0.7333221517348798 0.0111916569079787 0 0.7429846914686294 0.0200440318773216 0 0.746684960512199 0.03090228754047205 0 0.749772553106691 0.04292091330769324 0 0.7527729615652621 0.05485221762569067 0 0.7558453140642021 0.06686180924557253 0 0.7589324130402355 0.07889069067656164 0 0.7739883332301474 0.09426695413725672 0 0.7770779736061748 0.1063054567693608 0 0.7801698419110406 0.1183462924268086 0 0.7831704932356872 0.1304123077187299 0 0.7862452594321048 0.142460809013538 0 0.7893595644486455 0.1544152094213882 0 0.8049780332319878 0.1689654691100855 0 0.8083859702407334 0.1806947229670388 0 0.8391363764204993 0.2102135609425272 0 0.8665445927826583 0.2738497780709435 0 0.8971579073511935 0.3496814248520487 0 0.9002636977404428 0.3617577262864547 0 0.9277852427831352 0.4255342513649368 0 0.9620259039071472 0.5139005908532003 0 0.9664917503568031 0.527656197513981 0 0.9740967584128747 0.5375280527018276 0 0.9898505130515312 0.5933625857755955 0 1 0.5999999999989468 0 0.8234934747304865 0.1955016035812922 0 0.7270370370361676 0 0 0.7620195036652933 0.09092588981962409 0 0.7928210822566851 0.165974517597937 0 0.8113352770125506 0.1926089199422672 0 0.8269295647015349 0.2072306425045023 0 0.8421476834698144 0.2221909289963076 0 0.8452469285764969 0.2342590115912484 0 0.8483456805865079 0.2463302162823939 0 0.8514433304074603 0.2584147760832266 0 0.8545406659784932 0.2704963325733322 0 0.8696442281190616 0.2859318683930601 0 0.8727457603407827 0.2980106939233184 0 0.8758461239910847 0.3100908900376378 0 0.8789466547755153 0.3221720238200816 0 0.8820468280578606 0.3342540028794134 0 0.8851427605719704 0.346332614588827 0 0.9033727831973281 0.3738387009764713 0 0.9064749533323885 0.3859304051824984 0 0.9095761106106826 0.3980205616532136 0 0.9126770657665345 0.4101115107984322 0 0.9157719408691093 0.4221974878127551 0 0.9309207251835643 0.4375839902723488 0 0.9340243167211224 0.4496727714730362 0 0.9371260795482482 0.4617669259469266 0 0.9402371070205211 0.4738548769042771 0 0.9433398792824725 0.4859501304848909 0 0.946441173212627 0.498046677812879 0 0.949539968838041 0.5101394852195048 0 0.9706662533516836 0.5489107416166418 0 0.9739594794190056 0.5619781064660054 0 0.9789926201489032 0.5744192865139195 0 0.9794108931609098 0.5872852682570019 0 0.9902083716380785 0.6058831123183686 0 1 0.6124999999989796 0 0.7206685032582713 0.009293222786395442 0 0.7338386493842302 0.02755987680169088 0 0.7383125552284988 0.0400992330191437 0 0.7408650028187155 0.05157956500619288 0 0.7438913855896123 0.06353910315338063 0 0.7469634799987628 0.07555122627693034 0 0.7500515429903482 0.08758389811709254 0 0.7651090583376982 0.1029628562523409 0 0.7681980973171578 0.115001756286803 0 0.771287542141065 0.1270438256946922 0 0.7743638712533945 0.1390878677471294 0 0.7774510736277046 0.1511303622170414 0 0.7804983303993948 0.1629395848778742 0 0.7961990431617545 0.1776437601453089 0 0.7994242327540579 0.1893336157738057 0 0.8302232640617737 0.2189173813754151 0 0.8576347268812313 0.2825775812417585 0 0.8882406595141878 0.3584103431420747 0 0.89134985167692 0.370489785677796 0 0.9188775418296696 0.4342840812549622 0 0.9530228158433137 0.5226347419138804 0 0.9645247335564883 0.5388048489091771 0 0.9809191573914762 0.6000266099042301 0 0.98986615148391 0.6176351098456603 0 0.8147573348068571 0.2042618293915605 0 0.7146296296287233 0 0 0.723178626200078 0.02022555813759752 0 0.7531407141672736 0.0996192805593076 0 0.7839589121013297 0.174559155107825 0 0.8024429817420811 0.2013189976552056 0 0.8180738176080219 0.2159663441374714 0 0.8332455476801783 0.2309079663246062 0 0.8363428500145964 0.2429771663519131 0 0.8394373683396719 0.2550675819635709 0 0.8425260080257724 0.2671657056012486 0 0.8456201516049192 0.2792489601780835 0 0.860724907889773 0.2946694601011374 0 0.8638288753478751 0.3067406873070563 0 0.8669341381793856 0.3188160892537101 0 0.8700337700731097 0.3308975152887922 0 0.8731332339324616 0.342978800884763 0 0.8762317560491777 0.3550581933327253 0 0.894453876584308 0.3825751353406585 0 0.8975555271800487 0.394661496343656 0 0.9006559525773976 0.406751375388925 0 0.9037558097353249 0.4188428400543299 0 0.9068545918760249 0.4309339506187249 0 0.9219835554297082 0.4463606157138102 0 0.9250942181552244 0.4584287496072539 0 0.9282001817652521 0.4705072685287409 0 0.9313123584388063 0.4825870167740758 0 0.9344133073016023 0.4946832598819855 0 0.9375115875636468 0.5067784903813345 0 0.9557515869625636 0.5343026536633849 0 0.9406093937141098 0.5188644490182681 0 0.9619563380991185 0.5585052242464499 0 0.9581852367041346 0.5464228664692447 0 0.965058215312543 0.5706068941587543 0 0.9681600937494674 0.5827075562086478 0 0.9705916683004217 0.5949797461655072 0 0.9821081390883102 0.6110700227536734 0 1 0.6249999999990126 0 1 0.6374999999990455 0 0.989174682452666 0.6312499999990291 0 0.708422744862629 0.009313114363141532 0 0.7135318424547187 0.0169591391525888 0 0.7216656974908113 0.03220981711905286 0 0.7285500343500191 0.03891154450866907 0 0.7293389973465195 0.04868332045803576 0 0.7319060955999808 0.06017962263791304 0 0.7349954594907511 0.07221017812798441 0 0.7380851070813612 0.08424240453488718 0 0.7411741525407971 0.09627624165294042 0 0.7562296170117786 0.1116561215911958 0 0.7593173151281618 0.1236963884115828 0 0.7624023692616156 0.1357415297031784 0 0.7654912892276028 0.1477734637293688 0 0.7685041671981763 0.1596958814806651 0 0.7716632783961823 0.1715061639923924 0 0.7874027855823946 0.1861636000156167 0 0.790540708150487 0.1980529699644228 0 0.8213163268478795 0.2276739068134436 0 0.8487055640981618 0.2913464992614936 0 0.8793331229314286 0.3671384907953072 0 0.8824363735783871 0.3792177449619684 0 0.9099553920352357 0.4430256994893469 0 0.9437182912812185 0.5309450752149434 0 0.9734685619197245 0.6072415360867562 0 0.9778289185345237 0.6197701359364212 0 0.9922317142749046 0.6433147029886973 0 1 0.6499999999990784 0 0.805697136766504 0.212940366895933 0 0.7022222222212797 0 0 0.7131392091471042 0.02617437338921117 0 0.7442626860838042 0.1083118139528235 0 0.7751689528115672 0.1831273040178208 0 0.7935632354518791 0.2100410582038981 0 0.8091201578718006 0.2246956875260824 0 0.8243529765840034 0.2396602034334964 0 0.8274278220588962 0.2517319334133997 0 0.8305160845755114 0.2638346160631483 0 0.8336080015382117 0.2759169911746015 0 0.8367006784963804 0.2879983929083269 0 0.8518107188198509 0.303406085870735 0 0.8549121375382682 0.3154763313987432 0 0.8580192698146158 0.3275472608211896 0 0.8611214231263632 0.3396224873989604 0 0.8642206580653164 0.3517029552552959 0 0.8673201779097177 0.3637827016848539 0 0.8855368330628904 0.3913035866223066 0 0.8886365398710026 0.4033897914187647 0 0.8917357212377256 0.4154833396389059 0 0.894833332577838 0.4275732754062509 0 0.8979329046311588 0.4396657394901816 0 0.9130569910165849 0.4550936017385802 0 0.9161741844504313 0.4671713142424293 0 0.9192848287970962 0.4792299548235714 0 0.922386721114323 0.4913205977899356 0 0.9254863873423003 0.5034162849010719 0 0.9285819440321968 0.5155068075245677 0 0.9468228407747671 0.5430392261491849 0 0.931685241373855 0.5275918836661517 0 0.953026159650108 0.5672417632461839 0 0.9499246503980237 0.5551403932762944 0 0.9561274287515806 0.5793422612910947 0 0.9592297571200744 0.5914415386096683 0 0.9623315010119973 0.6035447695643982 0 0.9822358505861017 0.6423198441328578 0 0.9881657427686439 0.6546330767927464 0 1 0.6624999999991114 0 0.6960185185175514 0.01033824067554526 0 0.7022501288055114 0.01978942708659834 0 0.7181223488088588 0.04406314666019891 0 0.7126821116114858 0.03572744045423247 0 0.7199448582780184 0.05683951549058894 0 0.7230319106878703 0.0688690334153727 0 0.7261196633243461 0.08090099703553856 0 0.729207530576372 0.0929342207381226 0 0.7322965825103014 0.1049688186085203 0 0.7473511256650445 0.1203484438469609 0 0.7504390547186254 0.1323876923526771 0 0.753525401059238 0.1444210174282622 0 0.7566146633998998 0.1564506675092094 0 0.7596592989779489 0.168437038621685 0 0.7628544859732822 0.1802630544819938 0 0.7785230280919715 0.1949877181103709 0 0.7817075297773672 0.2068221803330961 0 0.8124189935658575 0.2364427462245993 0 0.839796075013189 0.3000679447243149 0 0.870421313402757 0.3758628625187047 0 0.873520857141648 0.3879454729858627 0 0.9010306824462631 0.4517460055205784 0 0.9347922117975204 0.5396792444362437 0 0.9654328765486412 0.6156488827898127 0 0.9777296938201432 0.6322295697452882 0 0.9890818616406327 0.6687115498180474 0 1 0.6749999999991443 0 0.7969528824639642 0.2217116379430073 0 0.6898148148138249 0 0 0.7028193554879816 0.03129378474240598 0 0.7353853819110714 0.1170041824542402 0 0.766065241774575 0.1923369312360581 0 0.7846631181044246 0.2187415600229138 0 0.8002617899785768 0.2334391231420396 0 0.8154294972920596 0.2484271777460939 0 0.8185085230344236 0.2604992491446578 0 0.8216013731444015 0.2725777691534518 0 0.8246986908562099 0.284646099621736 0 0.827795452215813 0.2967155293328142 0 0.8428967530318389 0.3121355924316651 0 0.8460042120720691 0.3242029056506239 0 0.849109228080299 0.3362713993834253 0 0.8522097137798552 0.348346616268197 0 0.8553085145639064 0.3604263377016196 0 0.8584077522759687 0.372506765277927 0 0.8766182655397214 0.4000326538355923 0 0.879715632324684 0.4121226677940004 0 0.8828131159009265 0.4242148117496709 0 0.8859110824302664 0.4363042141327252 0 0.8890065577034221 0.44838949943174 0 0.9041446500200264 0.4638077974542776 0 0.9072621686557284 0.4758608783091843 0 0.9103620014574106 0.4879548188470252 0 0.9134611446552359 0.5000501157721972 0 0.9165579961350045 0.5121438990993774 0 0.9196570662132586 0.5242344547671777 0 0.9378940810729339 0.551775531286583 0 0.9227623935197666 0.5363214315285855 0 0.9409955001462811 0.5638767156380453 0 0.9440965120542492 0.5759782036273143 0 0.9471977945985804 0.5880781013357163 0 0.9502991136677155 0.6001792781727684 0 0.9534001628733015 0.6122819886837947 0 0.9681877468576064 0.6278425161821166 0 0.9712212706698177 0.6399653524760168 0 0.9747354322880794 0.6519656374849353 0 0.9780063162058523 0.6635262663839298 0 0.9899720740243658 0.6813915255373957 0 1 0.6874999999991772 0 0.683863396779391 0.01003045733845355 0 0.6898148148138181 0.01719202777856444 0 0.6909257155549948 0.02692405654879808 0 0.7051554577210948 0.04216372574386888 0 0.7081804338288276 0.05338701062791465 0 0.7111042879721299 0.06551180608793564 0 0.7141513353044511 0.07756479289212054 0 0.7172408443826719 0.0895950894433413 0 0.7203302397896391 0.1016266790187015 0 0.7234188106741488 0.1136615651003732 0 0.7384762716616402 0.1290407976187645 0 0.7415629982763723 0.1410786740329618 0 0.7446539829635586 0.1531159229884566 0 0.7477529495813952 0.165158351180715 0 0.7508436531004984 0.1772029759871609 0 0.7538526450841323 0.1890273745961161 0 0.7698591272936347 0.2037889914912155 0 0.7727994027835831 0.2155140455318728 0 0.8034863916981676 0.2451724436361583 0 0.8308914385543298 0.3087862007228266 0 0.8615069755925254 0.3845880279592954 0 0.8646037543096795 0.3966723856559426 0 0.8921171972690038 0.4604587507689182 0 0.925864114000854 0.5484110661777885 0 0.956500642124706 0.6243863528009319 0 0.9801625663181477 0.6761548764143392 0 0.9882080550474027 0.6946376787811694 0 0.7878998097376513 0.2303827739261355 0 0.6774074074063781 0 0 0.6929104190445156 0.03816118654221674 0 0.726508109499958 0.125697465360643 0 0.7572678851327983 0.2005830062827318 0 0.7757582594576575 0.2274363652086488 0 0.7913048032705438 0.2421436539186224 0 0.8065071567268998 0.2571570117395314 0 0.8096019567035575 0.2692257876932156 0 0.8126988114955372 0.2812936884776598 0 0.8157949724286692 0.2933618148326097 0 0.8188900781981469 0.3054287470661236 0 0.8339949659058182 0.3208508425501529 0 0.8370988992606858 0.3329186567025011 0 0.8402001956991978 0.3449914149272325 0 0.8432982418542999 0.3570699999317867 0 0.8463965169295919 0.369150065307803 0 0.8494945013575392 0.3812310591146824 0 0.8676983616521041 0.4087635204730411 0 0.8707912083730354 0.4208593869863518 0 0.8738917184620107 0.4329459865397917 0 0.876990312007448 0.4450355536193329 0 0.880089323450443 0.4571159909098315 0 0.8952289600299599 0.4725150961977803 0 0.8983388892455338 0.4845928566473868 0 0.901438363801336 0.4966865963982892 0 0.9045365547479889 0.5087793423978939 0 0.9076347116173327 0.5208720207676114 0 0.9107368272614862 0.5329636528300654 0 0.9289659994457621 0.5605133074734776 0 0.9138365803049288 0.5450587707456261 0 0.9320669184784849 0.5726129833062457 0 0.9351675411593265 0.5847134570234613 0 0.9382680648283449 0.5968140732232061 0 0.9413687295334495 0.6089154634430012 0 0.9444690351246734 0.621015356567803 0 0.9595432351128046 0.6365064606475745 0 0.9627031967254636 0.6485195043859044 0 0.9660483929310993 0.6598191530177294 0 0.9693583159675426 0.6718484137800577 0 0.9818106419811516 0.6870056512448016 0 1 0.69999999999921 0 0.6713789143174964 0.01082100182637688 0 0.6787459108072781 0.02183147375023472 0 0.6809560448025291 0.03482318758329746 0 0.6960415228291355 0.05015747444128221 0 0.6991277454046851 0.06218453440814567 0 0.7021894443289273 0.0742259496934714 0 0.7052735310597421 0.08625819991213746 0 0.7083635659820831 0.0982870863229114 0 0.711452470524638 0.1103188420243915 0 0.714540655479544 0.1223537139071026 0 0.7295972441400961 0.1377348131854699 0 0.7326872628519534 0.1497735388583686 0 0.7357777601831873 0.1618140418486339 0 0.7388677747613335 0.1738567455045706 0 0.7417963830753795 0.1857156787453723 0 0.7448574924397308 0.1974704927558804 0 0.7607629320739556 0.2122682327563418 0 0.7638402644421547 0.2241526939388586 0 0.7945760425717113 0.253876277176884 0 0.8219879938830353 0.3174956854339374 0 0.8525926711150735 0.3933118604831405 0 0.855688618666668 0.4053992927254323 0 0.8832030099639084 0.4691781150993017 0 0.9169375208513206 0.5571529042147881 0 0.9475634948745113 0.6331068543611154 0 0.9724755504081339 0.6839515703925434 0 0.989389181065973 0.7070484700469605 0 0.9758750035275814 0.6945824719074101 0 1 0.712499999999243 0 0.7791501507850204 0.2391293652000881 0 0.6649999999989586 0 0 0.6840421020765781 0.04684689887658933 0 0.7176283789528468 0.1343904722267085 0 0.7485904162855435 0.2088812942747944 0 0.7668662613417132 0.2361436563108078 0 0.7824546348521355 0.250861940430429 0 0.7976053931338016 0.2658730630200766 0 0.8007030290450144 0.2779432515495926 0 0.8037962451621965 0.2900095460918102 0 0.8068921221814549 0.3020768008186697 0 0.8099882642859264 0.3141432720863198 0 0.8250910702307257 0.3295643562347396 0 0.8281926283781689 0.3416369951555911 0 0.831290169103666 0.3537130281985692 0 0.8343874646648393 0.365792115251096 0 0.8374841531726815 0.3778745951233937 0 0.84058181854906 0.389954779967687 0 0.8587822435143406 0.4174895735031079 0 0.861875279826849 0.4295857372466572 0 0.8649726387327129 0.4416743159717605 0 0.8680733657311678 0.4537519113907812 0 0.8711810369397459 0.4658156101608379 0 0.8863135285095323 0.4812413538886987 0 0.88941688304039 0.4933234734967119 0 0.892515535908293 0.5054155533110249 0 0.8956137775127798 0.517508114008656 0 0.8987128522428792 0.5296014659844568 0 0.9018125670165826 0.5416957993992031 0 0.9200384611162211 0.5692494568076686 0 0.9049117255681433 0.5537911627638397 0 0.9231386943345266 0.5813485951158884 0 0.9262384292490502 0.5934485772459062 0 0.929338361577186 0.6055495261325115 0 0.932438410512603 0.6176509251582191 0 0.9355438143479147 0.6297201164970061 0 0.9506939106558134 0.6450853726675632 0 0.9540957137999383 0.6566196411186214 0 0.9577947098421649 0.6685379572071359 0 0.9612858020208228 0.6805973038940307 0 0.9804034410268778 0.7034572203680498 0 0.9891746830567356 0.7187498499542528 0 1 0.724999999999276 0 1 0.7499999999993417 0 1 0.7624999999993747 0 0.9898228873539694 0.7562497653036164 0 1 0.7374999999993088 0 0.9891624535436925 0.7439776244941037 0 0.9891905734605055 0.7312748074570076 0 0.6588738436474086 0.01037788775519573 0 0.6649139594869922 0.02048472052341372 0 0.6689466826342564 0.03167978274908771 0 0.6720862266176595 0.04350753470725086 0 0.6871285359874548 0.05887134192740818 0 0.6902151877457867 0.07089664632107703 0 0.6933086125028544 0.0829199597930745 0 0.6963981772398511 0.09494608790276854 0 0.6994868286834812 0.1069773227540639 0 0.7025748789803024 0.1190102901899295 0 0.7056627928220528 0.1310434005710811 0 0.7207159878058143 0.1464291203649508 0 0.7238044457955822 0.1584695599039395 0 0.726893413033697 0.1705113778876556 0 0.7299628628880599 0.1824611606685169 0 0.7329576561195223 0.1943189200388402 0 0.7360385956534699 0.2061232383956373 0 0.7518632613064113 0.2208811112954996 0 0.7549570568967188 0.2328691040974528 0 0.7856862596053773 0.2625993040515896 0 0.8130868946071268 0.3262117000775243 0 0.843679604383906 0.402034668332804 0 0.8467744470652065 0.4141205175986705 0 0.8742949619234295 0.4778795105260144 0 0.9080116948631847 0.5658868218401842 0 0.938714154116323 0.64163961852852 0 0.9643910765049585 0.6927014974781276 0 0.9788579628411421 0.7132196080295938 0 0.9687293878622094 0.70565673140833 0 0.9895214136128241 0.76874997997284 0 1 0.7749999999994076 0 0.770110491243914 0.2477993864692379 0 0.6525925925915987 0 0 0.6751715991306753 0.05553174869201614 0 0.7087492708148624 0.1430788007746528 0 0.7394411673793819 0.2178742939130755 0 0.7579817734985634 0.2448576747914891 0 0.7735116859625644 0.2595720243049979 0 0.7887176309167421 0.2745998795232735 0 0.7917981368582521 0.2866575444915201 0 0.794894114274334 0.2987248057040531 0 0.7979900447060752 0.3107914683267428 0 0.8010870655127189 0.3228592403554813 0 0.8161872602889519 0.338282270015361 0 0.8192842062334275 0.3503556671358824 0 0.8223799904168568 0.3624317411966714 0 0.8254757165119393 0.3745132617483516 0 0.8285715225445265 0.3865988778119833 0 0.8316696046812665 0.3986780292843669 0 0.8498655455021815 0.4262089859884948 0 0.8529563179721561 0.4383013966094579 0 0.8560543604535215 0.4503892470277157 0 0.8591635142226353 0.4624539513339022 0 0.8622771502658388 0.4745182325626655 0 0.8773963065904065 0.4899631095203718 0 0.8804951525874205 0.502053057343624 0 0.8835932040062422 0.5141446332061566 0 0.8866909844163968 0.526237853490739 0 0.8897880746478695 0.5383336069001828 0 0.8928856937356706 0.5504297279267503 0 0.9111115833386724 0.577983138317665 0 0.8959855096499539 0.5625240166170361 0 0.9142116789184321 0.5900786835626315 0 0.9173142187147195 0.6021606472598801 0 0.9204098014103744 0.6142440601090604 0 0.9235070214140502 0.6263336227039077 0 0.9266761959528875 0.6383566567141059 0 0.9420219841927912 0.6534345833439777 0 0.9457824127960204 0.6652734309268373 0 0.949069288325888 0.6773810815530816 0 0.952375668425022 0.6893592929942086 0 0.9784452147105018 0.7251513780971431 0 0.9793125463597181 0.7510512200496953 0 0.9809834615892743 0.7637189572281188 0 0.9765176290503707 0.7388413005176586 0 0.9900103815079366 0.7812155351061306 0 1 0.7874999999994404 0 1 0.7999999999994734 0 0.9892939520108071 0.7935433919765412 0 0.6455819636513247 0.01185060841479521 0 0.6534001018430248 0.01904792858175534 0 0.656818987574372 0.02887660836796158 0 0.6601110675287856 0.04021012611994897 0 0.6632118849434301 0.0522002792366625 0 0.678257591439854 0.06755672917183589 0 0.6813442173788002 0.07958238003767579 0 0.6844329911151276 0.09160871825500831 0 0.6875225253811844 0.1036372562343442 0 0.6906101349025636 0.1156682653087776 0 0.693697837331529 0.1276991349005676 0 0.6967853174005163 0.1397303933787261 0 0.7118348702641702 0.1551184941728178 0 0.7149240560832225 0.1671549201110612 0 0.7180126425359195 0.1791718166287421 0 0.7209914994940769 0.1911325710763868 0 0.724099103166418 0.2030103785912474 0 0.7272024244220667 0.2149135760068836 0 0.7429504381333532 0.2297754353092666 0 0.7461192744124931 0.2416302753894697 0 0.7768007805173165 0.2713325537726178 0 0.8041840145712277 0.3349287348008785 0 0.8347669394073844 0.4107567095050313 0 0.8378586181639018 0.4228408632410989 0 0.8653775776905237 0.486603284305271 0 0.8990855714023904 0.5746188195227493 0 0.9299772774391727 0.6502990766842627 0 0.9554591383977429 0.7014409202751833 0 0.9683467502691215 0.7192484026874701 0 0.9828974475120954 0.7749999672851563 0 0.9891746826792014 0.8062499996071101 0 1 0.8124999999995064 0 0.7613595107315343 0.2565485636470977 0 0.6401851851842548 0 0 0.6663005320735728 0.06421666507144534 0 0.6998713094810481 0.1517650176595799 0 0.7305509885460929 0.2270508585662315 0 0.7490835736615615 0.2535568027696334 0 0.7646584388251091 0.2682903974590155 0 0.7798247654211684 0.283324391881871 0 0.7829010549618759 0.2953759871695145 0 0.7859920156861692 0.3074392582434051 0 0.789087444240281 0.3195061414107309 0 0.7921822799039456 0.3315751710768802 0 0.8072795099610861 0.347000630047594 0 0.8103759196513665 0.3590704332250046 0 0.813468604310072 0.3711391581467676 0 0.8165627739244044 0.383242737880954 0 0.8196610586697176 0.3953212433546239 0 0.822758218261036 0.4074004424567557 0 0.8409521964339171 0.4349247284293186 0 0.844048488846789 0.4470091564069945 0 0.8471425590427371 0.4590860502543316 0 0.8502540563201311 0.4711630437303106 0 0.8533608970807969 0.4832425592499561 0 0.8684756848033655 0.4986914909176508 0 0.8715724306639091 0.5107822702807998 0 0.8746683523124322 0.5228761000345458 0 0.8777625623678225 0.5349753542673579 0 0.8808609391902934 0.5470692296044477 0 0.8839595828867683 0.5591628873662562 0 0.9021846604309994 0.5867113697099593 0 0.8870597999928292 0.5712561295683665 0 0.9052891859987532 0.5987865300652655 0 0.9083952599121911 0.6108344403307563 0 0.9114874214935375 0.6229013578671195 0 0.9146040389190975 0.6349845872218526 0 0.9177627206205724 0.6470530507787035 0 0.9334102965177413 0.6622515426299197 0 0.9364076514105069 0.674407193840066 0 0.9401311661698599 0.6861689507284845 0 0.943434159347679 0.6980884942688044 0 0.9577793432375101 0.7139337354058886 0 0.9673409815681537 0.7310877120798656 0 0.9705929777229884 0.7609481014396231 0 0.9678792964065465 0.7498462840548983 0 0.973365842554202 0.7732402077850367 0 0.9782931810965889 0.785637626003645 0 0.979058949626056 0.7999186036725122 0 0.9893437381456962 0.8190427880562678 0 0.6328994822757394 0.009910993417434552 0 0.645054305365462 0.02489077365596214 0 0.6481135842337056 0.03699694728211191 0 0.6512439781925246 0.04887609410565198 0 0.654342503850152 0.06088295210985389 0 0.6693863143857169 0.0762421555992959 0 0.672472899522889 0.08826879221851125 0 0.675559932297459 0.1002968063283755 0 0.6786470880486248 0.1123263368570715 0 0.6817341722811405 0.124356960511469 0 0.6848214573308569 0.1363871613286488 0 0.6879112866289282 0.1484169045335141 0 0.7029587692691778 0.1638020954079749 0 0.7060455575774887 0.1758409088416042 0 0.7091328689791723 0.1878502623030332 0 0.7121587821785053 0.1998862338377612 0 0.7152676800831572 0.2119051496737494 0 0.7183957269856827 0.2237602973671192 0 0.7342652210683067 0.238569275526676 0 0.7372136844658753 0.2503213508536005 0 0.7678807846668878 0.280031411662968 0 0.7952780557654414 0.3436447459249102 0 0.825854191674925 0.4194792314418875 0 0.8289486999814605 0.4315591426131874 0 0.8564556096461114 0.4953332947535174 0 0.8901596890219006 0.5833502650410214 0 0.9210344152663161 0.659097928346435 0 0.9465306036723369 0.7101827692635263 0 0.9594478617475698 0.724418637313293 0 0.9642746600656704 0.7402524375376734 0 0.9794512263005377 0.8134949513336058 0 1 0.8249999999995392 0 0.7523158276607615 0.2652169368197356 0 0.6277777777768812 0 0 0.6334313736227253 0.02152350212212914 0 0.6574292038388495 0.07290146718488286 0 0.6910002705700473 0.160451511401323 0 0.7217386063460214 0.2353882717161556 0 0.7401810232348962 0.2622505118618684 0 0.7557070479138597 0.2769912869849529 0 0.7709016334882985 0.2920221289613496 0 0.7739956640430332 0.3040877937348881 0 0.7770901351470767 0.3161523379884399 0 0.7801837921798721 0.3282208640513221 0 0.783278624217445 0.3402901855503496 0 0.7983725509780004 0.3557141777132555 0 0.8014678707766639 0.3677848427608109 0 0.8045620996404723 0.3798622497713092 0 0.8076539815815746 0.3919631771667569 0 0.8107502510254979 0.4040441955269272 0 0.8138466494712141 0.4161220880373183 0 0.8320470974642935 0.4436382413021014 0 0.835146943716367 0.4557182998342488 0 0.8382413674394424 0.4678018918838328 0 0.8413459163681252 0.4798827465623477 0 0.8444401210695751 0.4919703952898279 0 0.8595464808108685 0.5074319957943335 0 0.8626405578539182 0.5195272824026861 0 0.8657353804234803 0.5316218846774983 0 0.8688364467106703 0.5437108240822073 0 0.8719355533682132 0.5558020377336417 0 0.8750354699642573 0.5678939283065974 0 0.8932565075036902 0.5954206658032198 0 0.8781352019101113 0.5799866729110434 0 0.8963779707650925 0.6074613478074238 0 0.8994951917163236 0.6195117799609081 0 0.9026279068911855 0.63158219769699 0 0.905713712218392 0.6436856736048451 0 0.9088303401104441 0.6557780552998016 0 0.9241642745083924 0.6711912452174238 0 0.9274415172716997 0.6830898767637905 0 0.9312972386397897 0.6948356154937783 0 0.9345145211112753 0.7068387156519542 0 0.9494078773823049 0.7222341479283971 0 0.9544136385019439 0.7342664850082605 0 0.9589475962070959 0.7585898862890069 0 0.9620528320401327 0.7706940646579701 0 0.9558401014322294 0.7464875278650862 0 0.9651895165941373 0.7826850139883514 0 0.968262507358399 0.7949044244260731 0 0.9699517162451083 0.8076986285229977 0 0.9880714028183838 0.8325820583893875 0 0.9784399248444414 0.824762214372523 0 1 0.837499999999572 0 0.6215740740731995 0.008055175206860615 0 0.6226142039262402 0.01809386205715439 0 0.6361820647110461 0.03356627379705481 0 0.6392711020300446 0.04556180764609197 0 0.642372178060165 0.05756230930770651 0 0.6454708418807968 0.06956858859655518 0 0.6605141380455106 0.0849278924741077 0 0.6635997038983696 0.09695538597989845 0 0.666685850520534 0.1089843593315361 0 0.6697719866903992 0.121014729265047 0 0.6728582300751964 0.1330455231828047 0 0.6759452705315154 0.1450762124060586 0 0.6790333991246653 0.1571077154823295 0 0.694087592896061 0.1724879270473731 0 0.6971808192580157 0.1845006656219788 0 0.7002847157420662 0.1965122111681138 0 0.7033864573186085 0.2085477570374949 0 0.7064153552552203 0.2205298480616585 0 0.7093481371713427 0.2322685480672413 0 0.7251892022832358 0.2470677743785177 0 0.7282605048782063 0.2589625665142765 0 0.7589701687764319 0.2887390904417496 0 0.7863730864893089 0.3523590687925023 0 0.8169419903811029 0.4282044027632771 0 0.8200400064335215 0.4402810148968659 0 0.8475230748965574 0.5040766498041402 0 0.8812296776723395 0.5920714775073664 0 0.9119307235770595 0.6678777359617205 0 0.9375977974989353 0.7189194720009993 0 0.9712366983998514 0.8185555446970949 0 0.9906477732816132 0.8445922406406148 0 1 0.8499999999996051 0 0.7435600599697139 0.2739601111715404 0 0.6153703703695188 0 0 0.6242352867086578 0.03023208176895287 0 0.6485555445074732 0.0815897509874812 0 0.6821191954077076 0.1691340445512961 0 0.7127798272053802 0.2439429225347599 0 0.7312891246432749 0.2709543316893573 0 0.7468570075842546 0.2857097743547085 0 0.7620012230134694 0.3007367759944429 0 0.7650951360233358 0.3127993202444653 0 0.7681845690220868 0.324870908405771 0 0.7712766237995774 0.3369392146691655 0 0.7743669281793486 0.3490101848288422 0 0.7894665956448159 0.3644283399223006 0 0.7925605347627669 0.3765049225529449 0 0.7956508703381485 0.388588547619834 0 0.7987399126792634 0.4007010658552275 0 0.8018397671241898 0.4127641003502785 0 0.804927655028101 0.4248591250725969 0 0.8231375722339106 0.4523597288279593 0 0.8262349832928785 0.4644409544411541 0 0.829332287898673 0.4765232814958115 0 0.8324290141467998 0.4886056455722094 0 0.8355200236643407 0.5006958774486731 0 0.8506196453757463 0.5161707871394207 0 0.853715483310429 0.5282630405521079 0 0.8568150371396477 0.5403510740594757 0 0.8599142397623001 0.5524402686781223 0 0.8630130230029828 0.5645314053344872 0 0.866111937199892 0.5766234975754996 0 0.8843502808034082 0.6041184389358616 0 0.8692102844619556 0.5887171936281057 0 0.8874769399619704 0.6161524228983973 0 0.8906009704194974 0.6282188528008952 0 0.8937014801022032 0.6403160839678004 0 0.8968020152120171 0.6524139774872857 0 0.8999027145432736 0.6645120966859861 0 0.9151000786460664 0.6798447513812428 0 0.9187428928841859 0.6916687294052717 0 0.9223364068557488 0.7034985055488351 0 0.9255641836156867 0.7155574387395688 0 0.9407026607461259 0.7310224368501246 0 0.9438070883817159 0.7431251252134402 0 0.9500171997291995 0.7673308758380012 0 0.9469119120284025 0.7552279425852803 0 0.9531217935555947 0.7794353514716938 0 0.9562262923885247 0.7915404539884952 0 0.9593326025869985 0.8036397355124618 0 0.9618430232058219 0.8158301121707778 0 0.9766309640713645 0.8343232883074705 0 0.9664430232910407 0.8279041536931883 0 0.980735150824161 0.8432733433006737 0 0.9899750412964081 0.856659159672582 0 0.6101777612167577 0.01195742888135903 0 0.6125724223306569 0.02634951218244051 0 0.6273157037185446 0.04224789327404319 0 0.6304003549692423 0.05424716444194086 0 0.63350428743823 0.06623724894614517 0 0.6365908675232799 0.07825596743808999 0 0.6516389301112557 0.09361846657353194 0 0.6547243103078211 0.1056456157614186 0 0.6578098215415227 0.1176759850727896 0 0.6608964151572936 0.1297039990332902 0 0.6639826088175959 0.1417338823846658 0 0.667069023613256 0.1537650125966956 0 0.6701528124590875 0.1657950698744363 0 0.6852134293498076 0.1811499193012338 0 0.6883137267917495 0.1931691413586782 0 0.6914135338344365 0.2052022703380005 0 0.69450161021124 0.2172434381037672 0 0.6973386086491782 0.229107303256675 0 0.7002620726955211 0.2409409607582718 0 0.7162896978935432 0.2556459432346656 0 0.7193708533252292 0.2676683593086156 0 0.750091073967652 0.2974717860564512 0 0.7774620975272791 0.3610764832023608 0 0.8080212135271934 0.4369467157851893 0 0.811125262004444 0.4490090355378792 0 0.8386020724148737 0.5128104089992185 0 0.8723134583494233 0.6007851069604961 0 0.9030140649876226 0.6765889280712926 0 0.9286688378279139 0.727659683480739 0 0.9809132987794992 0.8523901885741888 0 1 0.862499999999638 0 0.7345279117302629 0.2826293362221463 0 0.6029629629621371 0 0 0.6153685707408753 0.03891337234143936 0 0.6396777255403442 0.09028608232212873 0 0.673242849558654 0.1778165437317274 0 0.704067301015419 0.2524064073810183 0 0.7224045510786216 0.2796648737824771 0 0.7378844921820665 0.2944027137672883 0 0.7531023506678279 0.309447451397635 0 0.7561780408113585 0.321550932073792 0 0.7592659640980934 0.333613324217452 0 0.7623475145117762 0.3457080153087003 0 0.7654446090549518 0.357778754507971 0 0.7805613175243692 0.3731422879544291 0 0.7836493611887457 0.3852275906246575 0 0.7867402487350257 0.3973365849856652 0 0.7898206547329547 0.4094741039889046 0 0.7928886077116386 0.421576339909725 0 0.7959819088887032 0.4336485724615057 0 0.8142237581304093 0.4610818162455098 0 0.8173200865782692 0.4731640997282858 0 0.8204168820328439 0.4852465740499644 0 0.8235125038786865 0.4973277736700098 0 0.8266033110835191 0.5094216454248572 0 0.8416994339949994 0.5249019940628741 0 0.8447959152830666 0.5369902656957264 0 0.8478942915278653 0.5490785399489109 0 0.8509924240652567 0.5611685484540749 0 0.8540899705823812 0.5732603998909778 0 0.8571884591558685 0.5853532458709177 0 0.8754482586536465 0.6128271628051358 0 0.8602832943093035 0.5974195727070851 0 0.8785704922906166 0.6248649741534205 0 0.8816747170415341 0.6369526192850582 0 0.8847748605717041 0.6490501292822897 0 0.887874756148757 0.6611480749417529 0 0.8909760581766206 0.6732423674406471 0 0.906355555702207 0.6884410988473817 0 0.9099265601896047 0.7003025283966013 0 0.9134871752884084 0.7122668541322239 0 0.9166277383901733 0.7243084918076106 0 0.9317733663420602 0.7397624056662125 0 0.9348777986640058 0.7518649470959696 0 0.9410866188329781 0.7760714952646645 0 0.9379823124972325 0.7639676277880021 0 0.9441906717155677 0.7881763125913575 0 0.9472967195105874 0.8002748999860799 0 0.9504125445869247 0.8123607524937384 0 0.9536752951671748 0.8244677682666106 0 0.9685415664520924 0.8404663471735342 0 0.9718024058112248 0.8520157105963632 0 0.9893585753447921 0.8688289881871181 0 0.9777624066328332 0.8626776603791695 0 1 0.8749999999996708 0 1 0.8874999999997039 0 1 0.8999999999997368 0 0.9901504819173026 0.8937555315027244 0 0.9894402862415119 0.8812500000028269 0 0.5964026079585051 0.01032653567374811 0 0.6008441335424437 0.02159365950813617 0 0.6035522917862614 0.03509392937294882 0 0.6184515627099386 0.05093144354190036 0 0.621532376045273 0.06293210291800702 0 0.6246246423398453 0.07494220113684927 0 0.627706627973128 0.08696089552469384 0 0.6427606052095018 0.1023159900779921 0 0.6458460415204653 0.1143410531367732 0 0.6489343250526234 0.1263661539086727 0 0.6520213051674866 0.1383919078701207 0 0.6551066215859951 0.1504217078460636 0 0.6581915347578431 0.1624537092669713 0 0.6612744429770141 0.1744837671992125 0 0.6763358720811579 0.1898356888385033 0 0.6794420322430241 0.2018569964622743 0 0.6825297613707271 0.213896586995648 0 0.6854907495485884 0.2258341036205924 0 0.6884438490931699 0.2377050375830038 0 0.6915916211652454 0.2495785179215312 0 0.7073989745928518 0.2643286368601752 0 0.7104918791514352 0.2763845095011709 0 0.74116975089274 0.3061667824285774 0 0.7685528728274962 0.3698067848266878 0 0.7991052162227166 0.4456890243868513 0 0.802211706282866 0.4577317923850775 0 0.8296903025288902 0.521539445093018 0 0.8634099151618622 0.6094710241423326 0 0.8941298564556128 0.6852444844811202 0 0.9197401232592434 0.736399613866806 0 0.956658340773507 0.8365490140053061 0 0.9899392051042615 0.9062831890122208 0 1 0.9124999999997696 0 0.7257453164886473 0.2913772422147263 0 0.5905555555547555 0 0 0.6065010775595805 0.04759440029787282 0 0.630804470218345 0.09897557755034597 0 0.6643592463213123 0.1865034852375196 0 0.6950212834737306 0.2612986696397103 0 0.7135446529387515 0.2883997740194338 0 0.7289158924288428 0.3030613613271203 0 0.7441851043038571 0.3182010720356278 0 0.7472266513572141 0.3303967481415656 0 0.7503012561277335 0.3425108476748082 0 0.7534004497610208 0.354537629314602 0 0.7565377915227898 0.3665334295666332 0 0.7716555756444281 0.3818583414768617 0 0.7747363036515612 0.3939725487064655 0 0.7778443898194809 0.4060556531189026 0 0.780899787949894 0.4182064628956189 0 0.7839732628820919 0.4302939659763266 0 0.787060349298693 0.4423472069704242 0 0.8053096545182181 0.4698052427004467 0 0.8084058337765132 0.4818854373345601 0 0.8115017775405138 0.4939693494279419 0 0.8145975837300203 0.5060501673036428 0 0.8176904218434404 0.5181406052186882 0 0.8327801844303042 0.5336288590616933 0 0.8358756745697027 0.5457174644573342 0 0.8389730305718948 0.5578059184733856 0 0.8420699184982676 0.5698930182668877 0 0.8451676625867443 0.5819892018157549 0 0.8482586366970277 0.5940737763214943 0 0.8665382075093702 0.621514660249607 0 0.8513747045639219 0.6061188595624087 0 0.8696489031334421 0.6335897032944328 0 0.8727487808178154 0.6456868580508833 0 0.8758491236728762 0.6577835277839514 0 0.8789494285936599 0.6698785710122257 0 0.8820534114814611 0.6819593811335496 0 0.8978010834719471 0.6971845942598286 0 0.9012380731021447 0.709095020536618 0 0.904598448680567 0.7209300550542089 0 0.9077076616692201 0.7330373055721174 0 0.9228443498080164 0.7485019321602477 0 0.9259485676906565 0.7606043466973472 0 0.9290525422290923 0.7727073265456746 0 0.9321562961952147 0.7848110727076294 0 0.9352603391738885 0.7969132907886819 0 0.9383750050405447 0.8089859483851798 0 0.9414936431441587 0.8210873332916686 0 0.9446162586768555 0.8331859829486377 0 0.9597648000411876 0.8486495752442236 0 0.9634504419525824 0.8604920149723229 0 0.9786583017468261 0.8762635434300983 0 0.9800364318557133 0.8887853978039756 0 0.9815314932690202 0.9009169620625075 0 0.9900447974877544 0.9184651802891697 0 1 0.9249999999998024 0 1 0.9374999999998355 0 0.9895224579965336 0.9298547181763237 0 0.5842235477833112 0.00967574644477159 0 0.5886674195040082 0.01994708170751788 0 0.5916282731228573 0.03166205138914883 0 0.5945733335169396 0.04417512381199473 0 0.6095844220755791 0.05961417120682781 0 0.6126646021490686 0.07163067273562726 0 0.6157490929100924 0.08363631925853235 0 0.6188398518808793 0.0956507927072042 0 0.6338887434702507 0.1110014878978252 0 0.6369754847825964 0.1230253266454803 0 0.6400615029914538 0.1350503920844925 0 0.6431467165497812 0.1470773614747106 0 0.6462290129115432 0.1591097488556482 0 0.6493136791250914 0.1711389650511307 0 0.6523987013148023 0.1831664323316192 0 0.6674659718662737 0.1985209125051648 0 0.6705603100438338 0.2105508212721781 0 0.673647144419995 0.2225901245976561 0 0.6765947119527743 0.2345717643179483 0 0.6796521827210431 0.2464606951377498 0 0.6827972271859615 0.2583777691606857 0 0.6984882925222228 0.2732692635846189 0 0.7016513364245102 0.2851384709130385 0 0.7322133985733568 0.3148051643155806 0 0.7596530491053048 0.378520891035884 0 0.7901941044000118 0.4543792907452686 0 0.7932910212926534 0.4664538924586577 0 0.8207623819326116 0.5302685386168579 0 0.8545015675855075 0.6181607825692629 0 0.8853264935686466 0.6939172967181217 0 0.9108116066574343 0.745139214419433 0 0.9477283073709226 0.8452854958063099 0 0.9659831296885786 0.8728526442768705 0 0.9831890707502554 0.9124543356218828 0 0.9896640293899366 0.942591726595752 0 1 0.9499999999998684 0 0.7166913998827502 0.3000931387213811 0 0.5781481481473866 0 0 0.5976376835121087 0.05626091793975439 0 0.621928210832115 0.1076682278911306 0 0.6554943310770371 0.1951903228989064 0 0.68623898458447 0.2701763736744869 0 0.7046260685603225 0.2970732416886225 0 0.7200238634882525 0.3118265699744082 0 0.735285740916926 0.3269098491432988 0 0.7383214641118687 0.3391168337470197 0 0.7413908062885587 0.3512065859559846 0 0.744508455399278 0.3632275379264661 0 0.7476234840502429 0.3752233728194794 0 0.7627307293409473 0.3906295977531039 0 0.7658143656735716 0.4027440667697484 0 0.7688912618148401 0.4148551909855533 0 0.7719727995580211 0.4269467628300082 0 0.7750624916361734 0.4390077632322316 0 0.7781599696595951 0.4510659064196115 0 0.7963962723859397 0.4785219214029027 0 0.7994903296032945 0.4906054366978199 0 0.802585640001036 0.5026894250487863 0 0.805682500025118 0.5147716551068283 0 0.8087737416118961 0.5268546458867743 0 0.8238615044514535 0.5423488464357669 0 0.8269574543643146 0.5544210370474961 0 0.830050133139534 0.566507379376318 0 0.8331465561976745 0.5785972994977696 0 0.8362427840337738 0.5906905416613843 0 0.8393364295565626 0.6027579966239408 0 0.8576243702905938 0.6302269478122418 0 0.8424617025288624 0.6148388734206728 0 0.8607238817013744 0.6423224985302574 0 0.8638235579940323 0.6544195537969755 0 0.8669233579112879 0.6665179796195815 0 0.8700222753058561 0.6786147389694817 0 0.8731543211329913 0.690593802024001 0 0.8889926192682834 0.7057980680712737 0 0.8924891067426426 0.7177156806145502 0 0.8956717284203061 0.7296709251695135 0 0.89877978726459 0.741776102499389 0 0.913915470588457 0.7572414375043397 0 0.9170193528839385 0.7693435095433168 0 0.9201232243437525 0.7814448191233088 0 0.9232267838911971 0.7935410927298175 0 0.9263412994499585 0.8056244509195674 0 0.929471115758745 0.8177162182881128 0 0.932577500004952 0.8298205293084986 0 0.9356927216517305 0.8419217920249186 0 0.9508327361300244 0.8573873579337636 0 0.9539328204637409 0.8694820323344041 0 0.9688380720413555 0.8845848586636788 0 0.9715510366132235 0.89685845322445 0 0.9740673233373522 0.9091296069977055 0 0.9784017779276535 0.9212825183112154 0 0.9795086188136159 0.9347366452974484 0 0.9880437784362132 0.9561999923834901 0 1 0.9624999999999012 0 0.5719499050413959 0.0102333303968854 0 0.5773294809357261 0.01876798102659247 0 0.5798495034170333 0.02916106171535053 0 0.5826213898263743 0.04085076479542046 0 0.5856835004837286 0.0529295981310305 0 0.6007173350547461 0.06829564840499028 0 0.6038007293143083 0.08031547019743454 0 0.6068804234116724 0.09232520825847479 0 0.6099702859399232 0.1043385277600477 0 0.6250185790856753 0.1196839035964365 0 0.6281037165751094 0.1317089692486818 0 0.6311886070495569 0.143734747909664 0 0.6342729440807124 0.1557613327530243 0 0.63735312557962 0.1677930728545437 0 0.6404389199693515 0.1798170620847244 0 0.6435253838552151 0.1918446064951555 0 0.6585885152875961 0.2072125974676758 0 0.6616786086167116 0.2192442308817355 0 0.6647626717947462 0.2312802877229881 0 0.6677379035305081 0.2433104190167906 0 0.6708589718041538 0.255330295957683 0 0.673978787847092 0.2672910111031929 0 0.6895265936059314 0.2820479768607795 0 0.6927612633997513 0.2938407639819854 0 0.7232889528030979 0.3237402498067713 0 0.7507376872087393 0.387264275707226 0 0.7812674749048339 0.463123610805742 0 0.7843616757773806 0.4751886085675462 0 0.8118490500696041 0.53898000038342 0 0.8455915385013919 0.6268822148674624 0 0.8767703993756537 0.7025178990282199 0 0.9018825024299356 0.7538793939602777 0 0.9387967321415118 0.8540267699963104 0 0.9570065574927382 0.8815337365046003 0 0.9805225823891055 0.9465462954237973 0 0.9915243053284556 0.9686513801073912 0 1 0.9749999999999343 0 0.7078430128697875 0.3087853776446404 0 0.5657407407400138 0 0 0.5887664323820786 0.06495656578581019 0 0.613061959399134 0.1163467775997106 0 0.6466211095391909 0.2038691742449161 0 0.6773878750112257 0.2790146129886574 0 0.6957475439912373 0.305786804429609 0 0.7111384687832067 0.3206264724168489 0 0.7263452608591741 0.3357599547274368 0 0.7294112145358895 0.347867224283693 0 0.7324994014208741 0.3599189804538646 0 0.7355987993521823 0.3719452294482331 0 0.7387081325273647 0.3839951578640327 0 0.7538067856381685 0.3994025245019995 0 0.7568809748275692 0.4115212275317037 0 0.7599730764407964 0.4235924140168701 0 0.7630671982487129 0.4356614473731895 0 0.7661613107770682 0.4477315122889772 0 0.769251516551656 0.4597990284878291 0 0.7874666754760834 0.4872526732111654 0 0.7905691337695127 0.4993226734662175 0 0.7936698156085042 0.5114088699495787 0 0.7967678628023016 0.5234947196890301 0 0.7998559169760084 0.5355781101232642 0 0.8149508527438705 0.5510397133919175 0 0.8180373828751182 0.563113457572334 0 0.821135707702578 0.5751984921253253 0 0.8242371889204745 0.5872880474149071 0 0.8273179371485356 0.599364934332565 0 0.8304304419922491 0.6114555195199447 0 0.8486984519002283 0.6389603446245019 0 0.8335551844447129 0.6235342102483606 0 0.8517988010463362 0.6510528052544829 0 0.8548984156590987 0.6631518974368902 0 0.8579973563778117 0.6752511893553352 0 0.8610962988840518 0.6873467673113836 0 0.8644805585202944 0.6990958017720114 0 0.880330559348666 0.7143579172703041 0 0.8836279520576654 0.7263196709638363 0 0.8867440170921862 0.7384179844928667 0 0.8898475541792714 0.7505195841227998 0 0.9049867749144327 0.765980679283123 0 0.9080904396711874 0.7780822498702045 0 0.9111925882433283 0.7901809410041356 0 0.9142989079062824 0.8022728779719216 0 0.9174293666990134 0.8143580483125104 0 0.9205500971186416 0.8264553998297874 0 0.9236570142501312 0.8385577109300961 0 0.9267610382225522 0.8506629496256676 0 0.9419017472380415 0.8661306486649522 0 0.944998178705217 0.8782216874379799 0 0.9601517461334153 0.8937031191137872 0 0.9632463480144234 0.9058128181767875 0 0.9662972904405805 0.9179335494898996 0 0.9690692263456178 0.9301251660889278 0 0.9721548438998198 0.9422391145890328 0 0.9741856165335298 0.955558568916923 0 0.9804009332914874 0.9682506335363377 0 0.988583222522598 0.9801157403063701 0 1 0.9874999999999672 0 0.5595370370363453 0.01067270360512241 0 0.5659155388457224 0.01722788745255314 0 0.5681361626615308 0.02658368416456521 0 0.5708025061901502 0.03785027416875657 0 0.5737063548710908 0.04968800568355036 0 0.5767988818731518 0.06165743892335224 0 0.5918496640434312 0.07697551711233458 0 0.5949303425779032 0.08899174152172669 0 0.5980160418517901 0.1010044777020003 0 0.6011012623148151 0.1130140062196253 0 0.6161472486401433 0.1283677277715434 0 0.6192317920567806 0.1403932191628096 0 0.6223162597928391 0.1524184830187625 0 0.6253986064560948 0.1644459721065189 0 0.6284816711927876 0.1764726124231585 0 0.6315697902657189 0.1884985710702287 0 0.6346559615127041 0.2005276772301884 0 0.6497107605825302 0.2159001230031539 0 0.6527970183776652 0.2279365383284791 0 0.6558819117915808 0.2399700527648913 0 0.6589574397004068 0.2519878764458294 0 0.6620624276601885 0.2640020922747999 0 0.6651073185555988 0.2759858782590887 0 0.6806318096934085 0.2908483760218905 0 0.6838674170720047 0.3025381616684441 0 0.7143292540383771 0.332461220054719 0 0.7417979660038451 0.3960797030608463 0 0.7723465617477066 0.4718549381555391 0 0.7754535657952721 0.4839159462700361 0 0.8029324330519811 0.5476665691875824 0 0.8366703129969792 0.635611368292986 0 0.8681245466219041 0.7109554854635323 0 0.8929538209754293 0.7626193459325823 0 0.9298649877003573 0.8627689656966007 0 0.9481046871042418 0.8903306283242342 0 0.9908493236212061 0.9908493236212098 0 1 1 0 0.6990559707005313 0.3175614284377601 0 0.5533333333326754 0 0 0.579897908202216 0.07364045264673867 0 0.6041921142404527 0.1250265930454356 0 0.6377451738266888 0.2125568732598344 0 0.6684197528059219 0.2877115784745136 0 0.6868538241877752 0.3144838326716906 0 0.7022897587991951 0.3293839885827951 0 0.7174221698753197 0.3445179568255077 0 0.7205140742431111 0.3565769888443625 0 0.7236067597471814 0.3686370074542494 0 0.7266990574318556 0.3806981621257763 0 0.7297918011173239 0.3927602040226353 0 0.7448870112471175 0.4081592196689988 0 0.7479763690864614 0.4202366160163618 0 0.7510682931024208 0.4323066624072807 0 0.754161406402989 0.4443755051451743 0 0.757254161909068 0.4564462845012365 0 0.760346669938194 0.468517207935697 0 0.7785506668605048 0.4959802388379686 0 0.7816568336501595 0.5080558321841908 0 0.7847608666233178 0.520136003274998 0 0.787846167049167 0.5322270647475122 0 0.7909433149371718 0.5443002968634667 0 0.8060434602264372 0.5597458227847405 0 0.8091547690614028 0.5718229325174005 0 0.8122586994170488 0.5839058959664212 0 0.8153562148704834 0.5959917323174075 0 0.8184555843452799 0.6080781423802932 0 0.8215436858765182 0.6201683099872726 0 0.839773598436791 0.647696918534861 0 0.8246519447996796 0.6322532636014047 0 0.8428744257793548 0.6597882384758658 0 0.8459736820868393 0.6718858165145509 0 0.8490723519800992 0.6839821813905277 0 0.8522522435427619 0.6958660660724767 0 0.8557181820212685 0.707608236583032 0 0.871609976143268 0.7229912288413092 0 0.8747038551520003 0.7350696023411826 0 0.8778118265113278 0.7471651608968283 0 0.8809157366806779 0.7592640236422722 0 0.8960583748344328 0.7747196608175294 0 0.8991620447923184 0.7868210330248622 0 0.9022649513350545 0.7989214757640247 0 0.9053667144272959 0.8110126923939429 0 0.9085112710624043 0.8230941696953871 0 0.9116061204831964 0.8352062942135571 0 0.9147124015745036 0.8473086701783076 0 0.917817500405699 0.8594129803424879 0 0.9329691866831755 0.8748742802416404 0 0.9360740732493646 0.8869787985580492 0 0.9512163885824331 0.9024463735626085 0 0.9543150668933669 0.9145542256109805 0 0.9574304735622778 0.9266570507518495 0 0.9605341421232034 0.9387574419972473 0 0.9630353410448473 0.950333868480417 0 0.968677658686774 0.9684675711110711 0 0.974949586191447 0.979024102336993 0 0.981193955811932 0.9894561023392392 0 0.987499999999948 1 0 0.5479058223589679 0.01072817080395718 0 0.555634695515429 0.02238441878864057 0 0.5587180840614312 0.03439982898453386 0 0.56180150250605 0.04641530425895479 0 0.5648365626174985 0.05837358327865218 0 0.567932842145463 0.07035726532986786 0 0.5829809868998062 0.08565912340383139 0 0.5860646000194613 0.09767289534842327 0 0.5891473740927491 0.1096828432661046 0 0.5922347847045117 0.121693400395193 0 0.6072767325852048 0.1370521181419421 0 0.6103608122005562 0.1490766479047734 0 0.6134440339610782 0.1611023775990877 0 0.6165268645270263 0.1731281982432403 0 0.6196112795128168 0.1851553999739028 0 0.622696864742681 0.1971837071018153 0 0.6257820493723403 0.2092134091414117 0 0.6408312806025281 0.2245903315140364 0 0.6439161407441372 0.2366212126434759 0 0.647005804095697 0.2486478912810205 0 0.650098924469767 0.2606705313255985 0 0.6531944933618484 0.2726818209308957 0 0.6562895345859936 0.2846927495894933 0 0.6718520988394848 0.2994320179899734 0 0.6749671947413721 0.3112280267826166 0 0.7054800699458086 0.3412145721381222 0 0.7328848014982445 0.4048232673851354 0 0.7634406687835396 0.480575250804561 0 0.7665551461264181 0.4926439680434365 0 0.7940432665963942 0.556380172332149 0 0.8277511598990723 0.6443412578813255 0 0.8593558579452317 0.7196266202361038 0 0.8840245285645063 0.7713604328357732 0 0.9209264342042829 0.8715161889640416 0 0.9391778896748759 0.8990821598297726 0 0.9637701020851537 0.9599435835436689 0 0.6900521183793733 0.3262465888637786 0 0.5409259259252939 0 0 0.5710245783436754 0.08233623671091869 0 0.595321255119369 0.1337147847476513 0 0.6288674602092279 0.2212449839993331 0 0.6596632423486525 0.2962435482283488 0 0.6779592255010148 0.3231789716177926 0 0.6933422879744831 0.3380861152947395 0 0.7085252355717891 0.3532259639685035 0 0.7116182660650574 0.3652871867763247 0 0.7147081167103941 0.3773454668946938 0 0.7177997381992308 0.3894069439978392 0 0.720891756215688 0.4014697014295595 0 0.735977885105662 0.4168875138461932 0 0.7390709737952019 0.428952658627124 0 0.7421639233116207 0.4410185412888322 0 0.7452541121233272 0.4530896989128541 0 0.7483471559173093 0.4651579203005712 0 0.7514397050494506 0.4772285181071504 0 0.7696497429125265 0.5047062709003951 0 0.7727447853967663 0.5167830786884561 0 0.7758274080518702 0.5289083782504481 0 0.7788946401223003 0.5410062821982269 0 0.7820063055461742 0.5530448750986434 0 0.797146457905344 0.5684613878641668 0 0.8002385722626995 0.5805472480441659 0 0.8033358658919153 0.5926325916329382 0 0.8064333474498563 0.604718948532643 0 0.8095323453117853 0.6168059488601674 0 0.8126336570862259 0.6288933640085436 0 0.8308516163635833 0.6564317602266776 0 0.8157321700135159 0.6409824644681719 0 0.8339509816094749 0.6685234313604895 0 0.8370495425139415 0.6806179667838095 0 0.8401474991632832 0.6927127966051826 0 0.8435364606837423 0.7042303959714737 0 0.8471607580579046 0.7162378650114443 0 0.8626742245616159 0.7317171416847328 0 0.8657771508560771 0.7438127497891586 0 0.868882645107755 0.7559070209926904 0 0.871984625822617 0.7680080167240105 0 0.8871298950046873 0.7834592501032709 0 0.8902337859447156 0.7955591883596845 0 0.8933370558008515 0.807657189314874 0 0.8964479515217023 0.8197535925320198 0 0.8995568693409824 0.8318548051379185 0 0.9026632734978215 0.8439562433803733 0 0.9057661332337557 0.8560603484438279 0 0.9088740074987417 0.8681607591464819 0 0.9240369470746028 0.8836175975101814 0 0.9271412464531323 0.8957216866573872 0 0.942283730730933 0.9111895140155151 0 0.9453929516456865 0.9232938619327046 0 0.9484974632473656 0.9353968009850867 0 0.9515961406540041 0.9474556761688382 0 0.954479482206524 0.9593668360855766 0 0.9568504261700401 0.9693557167297375 0 0.9625010910933272 0.9787648356961893 0 0.9687498890657293 0.9891745504589395 0 0.9749999999998958 1 0 0.5348165180186939 0.01047462704268625 0 0.5410563837519968 0.02104953741277411 0 0.5467962528105695 0.03145803058145365 0 0.549961809259024 0.04316710245421269 0 0.5529370317332953 0.0550924833788373 0 0.5559899454409938 0.06706811232891609 0 0.5590643073056178 0.07905007638812916 0 0.5741141554135143 0.0943390572353873 0 0.5771972867884376 0.106350239140646 0 0.5802806589505287 0.1183642836828782 0 0.5833660423552028 0.130382244065834 0 0.5984059557258992 0.1457373376854731 0 0.6014895052888375 0.1577602181075103 0 0.6045725596376277 0.1697849588180782 0 0.607655019722356 0.1818113990289537 0 0.6107374220781291 0.1938403220757225 0 0.6138213998035335 0.2058690603016589 0 0.6169049549204932 0.2179006833629458 0 0.6319514486156208 0.2332761394156674 0 0.6350348191883717 0.245304273604059 0 0.6381280442106654 0.2573263856485518 0 0.6412217046406066 0.2693389006452875 0 0.6443449323535578 0.2812593912057522 0 0.647554857242959 0.292954266771189 0 0.6629501874301388 0.307965209968543 0 0.6660246354370181 0.3198732422042479 0 0.6965905185576093 0.3499320619434696 0 0.7239835811407631 0.4135338100093322 0 0.7545441404962353 0.4892856220802265 0 0.7576506703379635 0.5013450899091173 0 0.7851329187209212 0.5651018812953842 0 0.8188312291576508 0.6530722769860819 0 0.8505488951443363 0.7283541527473696 0 0.8750966264500386 0.7801014610451025 0 0.9119901673188839 0.880256123734154 0 0.9302472119291512 0.9078259578608417 0 0.6812427180084488 0.3349776896602699 0 0.528518518517892 0 0 0.5621565481555144 0.09102554350072319 0 0.5864517378287013 0.1424001263331072 0 0.619989563269213 0.2299322007786029 0 0.6509130231874173 0.3047054665763807 0 0.669092244050051 0.3319015378345542 0 0.6843985441564633 0.3467617905800021 0 0.6996368255959157 0.3619440278663045 0 0.7027185845219537 0.3739936656298347 0 0.7058097445655466 0.3860532425229991 0 0.7089007446516031 0.3981135413720852 0 0.711991460485869 0.4101778093887911 0 0.727075518496048 0.4255986924534025 0 0.7301672834822389 0.4376637473820908 0 0.7332602756082625 0.4497285020555061 0 0.7363490561291052 0.4617991577791641 0 0.7394431459889171 0.4738628039843112 0 0.7425367667691967 0.4859272567964562 0 0.7607403551033479 0.5134294177392011 0 0.7638252228937176 0.5255447649425415 0 0.7668692059060345 0.5377427302332163 0 0.7699660372701579 0.5497707541741899 0 0.7730760747774783 0.5618079377599406 0 0.7882248104461966 0.5771869228946256 0 0.791301491510521 0.5892768523695362 0 0.794397770003568 0.6013629940076006 0 0.7974928119192085 0.6134504947051186 0 0.8005936811895233 0.6255375276760865 0 0.8037102775240508 0.637621518257538 0 0.8219298582416654 0.6651632537964021 0 0.8068085077914493 0.6497111127855497 0 0.8250275149070828 0.6772542083513799 0 0.8281759164374662 0.6892362711415816 0 0.831511871035381 0.7009861154972471 0 0.8352068305880547 0.7128981263019412 0 0.8386282070690637 0.7249970328856367 0 0.853750356916512 0.7404531676874059 0 0.8568536964261011 0.7525490308263239 0 0.8599566074067515 0.7646451151310152 0 0.8630629671443304 0.7767404723102552 0 0.8782020381569009 0.7921976369211629 0 0.8813058160955514 0.8042973840218169 0 0.8844106073846235 0.8163972065608514 0 0.8875136856291332 0.8284999033669667 0 0.8906172245079917 0.840602243888572 0 0.8937208918464992 0.8527050984200578 0 0.8968250823412527 0.8648064753659546 0 0.8999462866317665 0.8768970639733877 0 0.9151051221758665 0.8923585013885523 0 0.9182095131619408 0.9044626888937399 0 0.9333537670149121 0.9199279479572247 0 0.936461139373252 0.9320252987199293 0 0.9395726121272814 0.9440786732995878 0 0.9426261114894061 0.9559939700854594 0 0.9451281787873926 0.9677007634431042 0 0.9500065678653034 0.9783964421986155 0 0.9562510169381394 0.9891824831397097 0 0.9624999999998438 1 0 0.5220141312817286 0.01051102417457663 0 0.5279546253401177 0.02078663967877925 0 0.5343609423815785 0.03073101340800958 0 0.5384517034016003 0.04023410511243093 0 0.5410916685920379 0.0517983476587034 0 0.5440733549134056 0.06376980825393089 0 0.5471271309103158 0.0757555359334201 0 0.5502008973635328 0.08772475459766613 0 0.5652495312925492 0.1030144542523978 0 0.5683329623539427 0.1150297116471946 0 0.5714160588427177 0.1270459577814864 0 0.5744993048399565 0.1390627154915648 0 0.5895356913327267 0.1544201308778546 0 0.5926183485171732 0.1664426618619129 0 0.5957036045199505 0.1784417416658087 0 0.5987791102852742 0.190453731904445 0 0.6018561552249424 0.2024904696408293 0 0.6049440380981547 0.2145513802410425 0 0.6080275283621789 0.2265878232445919 0 0.6230734498779378 0.241963891689462 0 0.6261595183032218 0.2539894242913217 0 0.629247032210138 0.2660156946906922 0 0.6323250897101128 0.2780473413995054 0 0.6355188958020093 0.2898218574262666 0 0.6387602971458676 0.3015721734825517 0 0.6540525815205145 0.3165486387883192 0 0.6571303414805862 0.3285660292776543 0 0.6876512918001146 0.3585949397320463 0 0.7150816212571016 0.4222450553957619 0 0.7456418859108431 0.4979936488206371 0 0.7487383769014644 0.5100712162701904 0 0.7761888105038597 0.5738757672520984 0 0.8099094603166332 0.6618004900910899 0 0.8417239663156897 0.7370930889788945 0 0.8661693962600469 0.7888365978150669 0 0.9030638983852027 0.8889946281321254 0 0.9213130371108006 0.9165680271700168 0 0.6722317249755836 0.3436791740462493 0 0.5161111111105617 0 0 0.5532989777951994 0.09968790679041446 0 0.5775830707301446 0.1510818003471004 0 0.6111115667972272 0.2386186511987066 0 0.6420980306311251 0.313303768866647 0 0.6601738496652796 0.3405698768639819 0 0.6755216895437435 0.3554858295263185 0 0.6907303699025289 0.3706426045283277 0 0.6938215039003414 0.3827000070503795 0 0.696911669717836 0.3947585138233374 0 0.7000020824846668 0.406820631984732 0 0.7030910499237778 0.4188879886377432 0 0.7181707123502015 0.4343104168919211 0 0.7212614426536106 0.4463744611982414 0 0.7243548613606938 0.4584390113341842 0 0.7274476419573883 0.4705047932645129 0 0.7305455158515235 0.4825690272087673 0 0.7336390714579993 0.4946390000255599 0 0.7518224607891347 0.52218076868208 0 0.7548884416163594 0.5343264844394968 0 0.7579291356230908 0.5464866814979261 0 0.7610208616458698 0.5585360182571866 0 0.7641430878834288 0.5705994841406907 0 0.7792714890702593 0.5859514649771322 0 0.7823051580824336 0.598029842174729 0 0.7854575404239059 0.6101074053881249 0 0.7884661946938742 0.6222041658989731 0 0.7916842887242086 0.6342702760834732 0 0.794771603885204 0.6463599005878979 0 0.8130065475954493 0.6738910698847524 0 0.7978724923676893 0.6584520086843975 0 0.8161021722779355 0.6859803142511299 0 0.819431796437236 0.6978516932907779 0 0.8228901440882874 0.7097193033351543 0 0.8266203662564131 0.7216529254649752 0 0.8297426103357008 0.7337217435303948 0 0.8448269409965729 0.7491877916202745 0 0.8479289394308032 0.7612824077983895 0 0.8510319246483944 0.7733770470693477 0 0.8541386222781343 0.7854745960769887 0 0.8692745936299322 0.8009348001900054 0 0.872377861181252 0.8130355522885704 0 0.8754812321316645 0.8251368050580736 0 0.8785847281490181 0.8372384953955152 0 0.881687832561654 0.8493410660194822 0 0.8847918564453496 0.8614412338967783 0 0.8879023595575455 0.8735326926773915 0 0.8910222046889731 0.8856317047842195 0 0.9061737024075575 0.9010980079607267 0 0.909277558388828 0.9132037802181362 0 0.9244245312996506 0.92866502804434 0 0.9275481240403465 0.9407403046255522 0 0.9307240541647107 0.9527507041124674 0 0.9340322951403369 0.964241182700711 0 0.9362773734780316 0.9768192672283991 0 0.9437499267558637 0.9891746925128393 0 0.9499999999997918 1 0 0.509904855085256 0.01074365642632196 0 0.5159097135312245 0.02132689772655413 0 0.5222833924675825 0.03126436029259109 0 0.5284939973439845 0.03896336425784487 0 0.5295652670608983 0.04863681792510963 0 0.5322128970476109 0.06047287641552802 0 0.5352092920309306 0.07244703813395387 0 0.5382491395014526 0.08439938531888486 0 0.5413523225507459 0.09634281956041243 0 0.5563850817635404 0.1116917448537831 0 0.5594670956154483 0.1237102135599437 0 0.5625497677456648 0.1357254984037106 0 0.5656321260947379 0.1477442612213364 0 0.5806657888041677 0.163101307964898 0 0.5837427582392745 0.1750969678092834 0 0.5868328628583929 0.187070168046242 0 0.5899029200237239 0.1990965080057145 0 0.5929735408233399 0.211119719678892 0 0.596062912823455 0.2232131866346502 0 0.5991515529592102 0.2352737004657864 0 0.6141952722259498 0.2506488016140722 0 0.6172825143039585 0.2626775562360573 0 0.6203674407421546 0.2747112275603785 0 0.6233987475344342 0.28669186667615 0 0.6266947402736418 0.2984672244169035 0 0.6297860155311812 0.3102726735897354 0 0.6451384165447563 0.3252734121725296 0 0.6482412218825141 0.3372645614487311 0 0.6787764278431073 0.3673893025566589 0 0.7061794742896959 0.4309573073317551 0 0.7367360597410509 0.5067144199488195 0 0.7398199980306368 0.5188211120788798 0 0.7672308751079139 0.5826655285949166 0 0.8009822561215529 0.6705358640919138 0 0.832801197709135 0.7458275776068125 0 0.857243905053216 0.797572392302601 0 0.894136779227843 0.8977341715540421 0 0.9123826004694651 0.925309194863572 0 0.6633744458268611 0.3523501224515853 0 0.5037037037032137 0 0 0.5444409064823121 0.1083564283089469 0 0.5687146907977554 0.1597624621370579 0 0.6022342983085653 0.2473045119923676 0 0.6330350491437162 0.3220328172194623 0 0.6512858506194792 0.3492686929602086 0 0.666662300571002 0.3642114356220084 0 0.6818486776814338 0.3793735920961968 0 0.6849247116311098 0.3914052824442197 0 0.6880142436114515 0.4034623034144678 0 0.6911033265174635 0.4155236352719674 0 0.6941885158719773 0.4276054716195425 0 0.7092558998821434 0.4430239253889552 0 0.7123516693808136 0.455086385553682 0 0.7154546487335023 0.4671484165715024 0 0.7185461381359055 0.4792149835221166 0 0.7216416921734317 0.4912817955392886 0 0.7247370718501118 0.5033499830613234 0 0.7428808305385162 0.5309648015015271 0 0.7459418598579096 0.5431151438402432 0 0.7490188373419239 0.555215494822051 0 0.7521141404567886 0.5672929126156848 0 0.7552104518431035 0.5793695586302173 0 0.7702885563441162 0.5947510771809275 0 0.7733809698796762 0.6067841930860413 0 0.7764868372856006 0.6188721271480019 0 0.7795938233666406 0.6309864502667006 0 0.7827284071596363 0.6430696836324655 0 0.7858360401618638 0.6551330038334138 0 0.8040822229659639 0.6826189146801989 0 0.7889352230993479 0.6672141283993427 0 0.8071658195270794 0.6946949586907767 0 0.8106625009221722 0.7065995858604768 0 0.8140015589868181 0.7185762198182328 0 0.8176117201931328 0.7304256698904621 0 0.8208366146796717 0.7423069043197181 0 0.8359030779802016 0.7579216627639176 0 0.8390020945368308 0.7700131393730866 0 0.8421046922457874 0.7821083236820662 0 0.8452141368818908 0.7942103934100718 0 0.8603467662835186 0.8096724846187332 0 0.8634497042192237 0.8217735778534607 0 0.8665529700996681 0.8338748425669562 0 0.8696558515511559 0.8459762384161695 0 0.8727584105635896 0.8580790069102596 0 0.8758676317627574 0.8701754414619152 0 0.8789892570352975 0.8822718462041225 0 0.8821020324201855 0.8943705138046943 0 0.8972418202947894 0.9098390238955131 0 0.9003456730915516 0.9219448781396764 0 0.9155066662815943 0.9373888889336714 0 0.9186724287881641 0.9494070563895167 0 0.9221774570500889 0.9609278282394624 0 0.9260653083057966 0.9699401777588736 0 0.9313152038945895 0.989237857118205 0 0.9374999999997398 1 0 0.4974991058338978 0.01074357712906673 0 0.5036993861662157 0.02148589685396001 0 0.5104134137811842 0.03223386712462593 0 0.5175877512732978 0.04366958622214601 0 0.5201747642196074 0.05712012963275174 0 0.5232674354462987 0.06910904546877666 0 0.5263170865594219 0.08108253226759407 0 0.5294008561685021 0.09303474620492619 0 0.5324892782013408 0.1050125510810443 0 0.5475225252197173 0.1203753442580376 0 0.5506003935048362 0.132404938756941 0 0.5536824254570977 0.144410353310243 0 0.5567614375845641 0.1564341080976595 0 0.57178712413385 0.1717652689318892 0 0.5748449427597784 0.1837439048784932 0 0.5779383593875904 0.1957211634894854 0 0.5810374915628036 0.2077237952743931 0 0.5841226463053641 0.2197922449901394 0 0.5871935468351424 0.2318980387102246 0 0.5902753621383566 0.243959685329279 0 0.6053184468844686 0.2593348540172058 0 0.6084028791830207 0.2713665165143108 0 0.611487024603004 0.2834000552629141 0 0.6145225783190031 0.2953554919971484 0 0.6176209871234067 0.3071894174774998 0 0.6208794834435989 0.3190412680266496 0 0.6362732746100827 0.3339246574343637 0 0.6393525312137954 0.3459628591034523 0 0.6699001705877482 0.3760504146283956 0 0.6972627964336253 0.4396707644004891 0 0.727828025956563 0.515428581225719 0 0.7308808143254457 0.5276027408578995 0 0.7582916041513008 0.5914283080066367 0 0.7920553671652317 0.6792828759858722 0 0.8237649218666676 0.7543977177020615 0 0.8483168374527531 0.8063092209895851 0 0.8852061642647877 0.9064743420144818 0 0.9034504085998039 0.9340506666338388 0 0.9237205627888077 0.9795645956604436 0 0.6545822392724313 0.3610779690580792 0 0.4912962962957995 0 0 0.5355869868857138 0.1170577854936189 0 0.5598476081434857 0.1684409708710895 0 0.5933572827776827 0.2559904520852309 0 0.6241660457437563 0.3308456175262254 0 0.6423974857772687 0.3579659840835656 0 0.6578188303521209 0.3729149755110133 0 0.6729388822237674 0.3880539413691995 0 0.6760279460084802 0.4001100087143055 0 0.6791163157099964 0.4121702555514712 0 0.6821984363419651 0.4242418781293111 0 0.6852684482617827 0.4363087250020739 0 0.7002818939553312 0.4517518538895027 0 0.7033870315967057 0.463812617663944 0 0.7065513880483962 0.4758595153171851 0 0.7096308383935709 0.4879296787932061 0 0.7127254238654804 0.4999972326545893 0 0.7158304553782285 0.5120638473206126 0 0.7339387970261457 0.539738151991938 0 0.7370169210077201 0.5518513988609914 0 0.740110073030616 0.5639333235066674 0 0.743204978092075 0.576009684516692 0 0.7462997703320706 0.5880871894898212 0 0.7613760966028164 0.6034749958824811 0 0.7644537872952355 0.6155294615017894 0 0.7675809172659435 0.6276338174575943 0 0.7707017466990715 0.6397421267247956 0 0.7738024564187149 0.6518175911851244 0 0.7769060580405905 0.6638847105112546 0 0.7951599913623273 0.6913554222759588 0 0.7800070297862109 0.6759797125258712 0 0.7982474115971782 0.7034247743169251 0 0.8015413776259265 0.7154087437167245 0 0.8044564816311532 0.7276183744058643 0 0.8081816158048063 0.7389403349168842 0 0.8118599226255161 0.7505872375697121 0 0.8269803462415384 0.7666567022092974 0 0.8300565172790982 0.778725582146398 0 0.8331855632604095 0.7908485240101322 0 0.8362879434125597 0.8029458298257455 0 0.8514199871160915 0.8184099676426941 0 0.8545222529066903 0.8305112564429007 0 0.8576244765013972 0.8426128134822185 0 0.8607270842955851 0.8547143718663641 0 0.8638307889022792 0.8668147658952805 0 0.8669381017348476 0.8789135598863017 0 0.8700647938982322 0.8910064564777678 0 0.8731710246922397 0.9031095545017732 0 0.8883099043375025 0.918579823943557 0 0.8914138519398658 0.9306856603051217 0 0.9065619044921358 0.9461610830452092 0 0.9096564966684216 0.9582762690603774 0 0.9144532418725406 0.9704222099389652 0 0.9249999999996876 1 0 0.9191413716244462 0.9895534388828315 0 0.48509267350319 0.01071632196954381 0 0.4912952739636123 0.02148106283204468 0 0.4978936616177146 0.03185452266125528 0 0.5041001019917486 0.04239934605624424 0 0.5081943976791432 0.05391183609133209 0 0.5113198050915074 0.06576935924634486 0 0.5143871009930798 0.07777321476801878 0 0.5174594288818717 0.0897735221054923 0 0.5205407163518597 0.1017904774169708 0 0.5236325336475942 0.1137765706905264 0 0.5386590097133155 0.1291106933295392 0 0.5417327632071377 0.1411192776656285 0 0.5448075558528432 0.1531252255676343 0 0.5478939956254245 0.1651190446193266 0 0.5629306740342834 0.1804547673327279 0 0.5659535255853853 0.1924150313721508 0 0.5690964565880576 0.2043744278613709 0 0.5721974161637576 0.2163659682786871 0 0.5752709696236864 0.2284327613639895 0 0.5783150049384663 0.2406170913824029 0 0.5813968663169006 0.2526476937752239 0 0.5964397773556078 0.2680217398935921 0 0.599523265296275 0.2800540972814533 0 0.6026070828579715 0.2920876491471117 0 0.605690688053467 0.3041217632024004 0 0.608722477715385 0.3161037157699221 0 0.6119463254041484 0.3278033665770527 0 0.6274364281664571 0.3426756379117935 0 0.6304647817066784 0.3546606106264458 0 0.6609971071118659 0.3847484701350528 0 0.6882608743439769 0.4483704492306417 0 0.7189057050793862 0.5241664197435089 0 0.7219395568595928 0.5363764268215827 0 0.7493747848517313 0.600148339183588 0 0.7831341330491667 0.6880319818577569 0 0.8143202463414835 0.7628744342795384 0 0.8393905466900025 0.8150470026403555 0 0.876274400619375 0.9152146872126998 0 0.894513452821184 0.9428136375327472 0 0.9137318773122507 0.9813800257015454 0 0.6455969884563806 0.3697533324349876 0 0.4788888888884407 0 0 0.5267197787188653 0.1257908392557866 0 0.550982126247108 0.1771152836533202 0 0.5844787019769557 0.2646672960607968 0 0.615251405020215 0.3395797695056169 0 0.6335120266838454 0.3666650793247191 0 0.6488916761679765 0.3816202997270762 0 0.6640404790232195 0.3967652487885716 0 0.6671298573852329 0.4088239843660092 0 0.6702150864552476 0.420887909729625 0 0.6732989252353235 0.4329552716011871 0 0.6763906364559884 0.4450190826010938 0 0.6912508728449014 0.4604628277731109 0 0.6945602837551837 0.4725027758059129 0 0.6976046330857418 0.484640674640617 0 0.700662417428813 0.4966578915407847 0 0.7037659109734353 0.5087531819173716 0 0.7069117161624885 0.520780142811585 0 0.7250153568354094 0.5484930150660984 0 0.7281067304219764 0.5605765277225785 0 0.7312019231358187 0.5726505022509134 0 0.7342967703316959 0.5847246131777459 0 0.7373910711737792 0.5967974242663034 0 0.7524668770948382 0.6122085963359041 0 0.7555666604544167 0.6242896674042451 0 0.7586826484946967 0.6363830717000334 0 0.7617949125195512 0.6484634796979603 0 0.7648912069284841 0.660546479369621 0 0.7679884931781233 0.6726127293644294 0 0.7862421821180996 0.7000840112659237 0 0.7711026177976282 0.6846706296846273 0 0.7893416244398637 0.7121654140505124 0 0.7923488322208609 0.7241113039514483 0 0.7949902062796558 0.7357838780061983 0 0.7993347494197095 0.7469199453093511 0 0.8023542375236891 0.7587406212781286 0 0.817359073559387 0.7750474296163301 0 0.8209998102108791 0.787326698094491 0 0.824260278531816 0.7995830600493422 0 0.8273369879753485 0.8116843117221674 0 0.8424889503023019 0.8271492291525313 0 0.8455937506581864 0.839249869537106 0 0.848696128520816 0.8513506136926214 0 0.8517988034487433 0.863451841260917 0 0.8549020384892042 0.8755530912946877 0 0.8580091945343102 0.8876516555936309 0 0.8611279106957416 0.8997486896273716 0 0.8642339743609347 0.9118517754058512 0 0.8793780015299946 0.9273203384205401 0 0.882481734749867 0.9394264052335746 0 0.8975871346817739 0.9550250653974073 0 0.9007410356612648 0.9669546702220793 0 0.9041638958959192 0.9779216790274846 0 0.9124999999996356 1 0 0.9071803143795402 0.9894382049980021 0 0.4726849432193593 0.0105834639174772 0 0.4784253112171661 0.02348767900524211 0 0.4870005652995175 0.03318500039438437 0 0.4938004000651791 0.04084942481392643 0 0.4961227105330845 0.05103973274766794 0 0.4993768405299926 0.06243276412218668 0 0.5024586849321702 0.0744432866937452 0 0.5055352679048926 0.08645471189972648 0 0.5086185308669786 0.09846469678882663 0 0.5116972722440797 0.1104753015743716 0 0.5147786163789534 0.1224857456832136 0 0.529796238370734 0.1378253132447085 0 0.5328641539043253 0.1498226716922458 0 0.535942233483292 0.1618063697988 0 0.5390334307598919 0.1737840187398201 0 0.5540576951557069 0.1891230941382078 0 0.5571152164535209 0.2010855048724625 0 0.5602454068007642 0.213047181228778 0 0.5633463127008038 0.2250390083881157 0 0.566404209209694 0.2371226968876855 0 0.5694570647325383 0.2491967758257976 0 0.5725186839869157 0.2612699343218351 0 0.5875613224298459 0.2767078195363984 0 0.5906439458679268 0.2887413513227116 0 0.5937271889907305 0.3007745644896778 0 0.5968098524058575 0.3128092917468007 0 0.5998329087732582 0.3247842158802902 0 0.6031162689879699 0.3364876234725835 0 0.6185231385414216 0.3514256928795906 0 0.6215775310839458 0.3633575126292435 0 0.6521090233241332 0.393486056727356 0 0.679352168998658 0.4570571869048987 0 0.7099747871764316 0.5329251507108623 0 0.713023712688905 0.5451128231470216 0 0.7404809394399694 0.608872709584677 0 0.7742263182697297 0.6967152717247116 0 0.804752599068054 0.771316905572651 0 0.8304458760401855 0.8237900898013477 0 0.8673422274914246 0.9239546047021833 0 0.8855856824636574 0.9515329445813323 0 0.6368006906886812 0.3784826846916876 0 0.4664814814811004 0 0 0.5178597550795782 0.1344961627546349 0 0.54211623488775 0.1857883403796245 0 0.5755999791695869 0.2733662048184833 0 0.6063202232775373 0.3482406786664559 0 0.62462516211416 0.3753614611066346 0 0.6400274170746784 0.3903362788623604 0 0.6551568610901561 0.4055031801911698 0 0.658230838165188 0.4175476018449794 0 0.6613139913868337 0.4296080446583447 0 0.6644035880942161 0.4416637713885119 0 0.6674925738143007 0.4537227886036978 0 0.6822495020284397 0.4692064760816473 0 0.6854951873995586 0.4813602225607441 0 0.688617348623851 0.4934561617569991 0 0.6916271624402666 0.5055574175635471 0 0.6948965883540763 0.5174636404004558 0 0.6979645221288561 0.5296009010733436 0 0.7161035323763072 0.5572250240386741 0 0.7191995473534805 0.5692941472918558 0 0.7222952189740405 0.5813659790702522 0 0.7253907349574743 0.5934393640851334 0 0.7284865966359146 0.6055128870901445 0 0.7435822976637725 0.6209475131941375 0 0.7466863703037205 0.6330243748671287 0 0.7497833539700273 0.6451038335372042 0 0.7528792468475226 0.6571855129366599 0 0.7559736138348989 0.6692572502178052 0 0.7590798244095415 0.6813196634131065 0 0.7773240456116921 0.7088035243989583 0 0.7621940013030137 0.6933772726467146 0 0.7804212543315594 0.7208917756280223 0 0.7833420490170079 0.7327996379013686 0 0.786617724244425 0.7442470730396085 0 0.7900548156444848 0.7552327852974617 0 0.7929054010064173 0.7674322127411046 0 0.8082780944089509 0.7836389074260499 0 0.8120485807554232 0.796034351304063 0 0.8153042661353365 0.8082860855311599 0 0.8183330170421907 0.8204538024850537 0 0.8335612884026553 0.8358871888507846 0 0.8366652038886244 0.847987947704022 0 0.8397680178611613 0.8600881045781315 0 0.8428703309302755 0.8721894856903526 0 0.8459751330948355 0.8842896454844404 0 0.8490817532690068 0.8963898685267824 0 0.8521901825297402 0.9084901373128726 0 0.8553043359270485 0.9205897106914622 0 0.8704461488126763 0.9360604570186615 0 0.8735494773385791 0.948167464153475 0 0.8884772333549189 0.9643999587421395 0 0.8913512526632916 0.9768701624319887 0 0.8942933347276629 0.9890748667461289 0 0.8999999999995836 1 0 0.4602773066287376 0.01005916544819322 0 0.4652421968037438 0.02069012435560939 0 0.4776866993783327 0.0358517059489877 0 0.4838849608838303 0.04576852221008032 0 0.4874075533115117 0.05920227681271525 0 0.4905172974186121 0.07110730571966623 0 0.4935985076667339 0.0831162696439465 0 0.4966792542497203 0.09512718138492693 0 0.4997596598747814 0.107135974318247 0 0.5028415060109711 0.1191477443418773 0 0.5059219234164658 0.1311579831018133 0 0.5209383000492911 0.1464995218147111 0 0.5239941120844099 0.158482496095979 0 0.5270815502248535 0.1704657962826878 0 0.5301715338851422 0.1824499763129385 0 0.5451823643402746 0.197774196559504 0 0.5482852350806231 0.2097484346672541 0 0.5513918241740928 0.2217103870478766 0 0.5544766808004222 0.2337172247388411 0 0.5575233112717373 0.2457737467823628 0 0.5605946580817938 0.2578469108351414 0 0.5636526109809914 0.2699462940066374 0 0.5786822649127235 0.2853962278413539 0 0.5817650510160821 0.2974273394933363 0 0.5848515828635623 0.309429375027799 0 0.5879184127732263 0.3214099157232744 0 0.5909069919034536 0.3333379177510986 0 0.5939635455700489 0.3451580715242024 0 0.6096122480145385 0.3600182270072036 0 0.6126925180171161 0.372054707603556 0 0.6431988675623459 0.4021910875874293 0 0.6704603124628952 0.4657020810589967 0 0.701031093286233 0.5417410060043653 0 0.7041000922260305 0.5538793592043028 0 0.7315849886823689 0.6175868644568001 0 0.7653071742695704 0.7054423763155692 0 0.7959260486614693 0.780346648578337 0 0.8215342068082456 0.8325239306190035 0 0.858411221937197 0.9326917083167547 0 0.8764708192798795 0.9609257995646182 0 0.6278133815409557 0.3871647056749013 0 0.4540740740737054 0 0 0.4685976116777085 0.03225070583358144 0 0.5090035416954206 0.143168573746492 0 0.5332455696426968 0.1944566439812916 0 0.5667252129074734 0.2820513081552954 0 0.5976410922990328 0.356671989533792 0 0.6157415162075537 0.3840601418163335 0 0.6310982197471968 0.3990368307952183 0 0.6462398454641283 0.4142052633393863 0 0.6493293872095306 0.426257228785342 0 0.6524186624560129 0.4383109567182967 0 0.6554945221734795 0.450468286173172 0 0.658557700433537 0.4628888512292314 0 0.6734827203987286 0.4780393712898846 0 0.6766042286969229 0.4902626761853273 0 0.6796501604610828 0.5023546132644751 0 0.6827606049336592 0.5143615405333464 0 0.6858593856604606 0.5265022375190107 0 0.6889520233304025 0.5385669104938335 0 0.7071980361140724 0.5659381540475767 0 0.7102927672627595 0.5780097670236255 0 0.7133874962978699 0.5900820158837226 0 0.7164833116525675 0.6021554310443481 0 0.7195787554672578 0.614229034746506 0 0.7346795284511463 0.6296648954040591 0 0.7377738500800364 0.6417440948317616 0 0.7408683242377703 0.6538253590444965 0 0.7439635348320021 0.6659068460445733 0 0.747057718283 0.677972813100245 0 0.7501683742314255 0.6900326410584947 0 0.7684042842311596 0.7175299925987187 0 0.7532894258313295 0.7020881617903307 0 0.7715012218722834 0.7296177653960443 0 0.7744131296493234 0.7415162242232367 0 0.7775713954563687 0.7532299675000345 0 0.7808262313554151 0.7655679691878718 0 0.7839293698660312 0.7773225253740808 0 0.7995937361175365 0.7928226317187359 0 0.8031543072710381 0.8050173944163372 0 0.8060361273833581 0.817204199795182 0 0.8092980929345376 0.82923799049779 0 0.8246348778763292 0.8446250321320987 0 0.8277375650835066 0.8567245953569573 0 0.8308400673099599 0.8688252745313975 0 0.8339430851204988 0.8809259980923662 0 0.8370469982034476 0.8930270722970125 0 0.840151325458088 0.9051288707338055 0 0.8432643972631553 0.9172234644417966 0 0.8463757483648482 0.929317476732349 0 0.8615095132403596 0.9448168888127371 0 0.8645865325997772 0.9570170236874241 0 0.8767226650491702 0.9754591915495932 0 0.8812499999995151 0.9891746824527096 0 0.8874999999995314 1 0 0.4478703787691445 0.01043700453508361 0 0.4529548569270892 0.01892977291878025 0 0.4573942336270589 0.02895307671749892 0 0.4717189563449861 0.04394116276297025 0 0.475376453944595 0.05581421520765806 0 0.4785772458486293 0.06777313851087691 0 0.4816583937755737 0.07977998711709622 0 0.4847377565638246 0.0917859441384789 0 0.4878196059512239 0.1037980143485792 0 0.4909003479020942 0.1158103568921829 0 0.4939817863235075 0.1278213091033644 0 0.4970626174265279 0.1398311388418746 0 0.5120759915000259 0.1551704770984971 0 0.515136483191052 0.1671521676732454 0 0.518222171048711 0.1791360538078541 0 0.5213100155266347 0.1911269445174553 0 0.5363080421897828 0.2064330458876126 0 0.5394216127352855 0.2183967062458099 0 0.5425246491238276 0.2303823905108491 0 0.5456043922697484 0.2423985915848913 0 0.5486697300750044 0.2544215851891084 0 0.5517465474435765 0.2664731288851074 0 0.5547910427458196 0.2786368474008177 0 0.5698052408654897 0.2940809577692735 0 0.5728865232804035 0.3061117548856724 0 0.5760153025697828 0.3179723600636116 0 0.5789955400119361 0.3299011779906821 0 0.5820667357581237 0.3418602824477909 0 0.585273046003454 0.3536772625019785 0 0.60072338974969 0.368735012814734 0 0.6038132726929177 0.3807577687703743 0 0.6342980196094712 0.4108949639374123 0 0.6615409643820125 0.4747688823813694 0 0.6920865130137027 0.5505717207494056 0 0.6951947687480975 0.5625928003191693 0 0.7226732032480625 0.6263048754058564 0 0.7563880980049802 0.7141684092740241 0 0.7871826840217051 0.7899523001786701 0 0.812605415397603 0.8412615079707827 0 0.8494818707518628 0.9414230271841558 0 0.8676489706984566 0.9684230723483924 0 0.6190161534324221 0.3958896363694558 0 0.4416666666663233 0 0 0.460478235987796 0.04043001177251472 0 0.5001429565305905 0.1518401866665775 0 0.5243899158784999 0.2031379225162437 0 0.5578500552490614 0.2907346846828759 0 0.588698075951791 0.3654172713722659 0 0.6068597665771069 0.3927594760406406 0 0.6222354792633082 0.4077443123397508 0 0.6373470900534459 0.4229057604057419 0 0.6404348307427244 0.434958980979911 0 0.6435235090137972 0.4470124211065499 0 0.6465710992290132 0.4592109279927448 0 0.6495615828334325 0.4715063813143354 0 0.6645816978872588 0.4869847358170084 0 0.6676748851539855 0.499036834641776 0 0.6707671872290901 0.5110913345578805 0 0.6738655857579021 0.5231483547614018 0 0.6769506109314662 0.5352045597763644 0 0.6800467067397629 0.5472420635464128 0 0.6982915746469042 0.5746533749609641 0 0.7013856370386451 0.5867252190268919 0 0.7044798209838862 0.5987979702115335 0 0.7075742341290525 0.6108714949834695 0 0.7106686749050718 0.6229457505727072 0 0.7257652252773167 0.6383850877592292 0 0.7288598192393683 0.650465109950909 0 0.7319529280671342 0.6625465922081782 0 0.7350440738440231 0.6746239517152437 0 0.7381506647304195 0.6866878664480145 0 0.7412569523005291 0.6987506118743609 0 0.7594849667419772 0.7262557728222099 0 0.7443706250834685 0.7108138286634205 0 0.7625816157345954 0.7383434743839248 0 0.765678551742296 0.750430904626585 0 0.7687758399282283 0.762519457797896 0 0.7718561096236392 0.7746136349783762 0 0.7749510806526528 0.7867054037401779 0 0.7907299828445408 0.8018907391317418 0 0.7937976234587529 0.8139904015492152 0 0.7964634462782427 0.8262020957973583 0 0.8004649214038659 0.8379487594557825 0 0.8157077981864298 0.8533614648759139 0 0.8188100484443503 0.8654617981279507 0 0.8219122630512471 0.8775619030340664 0 0.8250151052676588 0.8896634372039229 0 0.8281186374138009 0.9017640532582456 0 0.8312258603770035 0.9138614289544705 0 0.8343389309222037 0.9259531622258197 0 0.8374622156499829 0.9380041587665482 0 0.8524750194271716 0.9537509617318338 0 0.8549566186497994 0.9672146340361426 0 0.8624662981430318 0.9784885244766444 0 0.8693603793348021 0.989032517190749 0 0.8749999999995011 1 0 0.4347591990601387 0.01118784869024238 0 0.4416671598841722 0.01707446875724692 0 0.4452778658496782 0.02636479769904945 0 0.4485460655203112 0.03711104624075093 0 0.4635597417855688 0.05243621013110329 0 0.4666397672132915 0.0644403309900059 0 0.4697198321240942 0.0764455948676671 0 0.4728005239054113 0.08845077883018211 0 0.4758801303180609 0.1004564112082982 0 0.4789604867988622 0.1124722181493411 0 0.4820422166983521 0.1244856643983306 0 0.4851240043459031 0.1364919231346787 0 0.4882046584741711 0.1485006832570309 0 0.5032170098924709 0.1638419566058502 0 0.5062801252439746 0.1758178933542041 0 0.5093669341053133 0.1877967935537791 0 0.5124484850611473 0.1997985200698209 0 0.5274503695285483 0.2151079986567189 0 0.5305547429892357 0.2270962445076428 0 0.5336430887364243 0.2390886529246488 0 0.5367296509101955 0.25108961475054 0 0.5398213281191042 0.26309589567074 0 0.5428974778018951 0.2751337336719004 0 0.5459043565471149 0.2873217788802584 0 0.5609282414495689 0.3027632277152655 0 0.5640521885401375 0.3146325859135251 0 0.5671369960856312 0.3265647879802044 0 0.5701721876717296 0.3385205858362793 0 0.5732791444896996 0.3504637340206944 0 0.5764040665807982 0.36243940581984 0 0.5918239694955805 0.3775422560151442 0 0.5949563220449168 0.3894816093607358 0 0.62541076625188 0.4196026675919396 0 0.6525935302347763 0.4836324574985561 0 0.6831774299541135 0.5592544500434473 0 0.686277994430458 0.5713143412149442 0 0.7137618996842487 0.6350223504990562 0 0.747469516355254 0.7228944548326068 0 0.7782441585906763 0.7987471769832664 0 0.8036765809224624 0.8500027643729711 0 0.8406647806929142 0.9497538292285773 0 0.6100408911579247 0.4045640322496603 0 0.429259259258989 0 0 0.4516261341164654 0.04910796651677039 0 0.4912767159879171 0.1605006551967505 0 0.5155200449935371 0.2118007137460268 0 0.5489677601945286 0.2993402683087752 0 0.5796193599652614 0.3745192457385152 0 0.5979740822932482 0.4014536546721422 0 0.613278683475499 0.4164553989049878 0 0.6284542068672702 0.4316046300925401 0 0.6315413129717018 0.4436597807574264 0 0.634591869516721 0.4557843939056872 0 0.6375890380212503 0.4680559993329698 0 0.640608015049541 0.4802764927823864 0 0.6556861895817094 0.4956838718785068 0 0.6587783940703543 0.5077410285211166 0 0.6618713409239809 0.5197983647657394 0 0.6649649070986436 0.5318581976995882 0 0.6680501808992149 0.5439144138017329 0 0.6711477796638891 0.555951892406795 0 0.6893802368132278 0.5833755819439013 0 0.6924778625841379 0.5954410796585375 0 0.6955714273994787 0.6075137972097072 0 0.6986652187695302 0.6195871400227566 0 0.7017589964451917 0.6316615709502729 0 0.7168538578298238 0.6471033468248231 0 0.7199444873903654 0.6591861596825226 0 0.7230372318454619 0.6712667271908291 0 0.7261279799578355 0.6833436771693143 0 0.7292344031167272 0.6954027133614993 0 0.7323458848425287 0.707467366005248 0 0.7505661506645633 0.7349811855188354 0 0.7354524726473699 0.7195411583050908 0 0.7536625697462238 0.7470684042757672 0 0.7567584757332575 0.7591565099480273 0 0.759854395816109 0.7712461334250216 0 0.7629509527235121 0.7833365070240098 0 0.7660505600581012 0.7954228120427906 0 0.7813802825110627 0.8108319216398225 0 0.7843030189440428 0.8229414458684725 0 0.7873652347634577 0.8350775994158044 0 0.7915969606533633 0.846736206202205 0 0.8067816146699951 0.862100099368366 0 0.809882162700281 0.8741986864292925 0 0.8129839369467586 0.8862994535560629 0 0.8160860774987941 0.8984011870920863 0 0.8191907240595431 0.9104997971569359 0 0.8222987830448593 0.9225986255882402 0 0.8254101406984178 0.9346986324949644 0 0.8286218840173574 0.9464159016207671 0 0.8425439837917212 0.9611025361488734 0 0.8497796803271475 0.9793008978258997 0 0.8562485903101008 0.9893417371733013 0 0.8624999999995662 1 0 0.4223376710563276 0.01035574728465476 0 0.4345540377069318 0.02294499783036386 0 0.4365654454779101 0.03387902638863481 0 0.4396923437495265 0.04581830561534601 0 0.4547029506231708 0.06110734244746539 0 0.4577830665231176 0.07311115224530579 0 0.4608636237517823 0.08511534767576215 0 0.4639440689923204 0.0971207651734918 0 0.4670236354364593 0.1091297155778638 0 0.4701013059126264 0.1211365305532413 0 0.4731807362188274 0.1331443894001042 0 0.4762618909025279 0.1451480247247703 0 0.479336621907037 0.1571492865255449 0 0.4943506323340675 0.172481609864744 0 0.49742850331038 0.184460994096302 0 0.5005094273179782 0.1964614150116073 0 0.5035877662112251 0.2084691516035582 0 0.5185989394592436 0.2237992333143421 0 0.5216807642871397 0.2357926205112483 0 0.524772383194702 0.2477809276243713 0 0.5278619469246222 0.2597741109626192 0 0.5309558618486501 0.2717701227266125 0 0.5340050449164817 0.2838152470190881 0 0.5370288219805456 0.2958668613800802 0 0.5520879214836925 0.3112784777695342 0 0.5552210508362103 0.3232136499784612 0 0.558333712140491 0.3351981009217624 0 0.5613729711871722 0.3472387399001525 0 0.5644475803473269 0.3592719147737096 0 0.5675886399417966 0.3712361919913053 0 0.5830501835518631 0.3862855488387661 0 0.5860667373005823 0.3981711776306872 0 0.6165036249346765 0.4283193175893483 0 0.6436988337881049 0.4923323015628164 0 0.674264698573773 0.5679895849573207 0 0.6773712649500963 0.5800344469912045 0 0.7048500925680179 0.6437397954184647 0 0.7385517175739379 0.7316195807083412 0 0.7691788925132076 0.807512625907191 0 0.7947613409623542 0.8587485030949558 0 0.8328042750231686 0.9562074475901078 0 0.8434640275209123 0.9711688505364416 0 0.6011953587727425 0.4133045370096897 0 0.4168518518516177 0 0 0.4260427085868329 0.0191291671435686 0 0.4427728927380798 0.05778600336074874 0 0.4824133388615151 0.1691418029629367 0 0.5066659825335922 0.2204783054075053 0 0.5401002307176934 0.307868431614371 0 0.5708081543393356 0.3830295598588477 0 0.5890885990267709 0.4101468276394313 0 0.6042859804724623 0.4251975266495385 0 0.6195603282710223 0.4403087654949436 0 0.6226470231546196 0.4523606913490023 0 0.6256603507222006 0.4645574287004328 0 0.6286639603073658 0.4768190584797954 0 0.6317194939918097 0.4889640365297585 0 0.6467894491330348 0.5043890786596871 0 0.6498813124003261 0.5164466866231103 0 0.6529735500534213 0.5285052783968816 0 0.6560648182012527 0.5405658838443818 0 0.6591540529364079 0.5526277470099952 0 0.6622483216730847 0.5646788820723752 0 0.6804770872291266 0.5920850298108659 0 0.6835701777657507 0.604155941669785 0 0.6866630292739631 0.6162269811349871 0 0.6897559652806124 0.6283013715156596 0 0.6928494506435127 0.6403771936713485 0 0.7079416228196269 0.6558215776387574 0 0.7110301716212952 0.6679066042440983 0 0.7141223017563787 0.6799866151646344 0 0.717217280043981 0.6920683770144562 0 0.7203280190604128 0.7041168071362442 0 0.7234400487870417 0.7161796415479003 0 0.7416475234440825 0.7437062229846322 0 0.7265382297010007 0.7282598993565215 0 0.7447450295345189 0.7557881273205174 0 0.7478420759310579 0.7678742420551756 0 0.7509354843921487 0.7799661404140359 0 0.7540416839931253 0.7920500384445053 0 0.7571473028571283 0.8041346411442533 0 0.7723142529625753 0.819496672242183 0 0.7754715621225566 0.8315172321800619 0 0.778616923250719 0.8437505899530773 0 0.7827183181581707 0.8554794114886345 0 0.7978517982576145 0.8708346575214247 0 0.8009538177428541 0.8829348004032672 0 0.8040555676760277 0.8950361211365634 0 0.8071568187670624 0.9071386133017849 0 0.8102641579439416 0.9192379223487261 0 0.8133714549100373 0.9313407139668395 0 0.8164882694453369 0.9434019969074607 0 0.8209499845136395 0.9562503524328406 0 0.8312407421002104 0.9675146185194805 0 0.8374904923288646 0.9790101821580991 0 0.8437457238884593 0.9893273799361675 0 0.8499999999996529 1 0 0.4104916863789527 0.01065933571248965 0 0.4164272415285555 0.02097839567934269 0 0.4238883011835057 0.02989051037364267 0 0.4277526471654072 0.04258149859456349 0 0.4308444960734362 0.05450200057719581 0 0.4458505823023657 0.06978036782691777 0 0.4489276881988003 0.08178003104046454 0 0.4520093991733628 0.09378552791237951 0 0.4550896899431592 0.1057894490826092 0 0.4581666519374891 0.1177955844738442 0 0.4612376877090112 0.1297932476402729 0 0.4643247646471195 0.1417996005245312 0 0.4674005598221099 0.153802265506732 0 0.4704774022716867 0.1658004024242756 0 0.4854938499798785 0.1811198373567406 0 0.4885722344966982 0.1931244563373039 0 0.491649335490574 0.2051311620115208 0 0.4947264787091376 0.2171391857275977 0 0.5097446591013786 0.2324888841224817 0 0.5128127279207384 0.244479566977174 0 0.5159061203890921 0.2564609996199981 0 0.5190062724454658 0.2684384229637637 0 0.522088715956853 0.2804453659599504 0 0.5251456049412151 0.2924662820264283 0 0.5282219847080535 0.3044836321092293 0 0.5432558814217392 0.3198590811198174 0 0.5463758645187451 0.3318544700532452 0 0.5494572594537579 0.3438824677914061 0 0.5525312549241277 0.3559144329296582 0 0.5556118935450884 0.3679419065741875 0 0.5587791505594966 0.3798097697392127 0 0.574100252906135 0.3949034181250125 0 0.5771560740682815 0.406837808092065 0 0.6074874367168973 0.4370440900140105 0 0.6348027641685319 0.5010375167310802 0 0.6653654007709969 0.5767034970151579 0 0.6684756485102166 0.5887378939052051 0 0.6959402939328824 0.6524578046189327 0 0.7296337396543406 0.7403445521544922 0 0.7602416663056996 0.8161868534800396 0 0.7858292535727559 0.8675022688876096 0 0.5921673783560089 0.4220199567440654 0 0.404444444444236 0 0 0.4339219615645368 0.06647552714480906 0 0.4735543989561822 0.1777927144929639 0 0.4978038428927816 0.2291497191127219 0 0.531305920563013 0.3165022128153753 0 0.5619822096129774 0.3916949600727074 0 0.5802295335895187 0.4188658673027036 0 0.5953560817399121 0.433968702563409 0 0.6106424979997132 0.4490788109274313 0 0.6136518701551934 0.4612955041788336 0 0.6166964915996845 0.473434174933147 0 0.6197263907863793 0.4856325597648193 0 0.6228169998509357 0.4976862898576533 0 0.6378932399047876 0.5130942394584861 0 0.6409840936149096 0.5251524402945854 0 0.6440750114926208 0.5372114548961511 0 0.6471652055303077 0.549269304483653 0 0.6502550613100111 0.5613186236155988 0 0.6533617888934139 0.5733532626944877 0 0.6715706779327528 0.6007986660292259 0 0.6746628827739729 0.6128677788942672 0 0.6777556337910334 0.6249402525606527 0 0.6808476510409118 0.637016061198202 0 0.6839406240379963 0.6490939149508016 0 0.6990294195816685 0.6645352940407642 0 0.7021183292660994 0.6766167876925964 0 0.7052099757665011 0.6886978308639111 0 0.7083099280985913 0.700756038465366 0 0.7114205694736067 0.7128267064229963 0 0.7145259993026103 0.7249008537354713 0 0.7327292108136361 0.7524283213616446 0 0.717621308795621 0.7369833088491232 0 0.735831904014142 0.7645012300216268 0 0.7389314908325151 0.7765900604807682 0 0.7420297638353044 0.7886750382629035 0 0.7451360400925578 0.8007650917790399 0 0.7482467070664698 0.8127973483742779 0 0.7635411879816552 0.8278665847400322 0 0.7669406031989097 0.8401630141438089 0 0.7704560512757159 0.8525035327237855 0 0.7737720714547285 0.86422967321254 0 0.7889251991808639 0.879575913819029 0 0.7920261500225108 0.8916722792253898 0 0.795127718080107 0.9037726559071644 0 0.7982309592665675 0.9158738922145038 0 0.8013362076155803 0.927975891864053 0 0.8044415314004603 0.94008009737845 0 0.8077151495891999 0.9516209555277249 0 0.8184719965133502 0.967662511080423 0 0.8249740132668459 0.978360893979034 0 0.8312437188580806 0.9892834916780284 0 0.8374999999997397 1 0 0.3982138243414786 0.01068764458402828 0 0.4035211201195185 0.02333058099647174 0 0.411960874648023 0.03009211945243269 0 0.4157172221188675 0.03967080517660833 0 0.4189284695144515 0.05118289195405249 0 0.4219986617086158 0.06316777679365509 0 0.4369985265224645 0.07846469635486578 0 0.4400741016444334 0.09045161209036805 0 0.4431572225096812 0.1024559624115815 0 0.4462371717935674 0.1144567033130603 0 0.4493130261848742 0.1264553793052597 0 0.4523908260899655 0.1384540638823483 0 0.4554680473866933 0.1504537535142224 0 0.4585451603629217 0.1624534176028515 0 0.4616236822444152 0.1744532406597567 0 0.476637532679262 0.1897880794563612 0 0.4797141427809988 0.2017916490297681 0 0.4827896004367045 0.2138010186403021 0 0.4858625555636347 0.2258124740113204 0 0.5008764641518177 0.2411543408396616 0 0.5039614607356074 0.2531398612787671 0 0.5070484570816574 0.265118898482313 0 0.5101433072592524 0.2771062168270266 0 0.5132235587546221 0.28912169737937 0 0.5162994906538811 0.3011375580058051 0 0.5193805072698242 0.3131540444569761 0 0.5344204915707645 0.3285114822306818 0 0.5375014636053228 0.3405365719902602 0 0.5405805453998336 0.3525596719663882 0 0.5436593363036208 0.3645888727817533 0 0.5467284009757256 0.3765482432179978 0 0.5499484370032326 0.3884838832355875 0 0.565221301203563 0.4035607321742661 0 0.5682768563713825 0.4155356989593236 0 0.5985003160483042 0.4459628586349961 0 0.6259066447033864 0.5097418906276165 0 0.6564801632200481 0.5853750005000053 0 0.6595724313120365 0.5974438378083203 0 0.6870306039472966 0.6611695197447289 0 0.7207168442896276 0.7490642227370597 0 0.7515045168450674 0.8243781023739125 0 0.7768944515076466 0.8762070676306731 0 0.8119217648221242 0.9602786155319546 0 0.5832800792271542 0.4308028398472872 0 0.3920370370368668 0 0 0.4250710045602742 0.07515665931173555 0 0.4647042623316242 0.1864528974956766 0 0.488940655676885 0.2378197949154282 0 0.5224679881464755 0.3251695635272578 0 0.5530829877948378 0.4004295805242267 0 0.5713498426562971 0.4275626501469914 0 0.5864152996186461 0.4427849434905564 0 0.6016329981025801 0.4580251636697342 0 0.6046832166092887 0.4701839063652197 0 0.6077586279577092 0.482251263675328 0 0.6108329267461741 0.4943356789023468 0 0.6139222087601176 0.5063890654185408 0 0.6289965644876132 0.5217995313419914 0 0.6320863473394773 0.5338581338315849 0 0.6351763039875058 0.5459169738376758 0 0.6382633618805312 0.5579664997507556 0 0.6413640633887621 0.5700077172700391 0 0.6444712396465687 0.5820389331669076 0 0.662664742193366 0.6095108843335781 0 0.6657561885830676 0.6215790008945092 0 0.6688480857936729 0.6336503217262913 0 0.671939105527025 0.6457352830117791 0 0.675032489916971 0.6578084601008732 0 0.6901205272969736 0.6732458731002018 0 0.6932106178805867 0.6853212118532618 0 0.6963018981740738 0.6973944940128334 0 0.6994112985243818 0.7094662410445994 0 0.702515335008979 0.7215412214654237 0 0.7056102620957631 0.7336224560163075 0 0.7238216283933188 0.7611412572437654 0 0.7087049589788511 0.745703767627472 0 0.7269319874707886 0.7732214925117942 0 0.7300316542009675 0.785309577995559 0 0.7331330861464078 0.7973958290360521 0 0.7362373902686548 0.8094881404480513 0 0.7395584286871615 0.8210709287628883 0 0.7550401838255152 0.8365523181945435 0 0.7585177107372969 0.8487878270713538 0 0.761705216577759 0.860899493073281 0 0.7648653002334789 0.8728434594547922 0 0.7799965319256247 0.8883075985121505 0 0.7830985707328719 0.900407155053472 0 0.7862002778347248 0.912508897800628 0 0.7893041736983195 0.9246111783377488 0 0.7924080784927483 0.9367145263641474 0 0.7957212293146767 0.948308143328576 0 0.8004506216742113 0.9590133448349343 0 0.8124443389727088 0.9785236216139443 0 0.8059795783149043 0.9685190156834356 0 0.8187478075535101 0.9891711500764361 0 0.8249999999998263 1 0 0.3858324797382817 0.01049903974555095 0 0.3904440575731017 0.02117868708357899 0 0.4040719727348793 0.03593758716253764 0 0.4070026391382501 0.04785463379101453 0 0.4100803288280509 0.05984988877977701 0 0.4131505223011954 0.07183710697065671 0 0.4281483159575801 0.08714496045724746 0 0.4312270734876161 0.09913136831921629 0 0.4343073179750886 0.1111255931379065 0 0.4373853317777049 0.1231218624976346 0 0.4404627667690085 0.1351189802006383 0 0.4435414061312262 0.1471201795855441 0 0.4466186222016494 0.1591201654604338 0 0.4496957381022003 0.171119639403172 0 0.4527738278672598 0.1831196737400299 0 0.4677815230411828 0.1984537226409838 0 0.4708568453882467 0.210457373206146 0 0.4739290346749275 0.2224605949001809 0 0.4770021426238512 0.2344663949576647 0 0.4920169733479769 0.2498202950220912 0 0.4951015924762606 0.2618000684671352 0 0.4981975041781849 0.2737731642187679 0 0.5012792196630977 0.2857811997750547 0 0.5043579454409071 0.2977958350787951 0 0.5074376444101061 0.3098110789716673 0 0.5105177986832103 0.3218282513351883 0 0.5255484671689854 0.3371915458092918 0 0.5286287760861501 0.3492098408346272 0 0.5317086976415553 0.3612300944749832 0 0.5347897731147887 0.3732467842013521 0 0.5378521601657418 0.3852443642262567 0 0.5409617383640151 0.3972304699412875 0 0.5562891971387087 0.4122987453249956 0 0.5594178157256671 0.4242532257292962 0 0.5896369307997392 0.4547516810878488 0 0.6170109879538194 0.5184458267210519 0 0.6475748788498827 0.5940894523334765 0 0.6506678091679121 0.606154583342787 0 0.6781228600484968 0.6698819223550406 0 0.7118069266466114 0.7577790831340444 0 0.7432211759673177 0.8331543092970861 0 0.7679666641915923 0.8849426616190188 0 0.5744517156495725 0.4395341723976931 0 0.3796296296294943 0 0 0.3930625159369319 0.03306570673239948 0 0.4162248446376121 0.08382589595733123 0 0.4558503721342799 0.1951185887804281 0 0.4800790995106866 0.2464674805215227 0 0.5135974154275385 0.3338478094307508 0 0.5440541654697039 0.4093245950150697 0 0.56246914545241 0.4362571502789593 0 0.5775749707125036 0.451518354864077 0 0.592683157003242 0.4668782208240759 0 0.5957618363452789 0.4789359833853903 0 0.59885090565945 0.4909852787010454 0 0.6019396390599259 0.5030360763410995 0 0.6050266822911464 0.5150911839512957 0 0.6200986362994914 0.5305055227314766 0 0.6231883316215159 0.5425640771704633 0 0.6262778968308225 0.5546211401833698 0 0.6293649021727956 0.5666656287234899 0 0.6324736583663303 0.5787046379494776 0 0.6355773346165943 0.5907411983499641 0 0.6537590850832747 0.6182218975978654 0 0.6568492172271911 0.630295586475615 0 0.6599403441219506 0.642367346200226 0 0.6630318954019885 0.6544486960370289 0 0.6661242321355205 0.6665229884904503 0 0.6812176803734324 0.6819547840063671 0 0.684315411995747 0.6940286975027311 0 0.6874052423566104 0.7061065862885499 0 0.690505727535045 0.7181821619786908 0 0.6936006513739319 0.7302616286990482 0 0.6966954420290197 0.7423398982100928 0 0.7149144796003922 0.7698593604201922 0 0.6997928520184304 0.7544163469765147 0 0.7180200041786404 0.7819471509681383 0 0.7211179919504588 0.7940328267718112 0 0.7242212866388122 0.8061086969997018 0 0.7275659563298891 0.8179227409780057 0 0.7313537235784168 0.829857298863051 0 0.7466351215293907 0.845285062047844 0 0.7497358346576835 0.8573820139938318 0 0.7528366991515797 0.8694798000482585 0 0.755937857766849 0.8815784346242392 0 0.7710684368701641 0.8970428144933799 0 0.7741702782969025 0.9091439099352009 0 0.7772725079559879 0.9212461881243392 0 0.780374796559776 0.933349336462967 0 0.7836049784811007 0.9457849935770125 0 0.787859962990749 0.9574076605068377 0 0.7935060450136137 0.9679456784310769 0 0.7999539645318771 0.978424591516256 0 0.80623244419439 0.9892152345266785 0 0.8124999999999131 1 0 0.3734155673927878 0.0105262688166071 0 0.3781604093546041 0.01972331112585116 0 0.3817245815307173 0.03099025209058523 0 0.395166210703368 0.04491671878007234 0 0.3981562197135837 0.05651950355156554 0 0.4012321120113848 0.06850997591192834 0 0.4043077657221024 0.08049789667453117 0 0.4193025936697804 0.09581160934829694 0 0.4223802198748888 0.1078001056607072 0 0.4254588216361583 0.1197899937260611 0 0.4285356584389985 0.1317825446154311 0 0.4316140349314464 0.1437835000026602 0 0.4346933106314277 0.1557919366938728 0 0.4377681202372381 0.1677974734389678 0 0.4408466200374832 0.1797933289383927 0 0.4439216622010987 0.1917896982687972 0 0.4589270506167814 0.2071178598224426 0 0.4619997207788856 0.2191193942031986 0 0.4650702341439168 0.2311156107440365 0 0.468147669583687 0.2431169945720016 0 0.4831653459482806 0.258459983060523 0 0.4862564433376784 0.2704338107019374 0 0.4893365125357334 0.2824427006702379 0 0.4924147874295375 0.2944546406570364 0 0.4954920436090949 0.3064695440744984 0 0.4985695432515607 0.3184868129018729 0 0.5016486510665628 0.3305043434597189 0 0.5166769690789468 0.3458679357727038 0 0.5197596413523563 0.3578815581010819 0 0.5228436070566893 0.3698963466765748 0 0.5259258721868281 0.3819215173664691 0 0.5290107650251723 0.3939483429530365 0 0.5320922595630176 0.4059781751439105 0 0.547578909685663 0.4210391946335885 0 0.5505218015418605 0.4329315792197166 0 0.5806941905690868 0.463550751355034 0 0.6081143254871465 0.5271470628244663 0 0.6386720037624178 0.6027990964760723 0 0.6417630217141936 0.6148650830464873 0 0.6692166580149497 0.678596311482353 0 0.7028982914433473 0.7664981642921966 0 0.7346187392260234 0.8419314684640421 0 0.7590389514965025 0.8936780676945052 0 0.5655749904654419 0.448249009163783 0 0.3672222222221126 0 0 0.383447152960007 0.04204041428115095 0 0.4073829700986488 0.09248507579428056 0 0.4469981363308113 0.2037831729445647 0 0.4712245433328471 0.2551145700242673 0 0.5047274666418659 0.3425220980597201 0 0.5352881292781079 0.4178906319885073 0 0.5535888851103766 0.444950948765753 0 0.5686766971725356 0.4602395716895469 0 0.5837837152554157 0.475586105645584 0 0.5868715761697292 0.4876346091776283 0 0.5899591639126638 0.4996841001648833 0 0.5930466332756436 0.51173462713308 0 0.5961326995642873 0.523786824362979 0 0.6112008320929511 0.5392097312255667 0 0.6142910025629988 0.5512694183422135 0 0.6173769304719967 0.563320559254008 0 0.6204590196884056 0.5753627186726906 0 0.6235810924699728 0.5873885049840735 0 0.6266710663530052 0.5994509352384674 0 0.6448522872995768 0.6269405214525968 0 0.6479410506167977 0.6390189701745204 0 0.6510320281413413 0.6510929676925639 0 0.6541240662323463 0.6631651604940467 0 0.6572120401385459 0.6752381389666479 0 0.6723099573096427 0.6906706110770577 0 0.6754040405352425 0.7027458867539752 0 0.6784979594067077 0.7148229578778256 0 0.681592163815651 0.7269012694782072 0 0.6846864929451923 0.7389801634303074 0 0.6877831004928373 0.7510591034943871 0 0.7060029835294995 0.7785848635938717 0 0.6908819052363526 0.7631398360327203 0 0.7090996341005692 0.790673464663315 0 0.7121968765341795 0.8027628060645504 0 0.7153223913684359 0.8147523029087971 0 0.7189448372380416 0.8266423678476489 0 0.7224507780402655 0.8385585604113334 0 0.7377093126252832 0.8540182924474266 0 0.7408096190529836 0.8661158090101579 0 0.7439098898265778 0.8782141792309904 0 0.7470106148685748 0.8903133384029942 0 0.7621397312460507 0.905778904655542 0 0.765241036384806 0.9178809550459622 0 0.768342019498348 0.9299838545115244 0 0.7713593184727625 0.9424503014600175 0 0.7739093364689684 0.9560354868793965 0 0.781158274883935 0.9677646945113172 0 0.7874822630728679 0.9783991777295343 0 0.793748554108332 0.9891720439534351 0 0.7999999999999998 1 0 0.3608479084920587 0.01131711299771113 0 0.3676127634738078 0.017822477681871 0 0.370303004474324 0.02751222857441098 0 0.3720130284377646 0.03859520022972699 0 0.3861438486059268 0.05347098691664808 0 0.3893143702904281 0.06518207291040426 0 0.3923897053661154 0.07716938445288414 0 0.3954654758394797 0.08915665328790913 0 0.4104585962566227 0.1044721318582091 0 0.413535695823809 0.1164594701410618 0 0.4166116730708636 0.128448138156206 0 0.4196885346585767 0.1404401582930035 0 0.4227686848346889 0.1524580637013929 0 0.425840012186855 0.1644656309899916 0 0.4289174566914207 0.1764723251849015 0 0.4319961584038641 0.1884630512289677 0 0.4350709360980378 0.2004552211609167 0 0.4500737783485243 0.2157803886667255 0 0.4531453926810745 0.2277770511780104 0 0.4562224116848907 0.2397720439882559 0 0.4593010406730072 0.2517692713275377 0 0.4743109604804572 0.2671084938307349 0 0.4773957879182754 0.2791058400249362 0 0.4804738623655443 0.2911140202517127 0 0.4835485237968739 0.3031296075190276 0 0.4866241923020214 0.3151449809264846 0 0.4897011651092316 0.327162098784088 0 0.49277963927822 0.3391792556581832 0 0.5078078051865285 0.3545386219739026 0 0.5108912063619497 0.3665542912979851 0 0.5139741302236757 0.3785756925724088 0 0.5170543689821467 0.3906020498816475 0 0.5201347538720449 0.4026290614827909 0 0.5232066681259315 0.4145842383884453 0 0.5386942389002755 0.4297283288766204 0 0.5416493116680423 0.4416322456596492 0 0.5718074039359429 0.4722358832820058 0 0.599216114721184 0.5358432879544288 0 0.6297686037271765 0.6115087638377724 0 0.632858378141695 0.6235765477994127 0 0.6603028369217983 0.6873124527620879 0 0.6939851064385478 0.7752234290026557 0 0.7256856239740381 0.8506560312087591 0 0.7501111419151175 0.9024127573653004 0 0.5566774955380428 0.456940657866054 0 0.3548148148147337 0 0 0.374376602011643 0.05018506402421326 0 0.3985400739329093 0.1011416155024844 0 0.4381473909439674 0.2124469167394412 0 0.462375006882406 0.2637707313671905 0 0.4958588132207324 0.3511960112445863 0 0.5263760514385797 0.4264034637750907 0 0.5447007826915597 0.4536350809274921 0 0.5597921777400077 0.4689387797649816 0 0.5748924210373114 0.4842886285891059 0 0.5779809410581153 0.4963331165677164 0 0.5810677832114221 0.5083818087239707 0 0.5841539348734724 0.5204303442138144 0 0.587237879410522 0.5324818820726618 0 0.6023025854222648 0.5479025764807761 0 0.605392932149829 0.5599638040463681 0 0.6084808598339528 0.5720245981387115 0 0.6115707439798064 0.5840701609185683 0 0.6146706446720497 0.5961186202074941 0 0.6177634262210432 0.6081761789567028 0 0.6359461013199675 0.6356554454907285 0 0.6390338383243408 0.6477389182211082 0 0.6421252564974516 0.6598079093876507 0 0.6452170046318461 0.6718766644512968 0 0.6482901132735774 0.6839554693997216 0 0.6633988806798939 0.6993867845070347 0 0.6664910242736714 0.7114629173498817 0 0.6695836417041148 0.7235409943652726 0 0.6726782137100062 0.7356202607154976 0 0.6757725069611923 0.7477000402938864 0 0.6788711785563187 0.7597811815437766 0 0.6970824836021603 0.7873109647984077 0 0.6819665681995218 0.7718648678702711 0 0.7001788646246654 0.7993995750130536 0 0.7032749550405702 0.8114896202366367 0 0.7067463383188526 0.8234147207975699 0 0.7102298357923897 0.8353485831271361 0 0.7136593875874895 0.847290540456189 0 0.7287835491918311 0.8627516531502673 0 0.7318827289887603 0.8748495802295519 0 0.7349827327371541 0.8869484823880947 0 0.7380831154692484 0.8990481091148363 0 0.7532123991147818 0.9145139738404666 0 0.7563113074490172 0.926617460961857 0 0.7594113557974517 0.9387219051040321 0 0.762513424030931 0.9508262322251736 0 0.7688187901554944 0.9685605586310638 0 0.7749976575889216 0.9784216893024262 0 0.7812462773462531 0.9892050250564588 0 0.7875000000000865 1 0 0.3487024672295365 0.009614536468575395 0 0.3605938600263322 0.02272001836513583 0 0.3608907111712161 0.03405162804907545 0 0.3624778105033692 0.0460715056092854 0 0.3773526941893348 0.06201962438294341 0 0.3804694544321324 0.07383723180742302 0 0.3835529706942469 0.08583487311433298 0 0.3866227433794047 0.09782050924016589 0 0.4016155191722933 0.1131278411467401 0 0.4046906682106154 0.1251159060360963 0 0.4077700947051376 0.1371073209089511 0 0.4108468152275857 0.1491099548435381 0 0.4139202770018011 0.1611193896911354 0 0.4169928027124297 0.1731329823499703 0 0.4200724465904088 0.1851398022254319 0 0.4231478288047354 0.1971279315953666 0 0.4262234568416879 0.2091163362436568 0 0.4412188290809199 0.2244420673781856 0 0.4442935641863184 0.2364374523369832 0 0.4473686687149594 0.2484346001258709 0 0.4504458975880373 0.2604329581754857 0 0.4654584719517145 0.2757691033445246 0 0.4685363424307168 0.2877742692445854 0 0.4716069032511787 0.2997889643000878 0 0.4746793538238666 0.3118054949043462 0 0.477753645014847 0.323822990830571 0 0.480832938939758 0.3358374439731743 0 0.4839112532646789 0.3478536318469709 0 0.4989390222697688 0.3632132758956073 0 0.5020207842190239 0.3752322173808358 0 0.5051004714873292 0.3872558541537575 0 0.5081796200608523 0.3992802261283205 0 0.5112320999819012 0.4112643150393724 0 0.5143921212199027 0.4231839939752025 0 0.5296557195097853 0.4383215510955082 0 0.5327423584624459 0.4502965317895474 0 0.5629081884344337 0.4809555255523542 0 0.5903242381016187 0.5445350033898572 0 0.6208629919457997 0.6202238307370267 0 0.6239519386251887 0.6322932487357225 0 0.651392114690859 0.6960279622795928 0 0.6850655162225211 0.7839494735446564 0 0.716757459036841 0.8593875632815983 0 0.7411878403857126 0.9111467708884918 0 0.7629571282845833 0.9603551013140471 0 0.5477965920955608 0.4656291564816762 0 0.3424074074073709 0 0 0.3530143564974489 0.01807327462142132 0 0.3654799235141265 0.05862188367685153 0 0.3896993063157697 0.1097986976375963 0 0.4292961770005226 0.2211073487089644 0 0.4535225817354503 0.2724333956318681 0 0.4869903126026868 0.3598706167532454 0 0.5176201331152137 0.4350364087152656 0 0.5358203764069287 0.4623261965773094 0 0.550910947950201 0.477640556604198 0 0.5660027013702323 0.4929865313093469 0 0.5690900657833771 0.5050310424908402 0 0.5721766924537313 0.5170787603502047 0 0.5752625368124658 0.5291259777733349 0 0.5783477699960643 0.5411758711156009 0 0.5934099960953972 0.5565923505684358 0 0.5964994214600319 0.5686620184800329 0 0.5995871205349614 0.5807331360855804 0 0.6026724140909506 0.5927841666052649 0 0.6057651249175203 0.6048417745418881 0 0.6088592687691674 0.6169071687531226 0 0.6270390376673495 0.6443772826660341 0 0.6301285299187509 0.6564508091751977 0 0.633216569038632 0.6685207123840742 0 0.6362840393399475 0.6805989002594222 0 0.6393762050034569 0.6926720494435094 0 0.6544843122209706 0.7081041310122292 0 0.657576571163645 0.7201811661524262 0 0.6606689596187293 0.7322598394169157 0 0.6637640756738524 0.7443395378528478 0 0.6668589651574015 0.756420916774086 0 0.6699542835729604 0.7685036317076185 0 0.6881619277336066 0.7960367310958745 0 0.67304997268538 0.7805881261852492 0 0.6913508659351894 0.8080135109196056 0 0.694745008280764 0.8201340210074959 0 0.6982372074409944 0.8321740080333352 0 0.7016073979543735 0.8440497249322442 0 0.7047297462232045 0.8560252183020637 0 0.7198564049747715 0.8714841434811823 0 0.7229554935001967 0.883583079443406 0 0.7260549583410749 0.8956829769279057 0 0.7291816865117737 0.9077735212466627 0 0.7442874968989088 0.9232481279234709 0 0.7473793177508876 0.9353552758867518 0 0.7504800297357974 0.9474605106089605 0 0.7534251726190735 0.9593434902804503 0 0.7624983285257408 0.9787291794802047 0 0.756527706681935 0.9694485657084304 0 0.7687491893071379 0.9892372393533568 0 0.7750000000001732 1 0 0.3391021550846371 0.009256432877812092 0 0.3414442426688932 0.01906117279402424 0 0.3506804956924576 0.02775324998333879 0 0.349641563690598 0.04163658660538801 0 0.3537072233407821 0.05497438471480538 0 0.3685910004298774 0.07060011314821885 0 0.3716381991861511 0.08254518041172949 0 0.3747112513104378 0.0945126156413322 0 0.3777805985645844 0.1064871691751327 0 0.3927741598456345 0.121785056631488 0 0.3958482730868458 0.1337725290107262 0 0.3989261017139706 0.1457620160328192 0 0.4020001553464642 0.1577625970021707 0 0.4050745483876457 0.1697838807630866 0 0.4081525962269288 0.1818043104038524 0 0.4112283477168018 0.1937985058591648 0 0.4143031389723271 0.2057865220454488 0 0.4173752692305375 0.2177740772118031 0 0.4323491827051281 0.2331062579344103 0 0.4354207916081676 0.2451037259481797 0 0.4385066988319228 0.2570988900165337 0 0.4415831847086314 0.2690983784938393 0 0.4566010204316781 0.2844348388410551 0 0.4596663893100549 0.2964533876523288 0 0.4627366067298782 0.308468032351858 0 0.465808028162896 0.3204858046774842 0 0.4688871858628625 0.3324980780093991 0 0.4719652834122317 0.3445120108816973 0 0.4750435566450053 0.3565276449022832 0 0.4900697054350252 0.371889285904614 0 0.4931486914029313 0.3839105050719438 0 0.4962275176149267 0.3959331621838911 0 0.499303164227452 0.4079524139096863 0 0.5023641419274802 0.419956470150981 0 0.5055536327303112 0.4318590677820592 0 0.5208007036363319 0.4469859285556697 0 0.523861434095241 0.4589865608407511 0 0.5540240260205564 0.4896492571582319 0 0.5814399217198384 0.5532238092043048 0 0.6119492595819351 0.6289680647526885 0 0.6150438798605131 0.6410237108186868 0 0.6424801277166495 0.7047443590495184 0 0.6761460748340783 0.7926741035145324 0 0.7078300168359771 0.868118053639231 0 0.7323028060206149 0.9198707800955015 0 0.5389223694189584 0.4743305039404055 0 0.33 0 0 0.3567878979861434 0.06745278533687281 0 0.3808575375163088 0.1184494824108617 0 0.4204351341324893 0.2297634412297322 0 0.4446686252996003 0.2810968489805512 0 0.4781209655807813 0.3685456279642839 0 0.5088258152966489 0.4437541968680997 0 0.5269394798008864 0.471015753947681 0 0.5420223339916898 0.4863401167275392 0 0.5571143144141657 0.5016804084976491 0 0.5601995899471416 0.5137280334882549 0 0.5632863539902961 0.5257752843204143 0 0.5663733178795659 0.5378228604201698 0 0.5694582404746079 0.5498777402693863 0 0.584522090732139 0.5652903087462331 0 0.587602604985188 0.5773726416659662 0 0.5906888660538887 0.5894366352099201 0 0.5937781434418927 0.601494730522911 0 0.5968696948963028 0.6135529676808651 0 0.5999592984227677 0.6256133954132828 0 0.6181335118756077 0.6530941947387359 0 0.6212204285269172 0.6651648024841635 0 0.6242966727266197 0.6772335510025079 0 0.6273738327819145 0.6893125810424789 0 0.6304680621168025 0.7013865034521117 0 0.6455671548011053 0.7168215967349225 0 0.6486602483792385 0.7288997386102758 0 0.6517549156245135 0.7409792162373662 0 0.6548490407677505 0.7530596908518402 0 0.6579424773846478 0.7651419899674221 0 0.6610362692628837 0.7772260012002228 0 0.6792414460197788 0.8047619010575281 0 0.6641313456588466 0.7893114085403412 0 0.6827278195077915 0.8167026151080663 0 0.6862284274158665 0.8288331253039188 0 0.6895850457035936 0.8406266135668148 0 0.6926987887134669 0.8526791898925221 0 0.6958018733098795 0.8647597818599539 0 0.7109297391432327 0.8802148496320009 0 0.7140799320886901 0.8923013501004522 0 0.7172014062572638 0.9044111324676716 0 0.7203868531621299 0.9164593365335887 0 0.7354022300338188 0.93200383666714 0 0.7384673440345827 0.944116257517519 0 0.741480021710031 0.9561302012421362 0 0.7444238265297364 0.9677648648932385 0 0.75624929441767 0.989174198298258 0 0.7499986160515858 0.9783494311907768 0 0.7625000000002599 1 0 0.3297692325813477 0.01233909407975554 0 0.3391611059849791 0.03187312562488687 0 0.343937992296117 0.05252995615082417 0 0.3443959202748167 0.06516031547341479 0 0.35976491912737 0.07927919818574353 0 0.3628022351902976 0.09120624269177349 0 0.3658707608479423 0.1031817192148589 0 0.3689472120277571 0.1151437172287636 0 0.3839332254627264 0.1304421003230045 0 0.3870045169112971 0.1424270434431384 0 0.3900786835837878 0.1544103779764142 0 0.3931565791517822 0.1664371886093496 0 0.3962325200035576 0.178456111795531 0 0.3993101635255641 0.1904664249804549 0 0.402383272357896 0.2024548350594712 0 0.4054564463136535 0.2144425941054925 0 0.4085198329504383 0.2264243174131004 0 0.4234858399282609 0.241765295598926 0 0.4265505496169676 0.2537836705784944 0 0.4296160558432204 0.2657706191335766 0 0.4327077302348357 0.2777706498527518 0 0.4477286412277164 0.2931161825177374 0 0.4507888217891615 0.3051380386586496 0 0.4538638851641954 0.3171497327182721 0 0.4569423849356476 0.3291593258204932 0 0.460020834711795 0.341170891872975 0 0.4630986025615254 0.3531844485210013 0 0.4661765519257314 0.3651989292770965 0 0.4811990381210395 0.3805658717564844 0 0.4842768925640027 0.3925874037554083 0 0.4873551024415086 0.4046094868432052 0 0.4904340747627014 0.4166336020949908 0 0.4935138292294299 0.4286585259156012 0 0.4967066310048509 0.4405712311841126 0 0.511897515367021 0.455642637865959 0 0.5149812245920584 0.4676762825298835 0 0.5451354490781198 0.4983459565354298 0 0.5725382848315084 0.5619502345115456 0 0.6030493946757958 0.6376752645539698 0 0.6061401458710959 0.6497380802904889 0 0.6335623952371279 0.713462336781413 0 0.6672538090925021 0.8013007301641526 0 0.6989094927113959 0.8768291212960073 0 0.7234787158305218 0.9285860555364721 0 0.5300318310200163 0.4830159362444544 0 0.3290772530756203 0.02466093080571288 0 0.3369934200874899 0.04454555644717646 0 0.3486136544820735 0.07697744186904404 0 0.3720209737288527 0.1271190678175654 0 0.4115658700650937 0.2384375762812764 0 0.4357912357443591 0.289770936096222 0 0.4692524810166162 0.3772204464860764 0 0.5000705057605399 0.4524373163475209 0 0.5180604276324519 0.4797062657224168 0 0.5331385037982206 0.4950291269115646 0 0.5482237750854986 0.5103822711056905 0 0.5513104811232502 0.522424227402808 0 0.5543964582872962 0.5344715154959921 0 0.5574801804117473 0.5465250967241871 0 0.5605586271654193 0.5585980404147604 0 0.5756188890722994 0.5740200910319808 0 0.5786934770857353 0.586085636844122 0 0.581780946492036 0.598143921018256 0 0.5848793115671879 0.6101994894766067 0 0.5879688023130932 0.6222589319159006 0 0.5910572310046174 0.634320129168072 0 0.6092261703203554 0.6618012064346612 0 0.6123027194812634 0.6738744700525454 0 0.6153777928059883 0.6859488998525161 0 0.6184675843261307 0.6980188514602539 0 0.6215651863207902 0.7100933926731524 0 0.6366525935024591 0.7255400398671786 0 0.6397464196496834 0.7376184306527769 0 0.6428400149700998 0.7496984186157223 0 0.6459333341855016 0.7617793744940916 0 0.6490248051313368 0.7738629762547999 0 0.6521171818127257 0.7859485393928098 0 0.6705395394772806 0.8130260184273774 0 0.6552120614259902 0.7980349963095392 0 0.6741566169960655 0.8252035158346471 0 0.6775496725619388 0.8373078180613593 0 0.6806770874685398 0.8493014093649465 0 0.6837776067008485 0.8613946531926874 0 0.6868762912822692 0.8734921783674535 0 0.7020823956113184 0.8889225161476393 0 0.7052555996790545 0.900993545984091 0 0.7084182607526572 0.9131005001883807 0 0.7116173257370136 0.9251647803040957 0 0.7265271680063725 0.9407053395226799 0 0.7295134449699903 0.9528334813465638 0 0.7330616000583571 0.9643524124148246 0 0.7357801114356866 0.9768732251801598 0 0.7434667505542196 0.9889459930671647 0 0.7500000000003466 1 0 0.3279250292748634 0.03694827702451083 0 0.3347401126245712 0.05694515355767664 0 0.339132678109784 0.07613194184152525 0 0.3511418703709465 0.08813048953380249 0 0.3540057510277617 0.09984752607079368 0 0.3570402864261615 0.1118274156859761 0 0.3601131150826929 0.1237974490681871 0 0.3750938916874199 0.1390994226242477 0 0.3781652326197789 0.1510786964418057 0 0.3812375096228949 0.1630572641463089 0 0.384316033345072 0.1750982157612008 0 0.3873937722765937 0.1871336004939263 0 0.3904681094533771 0.1991264733728174 0 0.3935412937777936 0.2111120877203457 0 0.3966138139458488 0.2230990169111156 0 0.3996606348142192 0.2350890725317046 0 0.4145997220039826 0.250460727790375 0 0.4176733145985682 0.2624792842473791 0 0.4207590838094645 0.2744600983583209 0 0.4238363662678169 0.2864537369045762 0 0.4388573266350103 0.3017927689069214 0 0.4419262815496526 0.3138106461998491 0 0.4450022534166951 0.3258197415536379 0 0.4480789933798422 0.3378298255341874 0 0.4511552168007444 0.3498420133426003 0 0.4542324922784138 0.361855539273242 0 0.4573082500091985 0.3738689269678273 0 0.4723276285776766 0.3892424938966038 0 0.4754042445735982 0.4012646498656408 0 0.478481569984198 0.413287787190762 0 0.4815598851339738 0.4253117602839792 0 0.484683485074607 0.4372538740230811 0 0.4878151111552686 0.4491205270758792 0 0.5030408968755413 0.464354505762918 0 0.5061014262789252 0.4763654146228127 0 0.536247249281268 0.5070402004398843 0 0.5636386241942783 0.570667870633106 0 0.5941470555674867 0.646382635083907 0 0.5972372474337682 0.6584465970127571 0 0.6246532700504438 0.7221780909203157 0 0.6583078563278463 0.8101221172804408 0 0.6900847674640042 0.8855581085661433 0 0.714635912023182 0.9373122600958281 0 0.5211442293836031 0.4917142265053105 0 0.3263141726758155 0.04918394769534178 0 0.332446373483103 0.06920642340650049 0 0.3404340567607232 0.0860400760556778 0 0.3631857240264221 0.1357711502837936 0 0.4026940565611719 0.2471226031238203 0 0.4269198451359635 0.298438039155465 0 0.460380407673996 0.3858966756427623 0 0.4910742977532599 0.4610611484328953 0 0.5091828411742256 0.4883977091510403 0 0.5242499300346269 0.5037183250167701 0 0.5393355666690468 0.5190748002701171 0 0.5424211332456867 0.5311203257899693 0 0.5454977743542349 0.5431886946413136 0 0.5485797907259359 0.5552475258396674 0 0.5516566423544385 0.5673197745106704 0 0.5667092709069155 0.5827280915605774 0 0.5697885667659063 0.5947857297328356 0 0.5728736735413147 0.6068503595872534 0 0.5759627145925071 0.6189093441974205 0 0.5790556527479518 0.6309680157374448 0 0.5821539972493973 0.6430271135603692 0 0.6003148773922505 0.6705093986714339 0 0.6033803751154493 0.6825889618699899 0 0.6064754531248511 0.6946499427079461 0 0.6095753188726 0.7067222774282769 0 0.6126686762039514 0.7187924993580551 0 0.62773915970383 0.7342574646844318 0 0.6308317704147597 0.7463369100652197 0 0.6339245860118555 0.7584173163651754 0 0.6370193539583825 0.770497537772217 0 0.6401028425102984 0.7825853771542624 0 0.6431970794137137 0.7946720131245357 0 0.6623549441074204 0.8218288107320926 0 0.6462839816670465 0.8067506205252921 0 0.6655595126316787 0.8338707591350538 0 0.668653641496611 0.8459382618735788 0 0.6717527834700877 0.8580313877466917 0 0.6748563897593974 0.8701182534980952 0 0.6780235548920752 0.8821098830422139 0 0.6932660659505214 0.8976392652208697 0 0.6964537023490245 0.9097568979265499 0 0.6995946773314574 0.9218173079142893 0 0.7027057738748541 0.9338906743308432 0 0.7176550593638349 0.9494047980898936 0 0.7212896300545288 0.9608074875709189 0 0.7252687991508452 0.9701828939335498 0 0.7312724814195959 0.9892791037337936 0 0.7375000000004333 1 0 0.3242469361989218 0.06135083019497236 0 0.3301453215093607 0.08114027142904703 0 0.3424437603776521 0.09687541265545492 0 0.345365880029135 0.1084448389245536 0 0.3482100801073155 0.1204726931057165 0 0.3512811340654082 0.132443294493138 0 0.3662555218801067 0.1477488047518106 0 0.3693270902193951 0.1597257429711347 0 0.372395228017099 0.1717018103152559 0 0.3754759406909782 0.1837551393635826 0 0.3785535467723614 0.1957834307331182 0 0.3816270147182927 0.2077829188194188 0 0.3846991058776936 0.2197666880537586 0 0.3877674590855301 0.2317464462776784 0 0.3908099429147878 0.2437560619649544 0 0.405746865497881 0.2591623724266263 0 0.4088202023941749 0.271152882354756 0 0.4119008335181712 0.2831334176568859 0 0.4149806374518339 0.2951288945511725 0 0.4299923676144293 0.3104663037075841 0 0.4330649371289303 0.322480173853918 0 0.4361403586266884 0.3344882595651611 0 0.4392241338953011 0.3464579811882287 0 0.4422977861779148 0.3584448371395988 0 0.4453724242498167 0.370489631250405 0 0.4484425345527919 0.3825584144166584 0 0.4634550474925865 0.397918792444308 0 0.4665314967409507 0.4099409179802788 0 0.4696072978030151 0.4219656085133155 0 0.4726852167807825 0.4339895175892425 0 0.475850006801817 0.4458865307670402 0 0.4790133013057734 0.4577662257102862 0 0.4941431903842604 0.4730232718516805 0 0.4972200743065898 0.4850543582858553 0 0.5273590127415768 0.51573243548428 0 0.5547376408097213 0.5793744216465867 0 0.585243949423559 0.6550901576276684 0 0.5883312734408521 0.6671526195323971 0 0.6157566398118056 0.7308802662814836 0 0.6494439884889819 0.8187711585030782 0 0.6812667712635109 0.8942405903820083 0 0.7057966860032212 0.9459980193340537 0 0.7232614897223578 0.9796680690601997 0 0.5122589101216641 0.5004055582400878 0 0.3217262110693824 0.07343190798923309 0 0.3291143264907911 0.09396084762977136 0 0.3543106052824745 0.1444075085351547 0 0.393832036923378 0.2558185194243325 0 0.4180558772053392 0.3071342515698477 0 0.4515079424267529 0.3945735663980314 0 0.4822023829334541 0.4697180942982882 0 0.5002978003274869 0.4970832777919887 0 0.5153697743824576 0.5124133173994094 0 0.5304470608015374 0.5277703197585524 0 0.5335173437855631 0.5398351983887952 0 0.5365998996967366 0.5519050982442431 0 0.5396767498411059 0.5639758110150492 0 0.5427482455554267 0.5760310093838507 0 0.5577952682884431 0.5914381108915348 0 0.5608654344340427 0.6035000075469867 0 0.563955897833931 0.6155608117587925 0 0.5670406986986951 0.6276200084472711 0 0.5701620703018837 0.6396697751753779 0 0.5732499718102364 0.6517344394737461 0 0.5914086240238142 0.6792123967092365 0 0.5944933981905124 0.6912867014196162 0 0.5975859737975053 0.703355451779778 0 0.6006890394623716 0.715423526590476 0 0.6037789919364414 0.7275028382766844 0 0.6188432180088961 0.7429603402412244 0 0.6219214275929827 0.7550510177386608 0 0.6250184780239273 0.7671287039398828 0 0.6281120778873763 0.7792114784250901 0 0.6311843834676415 0.7913078360983872 0 0.6342751987230977 0.8033944582025698 0 0.6535337701950479 0.8304820460104059 0 0.6373620505967488 0.8154734613617479 0 0.6566411214678712 0.8425907143017064 0 0.6597317898973201 0.8546734058892886 0 0.6628280725173096 0.8667601391964466 0 0.6659953258020526 0.8787870542619399 0 0.6692854528854284 0.8908595733700788 0 0.6844531593362163 0.9063639323187875 0 0.6875691731875184 0.9184294150918777 0 0.6906727611560903 0.9305268145706056 0 0.693775972726614 0.9426297092866955 0 0.708914866063978 0.9580980312450764 0 0.713696856957042 0.9707333413495659 0 0.7188863259463681 0.9898010745405914 0 0.7250000000005199 1 0 0.3187555227402138 0.08541028464191575 0 0.3341401190345554 0.1059052011746959 0 0.3370560060155374 0.1172697018032969 0 0.3393805131561443 0.1291170338185401 0 0.342450190795322 0.1410850486565366 0 0.3574209827980768 0.1563922802668349 0 0.3604899219845322 0.168370340467867 0 0.3635571023187385 0.1803442759718492 0 0.3666410642331739 0.1924472040705062 0 0.3697153792617524 0.2044552482784581 0 0.3727869951556758 0.2164355972969136 0 0.3758575900400749 0.2284173195909646 0 0.3789268923441891 0.2403986889058901 0 0.3819684971549773 0.2524077021782544 0 0.3969037673034801 0.2678207077357862 0 0.3999721190892696 0.2798156301051317 0 0.403047614008736 0.2918092918897762 0 0.4061232885749767 0.3038046301304845 0 0.4211299380316802 0.3191419425595034 0 0.424204874576233 0.3311467955909234 0 0.4272916285491614 0.3430976383790877 0 0.4303780516746759 0.355051824551413 0 0.4334713454352899 0.3670869102474974 0 0.4365276712912778 0.3792136175920481 0 0.4395675660285 0.3912329133790163 0 0.4545873889987652 0.4065720606614208 0 0.4576571157500287 0.4186184726593351 0 0.460733560456864 0.4306423029320428 0 0.4638106738595185 0.4426666632483758 0 0.4670128052782064 0.4544754913105833 0 0.4702113177137132 0.4663792332725649 0 0.4852600209260836 0.481707157924918 0 0.4883274345290215 0.4937446172323288 0 0.5184549172659763 0.5244542753309301 0 0.5458048285653774 0.5880869339476191 0 0.5763395235633189 0.6637982099546034 0 0.5794268518637928 0.6758611980349937 0 0.6068713846789516 0.739582190295941 0 0.6404680126332949 0.8275718785174208 0 0.6724366860638443 0.9029690082478347 0 0.6968794398100671 0.9547336255358331 0 0.7131023657589439 0.9815254945492357 0 0.5033876138148289 0.5091153643284339 0 0.3153390259927304 0.09726920728553373 0 0.3224588761022454 0.1065029717472369 0 0.3452700781295118 0.1530044727588142 0 0.3850074096286105 0.2644428571089263 0 0.4091974394841107 0.3158050845906818 0 0.4426483978332802 0.4032136022006149 0 0.4733005849834091 0.478363404154869 0 0.4913935287792711 0.5057822944935328 0 0.506476622182561 0.5211436037226462 0 0.521538758228469 0.5365071374316062 0 0.5246164420936521 0.5485612441555625 0 0.5277072054392995 0.5606127074783458 0 0.5307704784695142 0.5726715707679451 0 0.533834821142536 0.584726526031255 0 0.5488658682486953 0.6001534809146027 0 0.551954104907686 0.6122115728188327 0 0.5550426624787876 0.6242689301478875 0 0.5581319968306108 0.6363270919756178 0 0.561255160324023 0.6483801704663428 0 0.5643451513266919 0.6604423906862562 0 0.5825145195875874 0.6879260040017359 0 0.5856147748248314 0.699995193571896 0 0.5887119882606069 0.7120633512831317 0 0.5918086012234007 0.7241327590565777 0 0.5948928307290058 0.7362090455904845 0 0.6099622244617113 0.7516621609056241 0 0.6130513410414413 0.7637457405962949 0 0.616142085517472 0.7758295289699553 0 0.6192080989190021 0.7879208041815609 0 0.6222778113193295 0.8000241870957914 0 0.6254273370295171 0.8120697074761251 0 0.6446592014369589 0.8392648569141256 0 0.6285311643441738 0.8241537967202999 0 0.6477129214120579 0.8513183590267067 0 0.6508021990199834 0.863401573190602 0 0.6539097589930971 0.875467290054894 0 0.6571545419575522 0.887521202074861 0 0.6603664658338607 0.8995900806971324 0 0.6755364037145469 0.9150683760668938 0 0.678639706974244 0.9271650722785517 0 0.6817425266613641 0.9392655894826389 0 0.6848456601418976 0.9513687976845028 0 0.6999717921059636 0.9670595336556862 0 0.7028522074612981 0.979061026271115 0 0.7125000000006066 1 0 0.706383768874668 0.9905703456780555 0 0.3274639983488117 0.1148949988978071 0 0.3274823605469029 0.1257939046692228 0 0.3309952989497132 0.1374095680439084 0 0.3335600344055566 0.1489136593189445 0 0.3485861031739806 0.1650388792144598 0 0.3516546055895758 0.1770144247366901 0 0.3547226097687599 0.1889876826283794 0 0.3578051891464032 0.2011112288608355 0 0.3608803888193681 0.2130918500159133 0 0.3639515136347374 0.2250625823602717 0 0.3670155475396841 0.2370665783068602 0 0.3700820733642709 0.2490437161330663 0 0.373122396145831 0.2610627197979962 0 0.3880544481228877 0.2764749364683114 0 0.3911225352911217 0.2884748655286509 0 0.3941961710078203 0.3004685347403467 0 0.3972684764616961 0.3124663762432721 0 0.4122716272012213 0.3278076100222426 0 0.4153488388842522 0.3397934347387834 0 0.4184595515713712 0.3517028331908752 0 0.4215706921100798 0.3636541177507068 0 0.4246814471079742 0.3756674332008132 0 0.4276817909142747 0.3877957194828596 0 0.4307174376364268 0.3997842998747684 0 0.4457243337489922 0.4151670122859573 0 0.4487857370707964 0.4272005868951997 0 0.4518695249356971 0.4392089653538449 0 0.4550018464403439 0.451101587026662 0 0.4581896855480728 0.4630527078385711 0 0.4613411125719882 0.4750224618962936 0 0.4763732189586245 0.4903929537108678 0 0.4794294109813355 0.5024274370275177 0 0.5095539233601036 0.5331905254597247 0 0.5368860627204742 0.5968011311745272 0 0.5674344947435687 0.6725070339646408 0 0.5705248193324248 0.6845732728717062 0 0.5980044812456756 0.7482832014912484 0 0.6317014439365827 0.8362544654797885 0 0.6635078940705654 0.9116999472279713 0 0.6879483536924625 0.9634735055087754 0 0.494488385469331 0.5178147196788884 0 0.3114814991107633 0.1089920901336953 0 0.3185620961135637 0.1180648664065811 0 0.3352512797338836 0.1621838526599974 0 0.3761633121211094 0.2730725570488775 0 0.400342113369913 0.3244621757465559 0 0.4338116448790199 0.4117350243181873 0 0.4644171341764345 0.4870440483199275 0 0.4824956809220018 0.5144743804046783 0 0.4975887449006714 0.5298476562812821 0 0.5126428620639814 0.5452312614960725 0 0.5157330869631405 0.5572659776243087 0 0.5188104539272715 0.5693173750427225 0 0.5218745779014924 0.5813657342923124 0 0.5249283928555699 0.5934283621429191 0 0.5399677149741964 0.6088586734653114 0 0.5430560045240944 0.6209153843707729 0 0.5461447932143276 0.6329729232123531 0 0.5492336546051273 0.6450307142846565 0 0.5523523254422914 0.6570847889174176 0 0.555439391713013 0.6691514133264596 0 0.5736154955615778 0.6966398697937887 0 0.5767144404257729 0.7087069669298131 0 0.5798118425181105 0.7207757846593186 0 0.5829047896024715 0.7328499540821609 0 0.5859985552380402 0.7449250491525854 0 0.6010901278422498 0.7603626370250128 0 0.6041737028103048 0.7724403949986335 0 0.6072431156324485 0.7844872474931808 0 0.6103703432173526 0.7965136698095728 0 0.6136150826945005 0.8086276034149689 0 0.6168245275211337 0.820640563953242 0 0.6357297270075585 0.8479953319807462 0 0.6200525019013837 0.8327857402538245 0 0.6387836482979188 0.8600662879686933 0 0.6418851121585712 0.8721132851653681 0 0.6450854953043197 0.8841659876113415 0 0.6482847529265547 0.8962572264537789 0 0.6514787354145165 0.9083324519933438 0 0.6666079494299965 0.9237988222564202 0 0.6697094276959481 0.9359014162028744 0 0.6728124258461683 0.948004313442099 0 0.6760396993953899 0.9598602306070597 0 0.6908498100706135 0.9760896278414253 0 0.6930268299580846 0.9892014876286326 0 0.7000000000006934 1 0 0.3214975241585986 0.1358333380109798 0 0.3233494825757944 0.1455218745202027 0 0.3262867082794593 0.1560276675920182 0 0.3400768720195156 0.1740180128128087 0 0.3428747819529593 0.1857130421017637 0 0.3458924526478049 0.1976510394216354 0 0.3489653352779134 0.2097475580622577 0 0.3520589267811953 0.2216760302391023 0 0.3551096334724263 0.2336881187118761 0 0.3581707286493337 0.2457114191592059 0 0.3612374974665864 0.257687387352673 0 0.3642778782640547 0.2696926125496696 0 0.3792040822813497 0.2850885279737444 0 0.3822753180985377 0.2970852580302586 0 0.3853476299937316 0.3090610372978553 0 0.3884171357802895 0.3210719784723315 0 0.4034203629783365 0.3364415328810791 0 0.4065207857256761 0.3483687400772718 0 0.4096313379881099 0.3603118996951326 0 0.4127958550667418 0.3722594081799901 0 0.4158781868928599 0.3842475632532145 0 0.4188335199246307 0.3963241993988409 0 0.4218845640680789 0.4083243105992934 0 0.4368641901570077 0.4236920915565481 0 0.4399439335523888 0.4357001808473888 0 0.443034523836171 0.4477087255492916 0 0.4462395575629235 0.4596883412181428 0 0.4493878178638597 0.471677954525346 0 0.4524475689555259 0.4837084424053542 0 0.4674574058384841 0.4990869634106426 0 0.4705094927196659 0.5111265172719079 0 0.5006727917130325 0.5418876134666173 0 0.5279917371428138 0.605503410189523 0 0.5585297967094619 0.6812168504557251 0 0.5616202581899533 0.6932837191353332 0 0.5890924411803019 0.7570016733379588 0 0.623458839849847 0.8450058319961824 0 0.654576729047147 0.9204355367968998 0 0.6794254627178354 0.9719371113311448 0 0.4856124788168207 0.5265035004932194 0 0.3071883371853999 0.1205625377025096 0 0.3145893475119214 0.1289304509525523 0 0.3228746167247789 0.1650747917797787 0 0.3295915632006124 0.172185918659769 0 0.3673021221753873 0.2816793015183761 0 0.3914918467375459 0.3330585705813732 0 0.4250113031091575 0.4203121035298674 0 0.455483672060248 0.4957411112533259 0 0.4735931153697323 0.5231695042610776 0 0.4886922060670483 0.5385450203517221 0 0.5037566902099131 0.5539303127203929 0 0.5068408269174585 0.5659724939978084 0 0.5099231331582154 0.5780165446866139 0 0.5129818306323934 0.5900697407327828 0 0.5160360663841309 0.6021331862611088 0 0.531070395996794 0.6175611119567257 0 0.5341577308974756 0.629618933154432 0 0.5372466860368145 0.6416770096858041 0 0.5403363529185797 0.6537361935384552 0 0.5434413529304293 0.6657964752260418 0 0.5465332291256354 0.6778609407086759 0 0.5647115027147608 0.7053513943907037 0 0.5678085890916511 0.7174193935164475 0 0.5709021381686441 0.7294913694624905 0 0.5739943795379109 0.7415661386047032 0 0.5770866904347965 0.7536422348625378 0 0.5921869697100034 0.7690798874257276 0 0.5952737573439522 0.7811546051855833 0 0.598362286608019 0.7931652971390238 0 0.601713664567488 0.8052632681267575 0 0.6049925069990649 0.8172543712729957 0 0.6082912960343748 0.8293026754797759 0 0.6267344153783327 0.8567927592947401 0 0.6115077397221912 0.8413571078936588 0 0.6298548562754263 0.8687683550922871 0 0.6330587006678079 0.8808385302911317 0 0.6362485201586172 0.8929033768693119 0 0.6394378663852668 0.9049967382886721 0 0.6425438416204854 0.9170716245834802 0 0.657677089928568 0.9325372818341601 0 0.6607796093946736 0.9446398620632435 0 0.663930797605765 0.9565700005189594 0 0.6679803054884004 0.9686725809969741 0 0.6812153997724586 0.9832878687856197 0 0.68750000000078 1 0 0.311071131208661 0.1415108918690127 0 0.3160044066775147 0.1542570466910597 0 0.3309193269580449 0.1823302775459553 0 0.3339970053423446 0.1943088823244151 0 0.3370428570331164 0.2062813142532581 0 0.3400818754298 0.21826181411526 0 0.343192916752493 0.230234868927092 0 0.346240435121306 0.2423147074290488 0 0.349305184679453 0.254331780794627 0 0.3523995770857621 0.266335686893112 0 0.3554541162935291 0.278321735537332 0 0.3703797136731639 0.2936709701370899 0 0.3734436059279744 0.3056507639974472 0 0.376529327181676 0.3176485798865956 0 0.3796015274047309 0.3296412070358039 0 0.3945888766851592 0.3449924069819391 0 0.3977097835634705 0.3569640927302151 0 0.400828806570356 0.3689350480827976 0 0.4039414555417251 0.3809092163617205 0 0.4069862307931887 0.392922720410902 0 0.4100767810471408 0.4049279597704079 0 0.4131279812010014 0.4169449607471863 0 0.4281689524103701 0.4322931648485308 0 0.4312751158808106 0.4443006256514322 0 0.4343044127816731 0.4563329053521459 0 0.4374358843467251 0.4683349613984656 0 0.4405028532582483 0.4803561916586062 0 0.4435218446338408 0.4923933182747972 0 0.4585315061345966 0.5077897128803089 0 0.4616171856561968 0.5198236826475384 0 0.4917759969270875 0.5505823136685097 0 0.5190960887950105 0.6142039163046213 0 0.549624411466918 0.6899268340025004 0 0.5527151796627883 0.7019944569944645 0 0.5801796109718329 0.7657193156807801 0 0.6147094958828527 0.8534039256521793 0 0.6456448638187509 0.9291730928860243 0 0.6724032072233965 0.9794295958440384 0 0.6813073679283482 0.9930080947649311 0 0.4767227366778721 0.5352050583647077 0 0.3024655446074751 0.1319643676349927 0 0.3184231737716194 0.1769942609694357 0 0.3104912237190168 0.1649782148076733 0 0.358552488654351 0.2903024266357398 0 0.3826606618395823 0.3416212301203162 0 0.4162413365781275 0.4289476722741113 0 0.4465703964673918 0.504441290283014 0 0.4647106715864383 0.53185915364849 0 0.4797863357159776 0.5472421129000755 0 0.4948617599970909 0.562623176943577 0 0.4979486499227906 0.5746672485532341 0 0.5010302646833591 0.586709023799701 0 0.504083171370731 0.5987595981983399 0 0.5071351775082673 0.6108340899984666 0 0.5221717520497484 0.6262628264181263 0 0.5252591764109442 0.6383219223469163 0 0.5283483597806196 0.6503817683762281 0 0.5314424269642708 0.6624426463062452 0 0.5345363329897465 0.6745049044558966 0 0.5376286781331597 0.6865698197039563 0 0.5558074535821048 0.7140629782702239 0 0.5589001376179572 0.7261335978871277 0 0.5619919514769346 0.7382068519353751 0 0.5650837565422954 0.7502814171667548 0 0.5681729568159691 0.7623589599310352 0 0.5832721350184895 0.7777996411597298 0 0.586365123384317 0.7898797088483276 0 0.5896448842174604 0.8017987504918966 0 0.5930087971908895 0.8138643633835115 0 0.5964522105376072 0.8259143410161812 0 0.5995954675252487 0.8378818116210824 0 0.6178365718831644 0.8653929249324863 0 0.6027153227708563 0.8499469129199109 0 0.621009731915908 0.8774373534950484 0 0.6242204810331643 0.8895240430132154 0 0.6274038246345902 0.9016377355577317 0 0.6305118252542972 0.9137082596793121 0 0.6336127185984843 0.9258090601094349 0 0.6487471655824717 0.9412752566997371 0 0.6518578263509093 0.9533497343044017 0 0.655231977448207 0.9675699887799472 0 0.6625000000018206 0.9783496902686156 0 0.6702948582375537 0.9892929631066384 0 0.6750000000008667 1 0 0.304079916822719 0.1535066673643858 0 0.2973197266072447 0.1431816334946395 0 0.3216936668564873 0.1904297016588897 0 0.3250923256061476 0.2028515201971935 0 0.3282009407433298 0.2148980007535943 0 0.3312834840181773 0.226880803921597 0 0.334330914413574 0.2388764980309923 0 0.3373661942157677 0.2509062291068837 0 0.3404715823611557 0.2629796060715608 0 0.34356594906416 0.2749871706504248 0 0.3466211845650933 0.2869744633994789 0 0.3616228994800476 0.302285031979673 0 0.3646995429220106 0.3142690025950144 0 0.3677712373278896 0.3262571806167247 0 0.3708490739307623 0.3382467076075616 0 0.3857823291679373 0.3535990255024318 0 0.3889065652435847 0.365577436041718 0 0.3920038468267832 0.3775733682484611 0 0.3950832558280531 0.3895691857422967 0 0.3981581225157499 0.4015827315306793 0 0.4011819746089183 0.4136057253941681 0 0.4042448132809144 0.4256205655916913 0 0.4193178375534924 0.4409624310106378 0 0.4223964938198155 0.4529786140225195 0 0.4254857315318966 0.4649938336302357 0 0.4285590849883319 0.4770064407306123 0 0.4316067632409134 0.4890184360591024 0 0.4346428906041525 0.501066648052421 0 0.4496453554100746 0.5164766684359079 0 0.4527325381156591 0.5285111861350604 0 0.4828808642528424 0.5592760622391226 0 0.5101979361064725 0.6229050759576017 0 0.5407189278062866 0.698636876087851 0 0.543808848096869 0.7107054870126126 0 0.5712643784359683 0.7744383216690536 0 0.6058190646881378 0.8620173249991443 0 0.6367148920928102 0.9379105905096778 0 0.4678084493951092 0.54389494235104 0 0.3039213344860021 0.1761132322774723 0 0.2981274775881384 0.1647692321046201 0 0.3092642110587833 0.1876834912910777 0 0.3496855141542211 0.2989579851004966 0 0.3738901453347122 0.3502504876453226 0 0.4073274938365761 0.4376323719695743 0 0.4376940460805686 0.513125813194649 0 0.4558174092832594 0.5405477269153034 0 0.4708989581016364 0.5559297448078691 0 0.4859675317524533 0.5713106304823949 0 0.4890579050400845 0.5833612770142385 0 0.4921385483575565 0.5954032792199181 0 0.4951969526565897 0.6074511217367845 0 0.4982595083372482 0.6195165980279486 0 0.5132757140391623 0.6349668116362126 0 0.5163602242399051 0.6470266522923296 0 0.5194503835095734 0.6590873424700942 0 0.5225417796566769 0.6711491937707558 0 0.5256336692563367 0.6832132118553029 0 0.5287236361703165 0.6952789082510528 0 0.5468991058234411 0.722775863177701 0 0.5499908002721197 0.734847660008105 0 0.5530825578381596 0.74692124662784 0 0.5561740934162858 0.7589963557583308 0 0.5592667902551038 0.7710711691503337 0 0.5743563816319437 0.786518961613566 0 0.5774503452469277 0.798601156172797 0 0.5807716771838494 0.8105459794036768 0 0.5843877535988969 0.8224603053348325 0 0.5875722803765111 0.8345331666861769 0 0.5906948251801902 0.846588084862065 0 0.608990544971975 0.8740655136934277 0 0.5937979795630607 0.8586581828912432 0 0.6121629870253946 0.8861535211371288 0 0.6153723963827789 0.8982546122449482 0 0.618477710235098 0.9103502474876148 0 0.6215810281250205 0.922446186395467 0 0.6246828598467655 0.9345462294845462 0 0.6398171588574516 0.9500134199533999 0 0.6429196508439975 0.962117178270423 0 0.6529521297958631 0.97985378140973 0 0.6562500813569366 0.9891747294236456 0 0.6625000000009533 1 0 0.2917580800888471 0.1541986468905285 0 0.313342859156918 0.1996724184216024 0 0.3163296289587401 0.2115753189862587 0 0.319399671428851 0.2235513472935395 0 0.3224597970490077 0.235531568287136 0 0.3255101815555121 0.2475388256290018 0 0.3285810379246963 0.2596391784938236 0 0.3316649232284054 0.2716619514284795 0 0.3346204760591835 0.2836614979568318 0 0.3376666316745609 0.2956475261033008 0 0.3527792221444294 0.3109369068324869 0 0.3558522749498201 0.3229237431790606 0 0.3589254252976328 0.3349131399208736 0 0.3619986601592667 0.3469052079185639 0 0.3770007732931699 0.3622354476736899 0 0.3800760872820668 0.3742346121747959 0 0.3831444817601187 0.3862240319092987 0 0.3861958590961804 0.39821333771551 0 0.3892423345059267 0.4102459991917554 0 0.3921809478592843 0.4222899940455163 0 0.3952806965277335 0.4343003335439052 0 0.4104050620251711 0.4496477267977427 0 0.4135282217825863 0.4616533801987753 0 0.4166153536308255 0.4736704945139887 0 0.4196959074554775 0.4856910504446827 0 0.4227318732924847 0.497700401432883 0 0.4257818739507591 0.5097589602282709 0 0.4407648528688637 0.525163286380069 0 0.4438506453602385 0.5371998718313703 0 0.4739919539462972 0.5679659061888729 0 0.5013262793377318 0.6315915959899272 0 0.5318236225645786 0.7073439821869704 0 0.5349080513435825 0.7194151544808653 0 0.5623544981558475 0.7831536514180244 0 0.5969461174616343 0.8707023149168434 0 0.6277849391169747 0.9466481765063461 0 0.6448685935481114 0.9745573917402875 0 0.4589131523390096 0.5525831181671146 0 0.2916691790705997 0.1762105552680299 0 0.2969550259185651 0.1867160549049343 0 0.2857883835103762 0.164999999547049 0 0.3015918288762192 0.1971872483692024 0 0.3408351814933899 0.3076103757742508 0 0.3650726733255841 0.3588998024758159 0 0.3983583606841668 0.4463113742963261 0 0.4288128241041405 0.5218133953028121 0 0.4469356596480553 0.5492371154319678 0 0.4620188413097542 0.5646144600650671 0 0.4770785920433026 0.5800099861521382 0 0.4801670664208118 0.5920571210068239 0 0.4832474720128959 0.6040994501924128 0 0.4863170122302413 0.616147017955846 0 0.4893832818332379 0.6282176746062937 0 0.5043833603822656 0.6436693325557254 0 0.5074609888697915 0.6557324144195551 0 0.510553012325029 0.667792540371917 0 0.5136398235756559 0.6798565660373214 0 0.5167292937173006 0.6919212910475215 0 0.5198285846321302 0.7039822740597408 0 0.5379897849632621 0.7314887262019193 0 0.5410815349944518 0.7435616995099277 0 0.5441732240212619 0.7556355663876999 0 0.5472652750249246 0.7677097752863222 0 0.5503563871732942 0.7797901181094213 0 0.5654421994666761 0.795239031184412 0 0.5685558084559498 0.8072449894492524 0 0.5720812503371357 0.8191918232355283 0 0.5754727129728606 0.8311372100005805 0 0.5786753249804162 0.8432263344484719 0 0.5817729965335159 0.8553169911960534 0 0.6001350587447283 0.8827953867462175 0 0.5849066121260549 0.8673505392954082 0 0.6033177523053449 0.8948929031451787 0 0.6064382091470054 0.9069839088657066 0 0.6095496596808975 0.9190813233542351 0 0.6126513951345803 0.9311819982576598 0 0.6157534454150325 0.9432830922166636 0 0.630886473826847 0.9587516006632602 0 0.6340471249808106 0.9703909001741244 0 0.6443771280349312 0.9877715558425445 0 0.6500000000010401 1 0 0.3046047180165107 0.2084268259242228 0 0.3075262680569979 0.2202477707185323 0 0.3105629837717541 0.2321876262637 0 0.3136279944012635 0.244342342921869 0 0.3166936145614585 0.2562973634138388 0 0.3197622467548156 0.2683193330139018 0 0.3227485329313181 0.2803207118672246 0 0.3253693714027611 0.2923979382735971 0 0.3288194597112147 0.3043081866634383 0 0.3439308151255768 0.3195901754221429 0 0.3470036000344843 0.3315785248456872 0 0.3500741211569665 0.3435698319055018 0 0.3531470159342915 0.355563187306399 0 0.3681472686849629 0.3708969208629996 0 0.3712126857958181 0.382886253463054 0 0.3742818829758474 0.3948382615244612 0 0.3772972529936695 0.4068041994512608 0 0.3802865140467738 0.4188398213742567 0 0.3832172040493557 0.430938066145491 0 0.3862882862025653 0.4429658425170653 0 0.4014522850572624 0.4583317530129463 0 0.4046705329374651 0.4703248446720586 0 0.4077448539636728 0.4823465243910681 0 0.4108159206011925 0.4943618285781995 0 0.4138480413834569 0.5063868124183157 0 0.4168813241412981 0.518447239910578 0 0.4318832640125757 0.5338527424353667 0 0.4349695086893446 0.5458892459904159 0 0.4651016566720217 0.5766607607932039 0 0.492446421483085 0.6402797280083929 0 0.522963646241532 0.7160408427089002 0 0.5260386215883539 0.7281168253411839 0 0.5534449415781035 0.7918735142283344 0 0.5881094526591902 0.8794293541414598 0 0.6197521451354187 0.9554938851678829 0 0.6361589229862311 0.9802674819396361 0 0.4500205315851711 0.5612746743996552 0 0.2794189860412988 0.1755705847790355 0 0.2838596616944994 0.1880552963649564 0 0.2913291558625523 0.1954365340868372 0 0.2929340619183439 0.2054594997823487 0 0.3318523518437242 0.3163483164342789 0 0.3562202587947779 0.3675590802724618 0 0.3893963404556927 0.4549902179367227 0 0.4199342462712548 0.5305024130226652 0 0.438053152367903 0.557927374459722 0 0.4531255066844324 0.5733131103502254 0 0.4681882695388344 0.588706157544158 0 0.471275362089585 0.6007532752371475 0 0.4743619530274635 0.6128025433029229 0 0.4774338440760248 0.6248461245626633 0 0.4805099764744434 0.6369022565352995 0 0.4955005279039406 0.6523595930107894 0 0.4985590109484275 0.6644375846072857 0 0.5016672431165202 0.6764922643064017 0 0.5047788663496094 0.688535241520418 0 0.5078725388111131 0.7005964488115235 0 0.5110103643140708 0.7126601588346345 0 0.5290795557853368 0.7402023853733263 0 0.5321715942025778 0.7522762865945076 0 0.5352643789174555 0.7643513192685636 0 0.5383560197859507 0.7764265655345322 0 0.5414507982398354 0.7885060330389823 0 0.5565936879909441 0.8039055050284994 0 0.5599816807472273 0.8158742258023559 0 0.563317869064031 0.827888229422472 0 0.5666605279869832 0.8398912236769398 0 0.5697547391095079 0.8519607093394909 0 0.5728541414043961 0.8640340332698668 0 0.5912834980448317 0.8915287134432666 0 0.5760444758244072 0.8760723515845745 0 0.5944078636039045 0.9036220677765866 0 0.5975156122844175 0.9157192739875732 0 0.6006201077425576 0.9278179095016027 0 0.6037227168313531 0.9399182835804197 0 0.6074340256211297 0.9537354350890782 0 0.6225630298513827 0.9674916433105245 0 0.6262520244497589 0.9789321089637567 0 0.6375000000011268 1 0 0.6312497439175435 0.9896854529774669 0 0.2956351893099427 0.2169257704175231 0 0.2986661036722454 0.228856506753957 0 0.301763017610709 0.240901942147616 0 0.3048045807024916 0.2529930516438757 0 0.3078630494683251 0.2649938853270081 0 0.3109274506949464 0.2769716255031967 0 0.3133141186269384 0.2890986202669902 0 0.3164916301579875 0.3010694757145403 0 0.3198687827664152 0.313060481361642 0 0.3349915862781772 0.3283186358557673 0 0.3381480323204608 0.3402615019009013 0 0.3412208863485183 0.3522286911316997 0 0.3442940900199614 0.3642215733325993 0 0.3592918806335961 0.3795547486644315 0 0.3623626077018521 0.3915174493156362 0 0.3653820729212343 0.4035197283230469 0 0.3684145662820218 0.4154864850692015 0 0.3714479648715118 0.4274775642593765 0 0.3743898322389452 0.4395579476481131 0 0.3773748534169846 0.4516402458049743 0 0.3925154967745795 0.4670049852833829 0 0.395792885650997 0.4790008957419656 0 0.3988696692947863 0.491023314094895 0 0.4019402865443425 0.503038756548435 0 0.4049776658874438 0.515062817308287 0 0.4080118204709165 0.5271261203990392 0 0.4230040601424458 0.5425413141621986 0 0.4260856679751826 0.5545784832796229 0 0.4562118378692968 0.5853565877862204 0 0.4835760722877462 0.6489712303421815 0 0.5140751643453845 0.7247679672223741 0 0.5170989443526797 0.7368644697426573 0 0.5447647416527969 0.8005624574144119 0 0.5792471259556987 0.8881497280855357 0 0.6138788996653237 0.9633391418225509 0 0.4411383130954173 0.5699672297533602 0 0.2726587958581848 0.1858956186712444 0 0.2825815703552452 0.2007141903717727 0 0.2833563168043035 0.2131470026600307 0 0.3226682856875716 0.3252020435284321 0 0.3473666255935003 0.3762185767930313 0 0.3804563852445138 0.4636563917323213 0 0.4110503016020181 0.5391906334991421 0 0.4291697891771133 0.5666180575315051 0 0.444236210502596 0.5820066312362024 0 0.4592989443437623 0.5974029023622009 0 0.4623849672059537 0.6094513500578146 0 0.4654715475511863 0.6215014093893645 0 0.4685588829886277 0.6335528336634819 0 0.4716395226373374 0.6455965912221902 0 0.4866504765683323 0.6610257146084857 0 0.4897440765337905 0.673051938131303 0 0.4929150645572227 0.6851290875910279 0 0.4960803373099897 0.6971488217678566 0 0.4991537239824571 0.7092658640343351 0 0.5021578461698588 0.7214204497923842 0 0.5201688214423005 0.7489164476716017 0 0.5232604533331306 0.7609912467142155 0 0.5263520518017889 0.7730674763383868 0 0.5295002400517438 0.7851094456593334 0 0.5328247611750468 0.7972186512283115 0 0.5480376687823134 0.8125672794597035 0 0.5513158339080833 0.8245469006781617 0 0.5546213746398202 0.8366030593307144 0 0.5577338387577551 0.8486096258251409 0 0.5608365804880615 0.8606712288558467 0 0.5639728737875603 0.8726874860538469 0 0.5823866903629793 0.9002581005681392 0 0.5671766490135434 0.8847829686613293 0 0.5854877244627662 0.9123561254996246 0 0.5885901090693749 0.9244543089276842 0 0.5916927047173093 0.9365537002748594 0 0.5950088684862291 0.9485355928337468 0 0.6045226975153472 0.9662098530315518 0 0.6132734604093703 0.9762568819155334 0 0.6188787875383215 0.9890227298485439 0 0.6250000000012135 1 0 0.2748961207998834 0.1951828406377277 0 0.286593942403615 0.2253799341899861 0 0.2898465272011634 0.2376241186248485 0 0.2929057411034833 0.249665337366045 0 0.2959637588070677 0.2616654756267618 0 0.2990274876080953 0.2736419211851068 0 0.3014004739765709 0.2857733415903789 0 0.3044981509868083 0.2977507646625157 0 0.3076607030602351 0.3097352820116137 0 0.3107153878468287 0.3217517806802997 0 0.3261582010234144 0.3369866608375442 0 0.3292952296856538 0.3488981581714549 0 0.332368448124135 0.3608839321267166 0 0.3354401015802833 0.3728806895734028 0 0.3504362885799702 0.388215887972387 0 0.3535066737207182 0.4002096300341679 0 0.3564294538532967 0.4122623445435539 0 0.3595478014194334 0.4241506834947537 0 0.3625895416132264 0.4361312006746888 0 0.3655142284564157 0.4482319416329932 0 0.3685084591317598 0.4603155476005834 0 0.3835949012040505 0.4756728269627739 0 0.3868353629526546 0.487677089484683 0 0.3899945284039733 0.4997016768219603 0 0.3930656126582698 0.511718450416086 0 0.3960933482837316 0.523749185280548 0 0.3991340366397532 0.5358044333730149 0 0.4141194845970327 0.5512304156416117 0 0.4172022086937514 0.563268680516032 0 0.4473220784452064 0.5940525268047832 0 0.4747225803668572 0.6576528896526619 0 0.505181563405812 0.7335050569144844 0 0.5081526668537482 0.7456059257746077 0 0.5361681446340814 0.8092724303017022 0 0.5703564826745544 0.8968913521217958 0 0.5977465185775614 0.9587484105091575 0 0.4322548755534148 0.5786585392815216 0 0.2655172677025657 0.1959606607249631 0 0.2714709362622926 0.2070705915864445 0 0.2740671542934722 0.2215133495481991 0 0.3137876423852733 0.3337089731293175 0 0.3385125890708008 0.384878845090861 0 0.3715872467731117 0.4723306656332109 0 0.4021539475533382 0.5478823236392747 0 0.4202855525457764 0.5753090103781844 0 0.435344625506003 0.5907023534891989 0 0.4504076424257403 0.6060996228594064 0 0.453493084645788 0.6181486639257836 0 0.4565788040906411 0.630199608460409 0 0.4596749822458635 0.6422158223786562 0 0.4627912507486709 0.6542442525483791 0 0.4778005913692318 0.6696810519066935 0 0.4810278145547681 0.6817688604385836 0 0.4842492833361701 0.693833116134164 0 0.4874721307299891 0.7057581978161227 0 0.4903291265597212 0.7180111071834903 0 0.4932438877193226 0.7301904467097873 0 0.5112577294271237 0.7576309557694676 0 0.5144009462891046 0.769620642438712 0 0.5176344163035675 0.7816897238810965 0 0.520910091062288 0.7937904027115286 0 0.5242569382457564 0.8059730402894902 0 0.5394019237607479 0.8212421575330902 0 0.54260281268882 0.8332200835014791 0 0.5457177273391622 0.8452417485255942 0 0.548817449487753 0.8573168332806602 0 0.5519746774034622 0.8693555792406268 0 0.5551875491743107 0.8814371994921364 0 0.5734611402686838 0.9089920238745244 0 0.5583311342464907 0.8935309057123617 0 0.5765619984563386 0.9210904967663468 0 0.5796633138147527 0.9331897449781723 0 0.5827647101396898 0.9452895680784268 0 0.5863625729921547 0.9585750342197389 0 0.593751885208647 0.9675271251415807 0 0.6000130667620793 0.9783583961974904 0 0.6062495671530903 0.9891748764461591 0 0.6125000000013001 1 0 0.277741230344914 0.2340829546186155 0 0.2810083614865655 0.2463284895797285 0 0.2840650724028005 0.2583431676998251 0 0.2869991964792871 0.2703166381016593 0 0.2894955935836931 0.2824463991435288 0 0.2925673439799762 0.2944203374662102 0 0.2956591052074403 0.3064000792475183 0 0.2987117162946678 0.3183808923581722 0 0.3017864777885913 0.3303649460198487 0 0.3172257100649792 0.3455968425707356 0 0.3203522209974454 0.3575693796956746 0 0.3235147157069525 0.3695414452643382 0 0.3265854861735925 0.3815398485539783 0 0.3415746880191486 0.3968818996016182 0 0.3446179016921308 0.4088926012278405 0 0.3476991066632004 0.4208959171871467 0 0.3508134062698307 0.4328934390451656 0 0.3536983004288171 0.4448275593473534 0 0.3566162086132919 0.4569331901041966 0 0.3596402300025792 0.4689903862249772 0 0.3746854252039644 0.484343833408506 0 0.3778920514061468 0.496308911998372 0 0.3810846957871108 0.5083462419321237 0 0.384183866545698 0.5203925878371536 0 0.3872215359256955 0.5324150512792223 0 0.390246872067432 0.5444882627734169 0 0.4052361171369161 0.5599188823466451 0 0.4083186699401585 0.571957634129818 0 0.4384304835371009 0.602748091141156 0 0.4659016072989592 0.6663149706580704 0 0.4961483893705275 0.7422561315395113 0 0.4992535575961171 0.7542787162388347 0 0.5274629034200863 0.8178367176297712 0 0.5614339645270048 0.9056285031583495 0 0.4233694622016538 0.5873519325004996 0 0.2580043896320641 0.2057516340897104 0 0.2622086567221328 0.2175957452666126 0 0.2658330666849557 0.2306570955977502 0 0.3049519251473083 0.3423339039850285 0 0.3295851209998728 0.393558691851593 0 0.3627077543410038 0.4809958631200933 0 0.3932862258637856 0.556565552281461 0 0.4113994275340092 0.5839999225550129 0 0.4264546427960465 0.599396399971031 0 0.441515710503337 0.6147957482781328 0 0.4446018337984725 0.6268405521818706 0 0.4476891630378557 0.6388770687917814 0 0.4508541105029718 0.6508006196585341 0 0.4540320936027714 0.6628900448343044 0 0.4690858693576125 0.678335348707779 0 0.4722806107185918 0.6904259163843 0 0.4754937100560298 0.7024427622983465 0 0.4785440081407766 0.7144611938664441 0 0.4811883585243197 0.7266827513078877 0 0.4841669941943632 0.7388292399787543 0 0.5023462596963079 0.7663450097513556 0 0.5056980074893928 0.7783081920974554 0 0.5089697965237756 0.7903179451809057 0 0.5122743940738381 0.8024336100300336 0 0.5154566392353381 0.8144406957580351 0 0.5306094604971759 0.8297814426593125 0 0.5337060074297452 0.8418669781248944 0 0.5368022316790291 0.8539526669671854 0 0.53993538469994 0.8659724052690455 0 0.5431148247333855 0.8780649363657483 0 0.546275381343758 0.8901683024744265 0 0.5645336301244275 0.9177265035509735 0 0.549397462605286 0.9022654422337886 0 0.5676344736037862 0.9298253542945965 0 0.5707352913534456 0.941925137684586 0 0.5736314227739819 0.9540882184750213 0 0.5848786202960882 0.9698155243102005 0 0.5879033988659198 0.9785831691685858 0 0.5938289164639827 0.989220680326061 0 0.6000000000013869 1 0 0.2690983299997124 0.2429947401711807 0 0.2721719098792275 0.2549760922011677 0 0.2751738385357251 0.2669245693217747 0 0.2779533337662229 0.2788968796434557 0 0.2806385085789813 0.2911020807494931 0 0.2837271571400677 0.3030768490976871 0 0.2867949076855086 0.315057992038909 0 0.2898648215370359 0.3270361297364368 0 0.2929402338335874 0.3390186374016527 0 0.3081370985762709 0.3543022673900119 0 0.3115398442802502 0.3662142567964566 0 0.3145159845841036 0.3782315991960914 0 0.3174736919625597 0.3902567708109615 0 0.3326434337861437 0.4055640988608044 0 0.3357818794243277 0.4175496538910819 0 0.3387957623462158 0.4295660871612981 0 0.3417792222663217 0.4415730850434237 0 0.3446291592226366 0.4536410605559918 0 0.3476998750354678 0.465650883846555 0 0.3507751410517431 0.4776707875919863 0 0.3658505350154645 0.4929874041710165 0 0.3689972190664506 0.504945431190582 0 0.3722017067232893 0.5170199135625624 0 0.3753176401900821 0.529083876489174 0 0.3783462121759377 0.5411052592816143 0 0.3813706975336651 0.5531792811531211 0 0.3963551035940834 0.568605861132443 0 0.3994355989303083 0.5806466430121613 0 0.4295395749388575 0.6114430150827737 0 0.4571938857424811 0.6749876783887482 0 0.487251938538624 0.7509215307986383 0 0.4903557455867117 0.7629448830346648 0 0.5185951606669565 0.8264210009595161 0 0.5525037695077453 0.914362744928009 0 0.5757039270615452 0.9665072520312089 0 0.4144819176816548 0.5960447034482756 0 0.2501306691081946 0.2152548451754033 0 0.2539881960260558 0.2269777280165415 0 0.2571371644178809 0.2396080536673767 0 0.2960182256282405 0.3510072051868756 0 0.320554346621517 0.4022559604836525 0 0.3538425910659054 0.4896763314485884 0 0.3844055714658958 0.5652518954676098 0 0.4025155477523922 0.5926909242864487 0 0.4175644852178906 0.6080905849107869 0 0.4326241667256082 0.6234895472373954 0 0.4357235848330708 0.6355088139672693 0 0.4389059206821944 0.6474868542964722 0 0.4421662365481566 0.6594830631363368 0 0.4453616811211623 0.6715429756923896 0 0.4603455116341136 0.6870728760757668 0 0.4634977222215313 0.6990651784433944 0 0.4665433924686136 0.7111106532238889 0 0.469133430250513 0.7233823386104844 0 0.4721712840934209 0.7354574102713194 0 0.4752550764823667 0.7475506446552453 0 0.4936045807225415 0.7747332754859289 0 0.4970202667635708 0.7868525052705154 0 0.5003228755319067 0.7989756675549639 0 0.5034853883825101 0.8109785323650895 0 0.5065820926488461 0.8230606941632435 0 0.5216916184070673 0.8385054535212249 0 0.5247872227684868 0.8505915523098911 0 0.5279203115455372 0.8626123674944752 0 0.5310962605138352 0.8747038916270438 0 0.5342466884310492 0.8868072970244412 0 0.5373616404159047 0.8989024860631041 0 0.5556056784752433 0.9264610557997869 0 0.5404717862775346 0.9109984476740054 0 0.5587065082643163 0.9385605268251132 0 0.5618073995307529 0.9506612113519809 0 0.5649109450602765 0.9627574883484319 0 0.5774633375147125 0.9788221716318002 0 0.5817235934301203 0.9894482542651266 0 0.5875000000014736 1 0 0.2602465035615589 0.2516631555975715 0 0.2633020095412496 0.2635448369817111 0 0.2661194306336355 0.2756076318793577 0 0.2688703874485397 0.287629784778994 0 0.2718231033440582 0.2997334332800392 0 0.2748860153487954 0.3117328123311061 0 0.277939135292996 0.3237136118261317 0 0.2810244995014612 0.335684841188711 0 0.2840930104194531 0.3476738497186026 0 0.2991385142861288 0.362982826244811 0 0.3025388278181751 0.3749028389958287 0 0.3054643573361855 0.3869335460831373 0 0.3084262435822089 0.3989580315073452 0 0.3236419126665847 0.4142543510187985 0 0.3267843346482264 0.4262382145602954 0 0.3296842289795999 0.4382773767545701 0 0.3327326498500511 0.4502978237732314 0 0.3357561913773598 0.4623187083300036 0 0.3388269814370238 0.4743314643656496 0 0.3419073637345291 0.4863484815387396 0 0.3569781690093164 0.5016540538599576 0 0.3601932679397488 0.5136802591461898 0 0.3633597530139372 0.5257369265316439 0 0.3664360905014348 0.537761565868494 0 0.3694572480101926 0.5497974243844032 0 0.372482055618747 0.561867292730222 0 0.3874724533774064 0.5772931798343071 0 0.3905523913838002 0.5893323361349389 0 0.4206488712867987 0.6201362937657736 0 0.4484015195406899 0.6836556582467204 0 0.4783593669076508 0.7595500907340363 0 0.4815926967865345 0.7713588182136187 0 0.5096782608396262 0.8351441681978851 0 0.5435774233725703 0.9230967247471282 0 0.5672890421067858 0.9754926867235056 0 0.4055923598452419 0.6047381071697304 0 0.2419071182199534 0.2244570029081684 0 0.2451916404167812 0.2363674663831915 0 0.248214686374256 0.2484713845592809 0 0.2871667884567639 0.3596609899093189 0 0.3115556767317326 0.4109438188524129 0 0.3449860563354402 0.4983654475343227 0 0.3755062253826287 0.5739436865043818 0 0.3936181297502448 0.6013858705376985 0 0.4086745749321166 0.6167841633734822 0 0.4237505882524513 0.6321711717684365 0 0.4269122450539158 0.6441645823513553 0 0.4301130193591975 0.6561564835772354 0 0.433376108670405 0.6681924931573916 0 0.436464226826254 0.6802489464052842 0 0.4515293856647898 0.695693405601759 0 0.4544842207754978 0.7077285183695445 0 0.4573798795904401 0.7199291039467314 0 0.4602055359643806 0.7321553463359369 0 0.4632579081076851 0.7441873191005085 0 0.4663451654485692 0.756244196137273 0 0.4850686676042427 0.7834291988259057 0 0.4883769836086875 0.7955396293213456 0 0.4914739762837715 0.8076194461857609 0 0.4945702044054121 0.8197005402575208 0 0.4976659327236462 0.8317831241283153 0 0.5127739861452664 0.8472278971069658 0 0.5159054004415708 0.8592520740620527 0 0.5190805519125982 0.8713433326489023 0 0.5222279065053685 0.8834463678269057 0 0.5253351539411166 0.8955400335959474 0 0.5284433698966844 0.9076353933760158 0 0.5466779563634342 0.9351954081585561 0 0.5315499748145855 0.9197322492848401 0 0.5497778483631917 0.9472957340291559 0 0.5528880472778532 0.9593614629653355 0 0.5562095650323979 0.9713007074097911 0 0.5684794501522841 0.9885065901613532 0 0.5750000000015603 1 0 0.2514096002815007 0.260450894121053 0 0.2543994329234237 0.2722847615457088 0 0.2570175815866519 0.2843649590045021 0 0.2598653799417232 0.2964447116829687 0 0.2629558710130966 0.3084065657141215 0 0.2660208167865677 0.3203874844948652 0 0.2690881621976894 0.3323642248393982 0 0.2721711096264977 0.3443440196001646 0 0.2752466055317585 0.3563294771850865 0 0.2903292197555238 0.3716322741940493 0 0.2934140984731067 0.3836218706587297 0 0.2964172975969591 0.3956301653298677 0 0.2995202811571228 0.4076178783965552 0 0.3146986653665907 0.4229307073945535 0 0.3177148528284117 0.4349460181976419 0 0.3207208701117048 0.4469687993619524 0 0.3238004537577345 0.4589798255940793 0 0.3268803202797405 0.4709923496459362 0 0.3299605805533713 0.4830073616492394 0 0.3330401866849471 0.4950234414432576 0 0.3480989439488823 0.5103788286761081 0 0.3513327555789261 0.5223766225264084 0 0.354466907881004 0.5344037465141221 0 0.3575543920568927 0.5464404803856835 0 0.3605790381761969 0.5584825361904564 0 0.363588426582971 0.5705529919192056 0 0.3785822511890086 0.5859834472777861 0 0.3816429101118392 0.598034254752978 0 0.411759672049453 0.6288300125733399 0 0.4395556047015345 0.6923071622755489 0 0.4695279666534062 0.768228959374068 0 0.4731385843771385 0.7801316868201714 0 0.5007609335406888 0.843867290609869 0 0.5346503068727717 0.9318301863721621 0 0.5593773644146212 0.9822265720391706 0 0.3967008944320867 0.6134320409059928 0 0.2333452383531068 0.2333452372300146 0 0.2362214882889525 0.2452223507903596 0 0.2391759543319037 0.2572882702749318 0 0.2783213260393348 0.368317214675848 0 0.3026200451892821 0.4196193949772407 0 0.3361317786970524 0.5070072628993698 0 0.3666339004065521 0.5826198392290691 0 0.3847260372871157 0.6100801223471879 0 0.3997843266984922 0.6254784840290596 0 0.4148485006113264 0.6408739182850333 0 0.4180354784809701 0.652872676202147 0 0.4213467116497361 0.6648535727428104 0 0.4244734783079006 0.6768986516035838 0 0.4275671278998506 0.6889535372536739 0 0.4426103700315719 0.7043303748626119 0 0.4455286583883225 0.7165289608944436 0 0.4484133853260651 0.7286739322756097 0 0.4513030505435058 0.7408753006187141 0 0.4543563881518023 0.752908703543799 0 0.4574352303337806 0.7649689643381052 0 0.4763734248734306 0.7921873225161109 0 0.479463219218587 0.8042603000228401 0 0.4825592022445703 0.8163408330830854 0 0.4856545900758952 0.8284223966927873 0 0.4887543138473571 0.8404880752097337 0 0.5038960453344143 0.8558995440276012 0 0.5070702573440344 0.867983984027621 0 0.5102171853289832 0.8800864732333588 0 0.5133158130216515 0.8921774613558233 0 0.5164167051086741 0.9042734580305565 0 0.5195220665685625 0.9163686758258327 0 0.5377501529229897 0.9439288953915916 0 0.5226238191475612 0.928463051958184 0 0.5408681214398532 0.955987549726304 0 0.5440740829976932 0.9679804808226266 0 0.548742434710855 0.9798574256148 0 0.5625000000016469 1 0 0.5560363506856066 0.9920566371798787 0 0.2422169880916465 0.2691879136743406 0 0.2451156880758524 0.2811166701905713 0 0.2479561722106957 0.2931458688902102 0 0.251034658402319 0.3050832828826733 0 0.2541052522551168 0.3170576696130769 0 0.2571766745284346 0.3290349215709854 0 0.2602481597089071 0.3410146264691182 0 0.2633262203997167 0.352997098200071 0 0.2664014433031215 0.3649842920326848 0 0.2813957634596337 0.3803079046797597 0 0.2844701805339068 0.3923008733074389 0 0.2875691556696774 0.4042809787996883 0 0.2906773730598169 0.4162802506209439 0 0.305713209186296 0.4316219913676696 0 0.3087806682706071 0.4436308122163984 0 0.3118592993332493 0.4556396249146566 0 0.3149384988699597 0.4676511672950433 0 0.3180163021631149 0.4796660991265776 0 0.3210936011211658 0.4916827186340142 0 0.3241662362264632 0.5036694585506712 0 0.3392150927534902 0.5190021719998269 0 0.3424170856299073 0.5309782863961733 0 0.3455852333898031 0.5430834400258442 0 0.3486854849349894 0.5551336745088818 0 0.3517027733805078 0.5671575003826956 0 0.3547358496015677 0.5792462425153077 0 0.3696655514477109 0.5946852689902603 0 0.3727502254576479 0.6067286194288174 0 0.4028697809936668 0.6375267518887094 0 0.4306567699412962 0.701013420944866 0 0.4606295246022953 0.7770246970995935 0 0.4642638362996576 0.7889279812266168 0 0.4918766129161745 0.8525328332769555 0 0.5257298514211106 0.9405595760271389 0 0.3878095978664007 0.6221261976954489 0 0.2244570040195787 0.2419071171887153 0 0.2270385378704457 0.2538434220059277 0 0.2298199425335947 0.2657731694032053 0 0.2694749543311742 0.3769737561826423 0 0.2937639970699165 0.4282865582345317 0 0.3272731829647305 0.515661532795715 0 0.3577115581665131 0.5913077558874421 0 0.3758344661044754 0.6187737507621919 0 0.3908933901879466 0.6341737309461347 0 0.405964967026918 0.6495447129651001 0 0.4092003028960738 0.6615524481252399 0 0.4124464629273173 0.6735411702352949 0 0.415580623164981 0.6856007250133778 0 0.4186698410046357 0.6976577499151587 0 0.4337040126385046 0.713031735743459 0 0.4365998222807268 0.725161803918857 0 0.439463365189015 0.7373930779389761 0 0.4423508014384158 0.7495425297969064 0 0.4454404481020749 0.76161307371336 0 0.4487132016036476 0.7736895358646509 0 0.4674607063809395 0.8009086755109541 0 0.4705489919566775 0.8129814345423416 0 0.4736442209566778 0.8250619455902162 0 0.4767393623795698 0.8371419135537777 0 0.4798653569944176 0.8492003644742178 0 0.4950440371721599 0.8646206228371813 0 0.4981963034258761 0.8767242886030238 0 0.5012950502317775 0.8888163490492738 0 0.5043953978969269 0.9009102805498734 0 0.5074958505346627 0.913005330746484 0 0.5105974036171786 0.9250989486152182 0 0.5288342845092886 0.9526510875087075 0 0.5137065918860726 0.9371928484174774 0 0.5319675528980956 0.9648337721820779 0 0.5352759977478486 0.9781910067134484 0 0.5434762194529896 0.9899287996109545 0 0.5500000000017335 1 0 0.2330494432803994 0.2778919967405646 0 0.2360545103622977 0.2898245212881021 0 0.2391334260522346 0.3017544202737364 0 0.242200881179143 0.3137278660839003 0 0.2452686604626108 0.3257043457271699 0 0.2483379363340973 0.3376837885188467 0 0.2514096197648432 0.3496658894546921 0 0.2544819946231532 0.3616508199906951 0 0.2575559146214926 0.3736394785433912 0 0.272549224766188 0.3889596048038045 0 0.2756355215378396 0.4009486559507552 0 0.2787344069863529 0.4129408450008659 0 0.2818286969560541 0.4249486584965266 0 0.2968419537628735 0.4402927769942673 0 0.2999198289057483 0.4523002312237657 0 0.3029985681428652 0.464309582601258 0 0.3060786915839986 0.4763225188085836 0 0.3091511229656206 0.4883389845672667 0 0.3122160023165964 0.5003481097306884 0 0.3153071119915813 0.5123284360943449 0 0.330420733935437 0.5276395485333603 0 0.3335853552214389 0.5397209849095443 0 0.3367018130696048 0.5517627716118256 0 0.3397965056839521 0.5638083434476301 0 0.3428030840902365 0.5758466881792919 0 0.3457763832969369 0.5879458139645547 0 0.3607795012412346 0.603371738606876 0 0.3638603798623387 0.6154209172563271 0 0.393977406225998 0.6462234709067833 0 0.4217508925918768 0.7097122555470123 0 0.4521757386028817 0.7857609727185024 0 0.4554331556745018 0.7976175219084625 0 0.4830283200013866 0.8612714287466496 0 0.5168136591875748 0.9492909312468065 0 0.3789178543678323 0.6308206936930469 0 0.2152548462634632 0.2501306681718434 0 0.2175462502058457 0.2620690659459903 0 0.2198924814213276 0.2743583477774773 0 0.2606276323763113 0.3856270054856987 0 0.2849042670032018 0.436954465784326 0 0.3183981441843591 0.5243223186967179 0 0.3488063824779696 0.6000248439206676 0 0.3669428015901327 0.6274673802866902 0 0.3820025782841637 0.6428639365540054 0 0.3970619261918489 0.6582746134106687 0 0.4003462710996527 0.6702279431954188 0 0.4035959812433577 0.6822505321856774 0 0.406682614066574 0.6943049838400408 0 0.4097693200304137 0.7063641455160733 0 0.4248029914565441 0.7217349725451451 0 0.4277238203680768 0.7338019569753667 0 0.4307044609139694 0.7459980502339332 0 0.4337710595995904 0.7580936780239347 0 0.4369403358304844 0.770240162772132 0 0.4402306429545496 0.7825065281143424 0 0.458539793827369 0.8096222340725592 0 0.4616348426591426 0.8217017329521311 0 0.4647301483117768 0.833779318160665 0 0.4678397803366372 0.8458541747762616 0 0.4709663353040568 0.8579351104662876 0 0.4861744093426151 0.8733614081361356 0 0.4892729907474112 0.8854533099340258 0 0.4923718497288753 0.8975469030698913 0 0.4954712469402301 0.9096417339619253 0 0.498571568623941 0.9217357927078069 0 0.5016814973265571 0.9338291892107973 0 0.519884634028853 0.9613536935249662 0 0.504801011138917 0.9459294481045446 0 0.5229341090564469 0.9729026147770001 0 0.5312044259248327 0.9900586961396255 0 0.5375000000018204 1 0 0.2235093982250119 0.2864357776525983 0 0.2272328148531241 0.2984315407279083 0 0.2302980129849448 0.3103994194305379 0 0.2333632983854768 0.3223728750651983 0 0.2364282257512153 0.3343514261690217 0 0.2394966507813801 0.3463327388198019 0 0.2425655893705378 0.3583172502825561 0 0.2456311899682191 0.3703013500159847 0 0.2487045750530402 0.382291410044918 0 0.2637084876677699 0.3976155324133003 0 0.266798393125615 0.4096077662995571 0 0.2698954881335182 0.4216089867236644 0 0.2729685607155473 0.4336162076532882 0 0.2879817628978435 0.4489615589473432 0 0.2910592295421822 0.4609700326300258 0 0.2941368363703661 0.4729798438119877 0 0.2972082275775993 0.4849969990668619 0 0.3002783188860443 0.497015349453326 0 0.3033449942151894 0.5090234388422319 0 0.3064331387737889 0.5210030615537269 0 0.32153913593753 0.5363457146199659 0 0.3246470647243495 0.5483949677165485 0 0.3278195608492502 0.560444834282902 0 0.3309111922099382 0.5724879747878729 0 0.333930027963334 0.5845214302500804 0 0.3369804664621446 0.5966059129485809 0 0.3518883848445342 0.612067862617159 0 0.3549821488305895 0.6241064579250065 0 0.3850921751973214 0.6548891195004154 0 0.4128499568563332 0.718417608137366 0 0.4434367226866761 0.7941859891255389 0 0.4465320078752049 0.8062633848232702 0 0.4741096168564814 0.8700088433847182 0 0.5079111887867426 0.9580329670966419 0 0.5249998407361925 0.9824626679157327 0 0.3700259067480084 0.6395147552279804 0 0.2057516351455188 0.258004388790085 0 0.2073765032796063 0.2701682111523761 0 0.2096562615908 0.2840904442321171 0 0.2517820258363174 0.3942847802492947 0 0.2760437772830518 0.4456227293991744 0 0.309531285494309 0.5330295559131613 0 0.3400522563645729 0.6086583283500613 0 0.3580628093380152 0.6361552127814296 0 0.3731159897688722 0.651538207098153 0 0.3882977148576678 0.6669262867656832 0 0.3915798407774149 0.6789405560508665 0 0.3946961495370648 0.6909621161791888 0 0.3977838485667226 0.7030127674979966 0 0.4008691983900703 0.7150715987060079 0 0.4158873862958557 0.7304379694144078 0 0.4189454298324594 0.7425308878151858 0 0.4220905394961336 0.7546292153625234 0 0.4252395180742169 0.7666867659749814 0 0.4282471446488268 0.778851394941523 0 0.4314113008639874 0.7908959966455781 0 0.4496264017117371 0.8183416291535182 0 0.4527209983494582 0.8304205207782029 0 0.4558258289362531 0.84249372519354 0 0.4589359728213223 0.8545727391022435 0 0.4620604899053281 0.866657200128121 0 0.4772374596673513 0.8820943811578132 0 0.4803486853187087 0.8941829236326044 0 0.4834471276933037 0.9062776745956802 0 0.486546141259726 0.9183730816296863 0 0.4896525634659415 0.9304649272152401 0 0.4927630825775682 0.9425663935127178 0 0.5107478372780687 0.9698626481199157 0 0.495880356672579 0.9546534643020277 0 0.5142876030741184 0.9804349602999798 0 0.5250000000019071 1 0 0.5187513336974848 0.9896091623915606 0 0.2153378447404441 0.295095507844789 0 0.2183981912995932 0.3070675581162461 0 0.2214594661400972 0.3190422563162385 0 0.224521550349929 0.3310203849314291 0 0.2275886467345136 0.3429994624669961 0 0.2306110558171184 0.3549795292132791 0 0.2336699668296032 0.3669628740518496 0 0.2367656956765055 0.3789396393665761 0 0.2398580348783078 0.3909494532321275 0 0.2548665689385889 0.4062802489165062 0 0.2579507579494601 0.4182767063736718 0 0.261032111992378 0.4302783545543122 0 0.2641070229250796 0.4422840509617255 0 0.2791211278921641 0.4576306347047464 0 0.2821991709655734 0.4696406511566655 0 0.2852709587624919 0.4816516023382241 0 0.2883334368970747 0.4936736954217831 0 0.2914058638180239 0.5056914556414823 0 0.2944849481802293 0.5177117589254776 0 0.2975582149088988 0.5297169599145801 0 0.3126130973816815 0.5450393203787557 0 0.3157867781192595 0.5570978769880686 0 0.318960920493129 0.5691558652340016 0 0.3220339406891857 0.5811774622052353 0 0.3250972523509074 0.5932200154970305 0 0.3282258592479597 0.605268954781131 0 0.3431385535880914 0.6207024522977834 0 0.346224416701494 0.6327464017840929 0 0.3763217389545389 0.6635779791852292 0 0.4039574556679683 0.7271339698145877 0 0.4345249058122612 0.8029050479827257 0 0.4376191672546992 0.8149819839685396 0 0.4651906869181507 0.8787335316733027 0 0.498983998065744 0.966754692924678 0 0.3611487014360213 0.6481956237406106 0 0.1959606617376349 0.2655172669551799 0 0.197000602466443 0.2778793016801526 0 0.2062136035175812 0.29460027279718 0 0.2429358195138819 0.4029458597493316 0 0.267183741201788 0.4542904118352732 0 0.300645981779596 0.541749960315221 0 0.3313126275606262 0.6173095229025488 0 0.3493062415204027 0.6447901547107517 0 0.3643307927657947 0.6601732351651132 0 0.3795235383592211 0.6755949575864963 0 0.3827003069080072 0.6876385500129625 0 0.3857953830595436 0.6996630140427675 0 0.3888636054673236 0.711721324400224 0 0.3919476552859774 0.7237827081025316 0 0.4070526176451682 0.7391971080291333 0 0.4101474452661913 0.7512619268344692 0 0.4132387585346845 0.7633307767678872 0 0.4163311060469476 0.775401103538335 0 0.4194246269762877 0.7874731440314992 0 0.4225184958359236 0.7995473436151489 0 0.4407136445426846 0.8270587135512689 0 0.4438163234902922 0.8391344090171111 0 0.4469237506842588 0.8512130785989079 0 0.4500302200328331 0.8632997183366263 0 0.4531285733642471 0.8753867924898457 0 0.4683268346858633 0.89081980487039 0 0.4714211832822999 0.9029138861092221 0 0.4745209199359731 0.9150092180221728 0 0.4776253753570062 0.9271015946701631 0 0.4807399031241337 0.9391976314714764 0 0.4838495143476221 0.951292752433446 0 0.5018872613505583 0.9783923924068012 0 0.4869705094059679 0.9633252921817528 0 0.506405236325959 0.989380276188868 0 0.5125000000019937 1 0 0.1974261165514307 0.290308030354299 0 0.206719248430986 0.3039511534632539 0 0.2095578027028575 0.3157063952177334 0 0.2126151939886113 0.327690185935297 0 0.2156824517450402 0.3396659878528097 0 0.2187484011461258 0.3516440069484072 0 0.2216320156739288 0.3636255499952504 0 0.2248034124897494 0.3756160802804219 0 0.2279210130358781 0.3875991868267173 0 0.231010554371499 0.399608941266074 0 0.246017887375877 0.4149412111751796 0 0.2490946584926444 0.4269418926222631 0 0.2521717113930103 0.4389456270454539 0 0.255247848640921 0.4509505281893462 0 0.2702593999616078 0.4662996168870979 0 0.2733340551439868 0.4783101931520447 0 0.2764030549947867 0.490320130827876 0 0.2794679274954829 0.5023429662780421 0 0.2825355460766785 0.5143702546019288 0 0.2856165161956566 0.5263928351093741 0 0.2886994578625232 0.5384158938885363 0 0.3037809370246484 0.5537645627128364 0 0.3069688283397659 0.5658043109935378 0 0.310076963479459 0.5778438084498393 0 0.3131733987366583 0.5898845243735684 0 0.3162574924605271 0.6019215068450705 0 0.3193420321685869 0.6139602836622202 0 0.334399786704964 0.6293499908220325 0 0.337487701658426 0.6413952515216917 0 0.3675281326514559 0.6722095626785003 0 0.3950567445536782 0.7358417083726181 0 0.4256126301454657 0.8116233117769311 0 0.4287076639310784 0.8236983215017653 0 0.4562675673881443 0.8874617818498847 0 0.4901672368931437 0.9746715550394477 0 0.3523995005557709 0.6568209564657417 0 0.1858956196419102 0.2726587951963961 0 0.18654278384467 0.2851321559700405 0 0.1968993769876397 0.3014276566787115 0 0.2340834717017628 0.4116036420147431 0 0.258321104400375 0.4629594987411569 0 0.2917881462712439 0.5504296390822431 0 0.3224269716149616 0.6260013913535636 0 0.3405759993965635 0.6534404140844465 0 0.355555833659937 0.6688421321348264 0 0.3707134960062422 0.6842768108257367 0 0.3738095230275552 0.696306329231003 0 0.3768831799523554 0.7083627107197211 0 0.3798842389755809 0.72044309263364 0 0.3830523137993042 0.7324891636838258 0 0.3981503589593736 0.7479063666432288 0 0.4012365064247426 0.7599749142985204 0 0.4043263490465763 0.7720447907850071 0 0.4074182051964546 0.7841171100764541 0 0.4105093037216417 0.7961916762524723 0 0.4136057796912156 0.8082652233127915 0 0.4318064980739283 0.8357749909337553 0 0.4349128130726847 0.8478536274871349 0 0.4380173082101309 0.8599387351574297 0 0.4411152629215916 0.8720202116219046 0 0.4442249952842275 0.884099299838923 0 0.4593876365760928 0.8995483262824941 0 0.4624958954838577 0.9116453692519908 0 0.4655946133987715 0.9237398714964424 0 0.4687046091306873 0.9358334128756589 0 0.4718165657575274 0.947922901748215 0 0.4749344151906795 0.9599757184908586 0 0.4927698672262061 0.9876664077739583 0 0.4781316099139232 0.971731234167169 0 0.5000000000020587 1 0 0.1871119670000774 0.2962224766479959 0 0.1981140855636301 0.3126168387397291 0 0.2007133113643947 0.3243551457207297 0 0.2037782884733953 0.3363338054270434 0 0.20680832347828 0.3483206497457412 0 0.2097305547477854 0.360342864097961 0 0.2128243415880512 0.3722882027091006 0 0.2160009737449763 0.3842791422372449 0 0.2190876167395955 0.3962725425507038 0 0.2221529486792029 0.4082613634912226 0 0.2371598645629978 0.4236037168316225 0 0.2402356176821436 0.4356057397533385 0 0.2433128696826449 0.4476111672814843 0 0.24638728166701 0.4596167607353665 0 0.2613940366059606 0.4749695788781478 0 0.2644688282764834 0.4869817148655719 0 0.267534272825353 0.4989960796769973 0 0.2705953122447909 0.5110192754035436 0 0.2736642920180653 0.5230494103932211 0 0.2767508067220122 0.5350659845980648 0 0.2798466102759051 0.5470865972956189 0 0.2949420873715911 0.5624578747862479 0 0.2980778129042974 0.5744871307577162 0 0.301204885614652 0.5865360059170172 0 0.3042907998880332 0.5985724909200633 0 0.3073736339009968 0.6106106519057679 0 0.310456096906456 0.6226513377113279 0 0.3255124880246126 0.6380447959000607 0 0.3285986391658127 0.6500904686047198 0 0.3587375611352434 0.6808925219321627 0 0.3861270035751253 0.7445630329782238 0 0.4167007615299307 0.8203405681953456 0 0.4197979314040399 0.8324169607060045 0 0.4473466775002846 0.8961829359443536 0 0.4822601753964629 0.9801593107823262 0 0.3436337834394708 0.6654954089788803 0 0.1755705857091012 0.2794189854568997 0 0.1758013531492009 0.2917580796067994 0 0.1861095453949101 0.3080602835666816 0 0.2252153971216733 0.4202511256916011 0 0.2494581448712261 0.4716264867892046 0 0.2829458696680102 0.5591134524935832 0 0.3135392726342462 0.6346941367104773 0 0.3316851616897888 0.6621384712970424 0 0.3467543789329958 0.6775406844736188 0 0.3618260581324662 0.6929475247266021 0 0.3649140169444487 0.7050027045028719 0 0.3678652993858768 0.7170931192244708 0 0.370975023229912 0.7291538193965608 0 0.3741559552861848 0.7412186283380162 0 0.3892129077452333 0.756625039780813 0 0.3923116753993954 0.7686886882641739 0 0.3954075584510176 0.7807595498031467 0 0.3984951377427658 0.7928355854663794 0 0.4015924881444681 0.8049072919714894 0 0.4046934939694973 0.8169815176793971 0 0.4228970021111146 0.8444957259342494 0 0.4260027648970163 0.8565783038048093 0 0.4290989091026014 0.8686639525466235 0 0.4322024681773904 0.8807388774197094 0 0.4353221960530371 0.8928241845361393 0 0.4504712170606141 0.9082816212813211 0 0.4535698654500226 0.9203764721796504 0 0.4566728734934463 0.9324710209160696 0 0.4597783236532389 0.9445674569515881 0 0.4628858250640402 0.9566709748902188 0 0.4660890973899363 0.96840364720404 0 0.4791179756229856 0.989274321552928 0 0.4702356520015539 0.9788514684251433 0 0.4875000000020284 1 0 0.1807651195813722 0.3004930869893143 0 0.1888095220563166 0.3210308625816271 0 0.1918425125747096 0.3330125304698993 0 0.1948381622336917 0.3450095402051995 0 0.197864986557689 0.3569997916739113 0 0.2008893177815093 0.3689934891594682 0 0.2039702887196959 0.3809737498502213 0 0.2071436752477612 0.3929395249567695 0 0.2102127468507894 0.4049274053650898 0 0.2132781859292686 0.4169148316338213 0 0.2282934368645547 0.4322576422544964 0 0.2313782031501692 0.4442710878805824 0 0.2344542664404448 0.4562760545315954 0 0.2375252860239151 0.4682828006462996 0 0.2525271176117719 0.4836413170682029 0 0.2556038987674112 0.4956558935623905 0 0.2586760468067487 0.5076626779094306 0 0.2617467073629723 0.5196851381877359 0 0.2648152031127199 0.531721364085553 0 0.2679257378345887 0.543743441789224 0 0.2710328691384721 0.5557629288134067 0 0.2860909300215814 0.5711481526775714 0 0.2892425712462869 0.5831886390463472 0 0.292326840765548 0.5952235738636786 0 0.295414453907053 0.6072423179037754 0 0.298501892494701 0.6192758513044716 0 0.3015861703277635 0.6313301932155824 0 0.3166233578887014 0.6467389212918981 0 0.3197066944954988 0.6587861905140066 0 0.3498424001709078 0.6895939056828886 0 0.3771669632041584 0.7532864488154163 0 0.4077871931582029 0.829059444884059 0 0.4108852195437034 0.8411382020241774 0 0.438447079069906 0.904917705217597 0 0.3347722338156014 0.6741887874933308 0 0.1650000004356499 0.2857883829973422 0 0.1740376127813003 0.3059315081357802 0 0.1769345245958259 0.317735647488556 0 0.216350464036935 0.4289168081781733 0 0.2405898096262382 0.4802954949846646 0 0.2741383124567257 0.5678137729719724 0 0.3046592431290725 0.6433846600742618 0 0.3227911333868226 0.6708359444480609 0 0.337859588536145 0.6862405226934398 0 0.3529295498394172 0.7016497682213941 0 0.355872295590232 0.7137431374268653 0 0.3589662720640293 0.725800846154679 0 0.3620715338484468 0.7378628831726342 0 0.365164758203179 0.7499295182037542 0 0.3802968606248385 0.7653287488278709 0 0.3833898701039646 0.7773990860896866 0 0.3864836893662876 0.7894752841521374 0 0.3895817500594219 0.8015485893577932 0 0.3926785689378317 0.8136226941694625 0 0.3957777672726835 0.8256990360787537 0 0.4139857955316516 0.8532192066908252 0 0.4170827845588476 0.8653023762254062 0 0.4201805037141774 0.8773850245430572 0 0.4232963334785352 0.8894657366640852 0 0.4264179516160978 0.9015526287105248 0 0.4415462462780049 0.9170119524177927 0 0.4446463896988173 0.9291079456634481 0 0.4477493910619771 0.9412051652526544 0 0.4508537280468411 0.9533050346324898 0 0.4539544684157339 0.965406423375069 0 0.4573665530013222 0.9776915239647692 0 0.4750000000019764 1 0 0.4674713722006659 0.9891631378012311 0 0.1645977873186583 0.2983566473289318 0 0.1799251130204798 0.3296718128112671 0 0.1829387277290545 0.3416562629927543 0 0.1859349495704179 0.3536733920831715 0 0.1889786517315497 0.3656615809638098 0 0.1920479409075667 0.3776421877294447 0 0.1951264271978792 0.3896200391147494 0 0.1982569870469243 0.4016012339233282 0 0.2013446124383298 0.413586386821254 0 0.2043944298594727 0.4255811689965161 0 0.2194363669740371 0.4409239788712654 0 0.2225212611418113 0.4529384594800253 0 0.2255964636850326 0.464942581484425 0 0.2286669166242961 0.4769464012406963 0 0.2436590606545306 0.4923132726120498 0 0.2467483087860549 0.5043197777835171 0 0.2498312202751442 0.5163446827274668 0 0.2529139558494061 0.528368207642205 0 0.2560031611788035 0.5404040412472682 0 0.2591060030608027 0.5524233879178495 0 0.2622385429483806 0.564459206393115 0 0.277269763109505 0.5798431140469842 0 0.2803631385832445 0.5918743196940685 0 0.2834444690907572 0.6039097140648459 0 0.2865536424010066 0.6158852234836962 0 0.2896506040978378 0.627936401470377 0 0.2927156400470727 0.640003770169348 0 0.307733444274486 0.6554338582603538 0 0.3108124070098602 0.6674835030713848 0 0.3409474428531037 0.698292647738893 0 0.36823565307015 0.7619912734877707 0 0.398873108602215 0.8377781927425922 0 0.401970286454996 0.8498596811873355 0 0.4295234436360232 0.9136478868626121 0 0.3258783036700298 0.6828871929535445 0 0.1541986477306638 0.2917580796448226 0 0.1635065882330744 0.3128404436729728 0 0.1680707860352059 0.3263380311415438 0 0.2074855855604337 0.4375867969300605 0 0.2317439939463048 0.4889636450762312 0 0.2653057127515325 0.5764954960712896 0 0.2957677790688709 0.6520787048449282 0 0.3138965191089063 0.6795341342628187 0 0.3289633379983546 0.6949384834596898 0 0.343878807591969 0.7103836706571109 0 0.3469711743018393 0.7224454664608766 0 0.3500613506311046 0.7345066610260029 0 0.3531505557270359 0.7465707606576949 0 0.3562466072467 0.7586362736211312 0 0.3713747092042093 0.7740467199244045 0 0.3744720615621442 0.7861167917166486 0 0.3775730054403597 0.7981877649934457 0 0.3806676107248184 0.810262915393845 0 0.3837641361312559 0.82233926272002 0 0.3868615777388502 0.8344178574647583 0 0.4050680003120902 0.8619413934423413 0 0.4081638422742877 0.8740266760313119 0 0.411267599625538 0.8861038618253338 0 0.4143872816849713 0.8981898429497466 0 0.4175006007326894 0.9102833979592908 0 0.4326213785512681 0.92574233016723 0 0.4357219136291902 0.9378401450355206 0 0.4388231178503288 0.9499393883168101 0 0.4419241567607933 0.9620396963588431 0 0.4451243273973015 0.9738382541636632 0 0.4559306586027193 0.9896734892497743 0 0.4625000000019244 1 0 0.1531812407390573 0.3039274915892952 0 0.1710736178622369 0.3383084096861217 0 0.1740188960468596 0.3503343978778909 0 0.1770725122612626 0.3623273016051842 0 0.180137100614221 0.3743102492996732 0 0.1832076499271565 0.386291224745822 0 0.1862860285946429 0.3982785128755291 0 0.1893792125217441 0.410265025770705 0 0.1924564763222805 0.4222568627337953 0 0.1955271092432831 0.43425448507597 0 0.2105845390933279 0.4495986294923847 0 0.2136623166588417 0.4616055737371462 0 0.2167368831285871 0.4736117914379498 0 0.2198149455555993 0.4856239965085912 0 0.2348245053009048 0.500986085687477 0 0.2379097389974084 0.5130145211548264 0 0.2409954789224961 0.5250216020521523 0 0.2441087550718169 0.5370544689358339 0 0.2471813569808244 0.5490846286907962 0 0.2502733033467157 0.561112277721086 0 0.2533560444813768 0.5731445573765923 0 0.2683990189926256 0.5885257212021103 0 0.2714819593939368 0.60055911509811 0 0.2745972599601184 0.6125361334861179 0 0.2777346114923575 0.624554887008885 0 0.2807840156085604 0.6366147892354961 0 0.2838412273184623 0.6486859113412788 0 0.2988311840549122 0.6641311697656433 0 0.3019153873311247 0.6761809269654572 0 0.331913812856876 0.7070210047593177 0 0.359343270019624 0.7707005352545778 0 0.3899583031252626 0.8464981515653278 0 0.3930539224997179 0.8585805037895421 0 0.4205978684575513 0.9223785343156643 0 0.4492893579985803 0.9820733356741497 0 0.3169733719683379 0.6915764606559629 0 0.1431816342950651 0.29731972622178 0 0.1513014461070466 0.3142770601665459 0 0.1592478604408713 0.3349783009663019 0 0.1561840013772366 0.3230119549126829 0 0.1986393532548207 0.4462553029277647 0 0.2229017001424873 0.497642140300924 0 0.2564368462305507 0.5851770708611358 0 0.2868668496303767 0.6607758955245706 0 0.3050001557174721 0.6882316496157995 0 0.3200135348280582 0.7035958044783858 0 0.3349976756552925 0.7190848151652638 0 0.3380715231622249 0.7311504994647958 0 0.3411577286213818 0.7432138131976189 0 0.3442473748982482 0.7552791945013518 0 0.3473380315619632 0.7673463596216372 0 0.3624392788539995 0.7827688951721805 0 0.3655710709841617 0.7948280514292232 0 0.3686628833242052 0.8069037389250734 0 0.3717561490894839 0.8189794462028319 0 0.3748518796111605 0.8310578988304933 0 0.3779473542395394 0.8431374257694069 0 0.3961503080347843 0.8706628586248815 0 0.3992461771186816 0.882747855823742 0 0.4023579812408185 0.8948303222533076 0 0.4054690935402228 0.9069184299541503 0 0.4085745514678903 0.9190135323036226 0 0.4236961162943209 0.9344749880437635 0 0.4267952537275397 0.9465731096778913 0 0.4298947022518745 0.9586732338104236 0 0.4331443196963718 0.9702362420958198 0 0.4377559720302163 0.9808134643180098 0 0.4500000000018723 1 0 0.443512025292507 0.9902123431857752 0 0.1423013407498355 0.3090129925007185 0 0.1622020239608137 0.3469772040178269 0 0.1651847708567533 0.3589748772537956 0 0.1682282759745647 0.370979188172005 0 0.1712982622887991 0.3829616391806175 0 0.1743714219579372 0.3949457142299416 0 0.1774446797092049 0.4069324394867348 0 0.1805199096521221 0.4189232725702446 0 0.1835911955841307 0.4309181503171518 0 0.1866883493412859 0.4429193846566322 0 0.2017234450885107 0.4582648680914073 0 0.2048021490353471 0.4702737197659105 0 0.207879673983163 0.4822854517790847 0 0.2109581202613904 0.4943002095872252 0 0.2259842292786429 0.5096631571973143 0 0.2290648308609348 0.5216864200874134 0 0.232150726975722 0.533709920015302 0 0.2352338022134525 0.5457368044613877 0 0.2383160042650448 0.557765660699438 0 0.2413976602318152 0.569796264088928 0 0.2444784580354242 0.5818279190899429 0 0.2595200063049073 0.5972097746367379 0 0.2626327494043773 0.6091865742007501 0 0.2657716207292601 0.62120126996952 0 0.268880521613033 0.6332317991932002 0 0.2719131399760832 0.6453066998750656 0 0.2749455498399475 0.6573815593629608 0 0.2899360908571498 0.6728288010560666 0 0.2930196463865245 0.6848797670797173 0 0.3230696523225793 0.7157084334001779 0 0.3504291924195969 0.7794148639327513 0 0.3810427530478761 0.8552185857842378 0 0.3841377220039339 0.8673000598526139 0 0.4116717883439166 0.93110937161366 0 0.3080767542025325 0.7002746082150779 0 0.1319643683854359 0.3024655442800601 0 0.1437585702174708 0.3208529825738585 0 0.1472169210410179 0.3318449008090183 0 0.1503848999569294 0.3436290502164313 0 0.1897771909443908 0.454922148037032 0 0.2140369053922691 0.5063188836527579 0 0.247559098432062 0.5938599605283538 0 0.2779771653034321 0.6694713539928898 0 0.2961040661763782 0.6969306835960281 0 0.3111091549996827 0.7123262035774511 0 0.3260956037348079 0.7277907426524468 0 0.3291659524549446 0.7398573727527548 0 0.3322540922011561 0.7519213299191359 0 0.3353420674501082 0.7639879525461998 0 0.3384326174397208 0.7760564576184389 0 0.3535201361349055 0.791484320153615 0 0.3566574552424739 0.8035461575572093 0 0.3597509707063667 0.815620119446997 0 0.362844073949926 0.8276970411976543 0 0.365937986517908 0.8397763596282883 0 0.3690322981738028 0.8518573723569994 0 0.3872353393305435 0.8793816569080569 0 0.3903355072132529 0.8914666607945805 0 0.3934422282622443 0.903555282172293 0 0.3965508057224072 0.9156488899745702 0 0.3996480862823213 0.9277436809281149 0 0.4147687473143488 0.9432069144639441 0 0.4178662228750318 0.9553061716730435 0 0.4208812856431043 0.9674142605451439 0 0.4245286571534035 0.9788137158223941 0 0.4309371446431334 0.9897068949662571 0 0.4375000000018203 1 0 0.1309380686817348 0.3163472760445482 0 0.1533020986012316 0.35563818810642 0 0.1563195383841336 0.3676457793360203 0 0.1593876188838123 0.3796271413812854 0 0.1624573975646799 0.3916116185221118 0 0.1655286054168332 0.4035984219023253 0 0.168601750853151 0.4155883130431267 0 0.1716752997077207 0.4275788387231113 0 0.1747541474937309 0.439583129402724 0 0.1778410995273593 0.4515830921791513 0 0.1928638708283076 0.466931645571011 0 0.1959389879408144 0.4789423159351759 0 0.1990136146234067 0.4909564408722769 0 0.2020885047459166 0.5029747331469357 0 0.2171166799137657 0.5183396559731549 0 0.2201966100389381 0.5303645169638663 0 0.2232769917253632 0.5423904792475408 0 0.2263573241078018 0.5544188078230605 0 0.2294382472293937 0.5664486017620221 0 0.2325188311688278 0.5784794428255495 0 0.2355989664484923 0.5905110509215531 0 0.2506650228689098 0.6058343104175603 0 0.2537984287908708 0.6178535727657632 0 0.2569212921128468 0.6298907724588507 0 0.2599939683518896 0.641921591237109 0 0.2630162903419366 0.6539813236506703 0 0.2660586264693939 0.6660681717932899 0 0.2810459891841424 0.6815260335867122 0 0.2841218443034564 0.6935798541904075 0 0.3141414806523362 0.7244143857462721 0 0.3415222703398531 0.7881260964567609 0 0.3721262962148171 0.8639385321859276 0 0.37522408749414 0.8760204315478823 0 0.4027434849052732 0.9398409738249206 0 0.299180394749309 0.7089738249449282 0 0.1205625383731968 0.3071883369221746 0 0.1351762632596606 0.3283232231549522 0 0.1384119990107278 0.3403745230728232 0 0.1413926603397997 0.3523259958813075 0 0.1809267226672804 0.4635900935971571 0 0.2051647122731835 0.5149948622239081 0 0.2387003446108675 0.6024829919757642 0 0.2690790155235293 0.6781680657013306 0 0.2872077262143611 0.7056305776823742 0 0.3022180409615688 0.72102166699285 0 0.3171912348100976 0.7364971957879091 0 0.3202626270793075 0.7485633467303681 0 0.3233513923552087 0.7606282833942628 0 0.326438969715038 0.7726965924596682 0 0.3295248892031671 0.7847677051125703 0 0.3446129516407773 0.8001952442758379 0 0.347743182212829 0.8122607044757306 0 0.3508385411808249 0.8243364458116782 0 0.3539307160757477 0.8364147189585296 0 0.3570231082622731 0.8484952798641466 0 0.3601160008620979 0.8605770958500948 0 0.3783254725709429 0.8881031293473941 0 0.3814273861632534 0.9001929544434344 0 0.3845287178688519 0.9122844871743738 0 0.3876256444794273 0.924377466342359 0 0.3907221195904375 0.9364725629434258 0 0.4058383785885068 0.9519393301904533 0 0.4089361063880532 0.9640404412832712 0 0.4111695858073466 0.9774892603433095 0 0.4185521040090703 0.9888722584326196 0 0.4250000000017684 1 0 0.1176584057018325 0.3196036754980388 0 0.1251449940847114 0.3269841773820351 0 0.1444070608583412 0.3643124018640276 0 0.1474769566163091 0.3762932893568788 0 0.1505434664846941 0.3882766995204232 0 0.1536123178364784 0.4002634406452136 0 0.1566835243566078 0.4122529374882899 0 0.1597590274836389 0.4242456890226093 0 0.162834994546187 0.4362438192285842 0 0.1659116335803727 0.4482453192066744 0 0.1689915154052706 0.460248525407623 0 0.1840020703830429 0.475594965912343 0 0.1870799013940052 0.4876052634634372 0 0.1901441067076701 0.4996281422253283 0 0.1932208192299731 0.5116481129124035 0 0.2082429218839603 0.5270187936518929 0 0.2113210759077596 0.5390439547633256 0 0.2144002992792902 0.5510719788766826 0 0.2174796179538954 0.5631008607325824 0 0.2205597582942259 0.5751312941318821 0 0.2236397655957863 0.5871480650896037 0 0.2267394022923238 0.59914009102941 0 0.2418266764329961 0.6145080110715392 0 0.2449380688875082 0.6265430279280271 0 0.2480340875735033 0.6385803903423171 0 0.2511060903045444 0.650610995239324 0 0.2541350299292814 0.6626845804368307 0 0.2571631765992728 0.6747755443579849 0 0.2721421727307625 0.6902283594998619 0 0.275226341862877 0.7022804997516267 0 0.3052579977557773 0.7331154669350156 0 0.3326152627726495 0.7968383137155648 0 0.3632109712270724 0.8726597098112514 0 0.3663101267728394 0.8847437546760281 0 0.3938141676656456 0.9485726291376994 0 0.2902843009278521 0.7176742152930219 0 0.1089920907478123 0.3114814988958745 0 0.1266989534546493 0.337327744586913 0 0.1294399451668885 0.3489937627531533 0 0.1324959174319217 0.360977119176792 0 0.1720662675971128 0.4722516577261151 0 0.1962966568205758 0.5236694760712785 0 0.2298702903772924 0.6111595804904897 0 0.2601756681339707 0.6868728643071638 0 0.2783111562815506 0.7143309486246072 0 0.2933123577355542 0.7297282909831871 0 0.3082910234188892 0.745201533799065 0 0.3113627715298489 0.7572681149235377 0 0.3144478261557933 0.7693323637866679 0 0.3175313239085376 0.7814052623158295 0 0.3206160012578819 0.793479646589492 0 0.3357098317278407 0.808910322616931 0 0.3388269136032795 0.8209776931120001 0 0.3419209698216211 0.8330541431215398 0 0.3450140764449942 0.8451335885282842 0 0.348106412602377 0.8572145769235147 0 0.3511992865421331 0.8692974381320862 0 0.369409488790014 0.8968309311018616 0 0.3725071834082385 0.9089212669584357 0 0.3756039443667254 0.9210121402667504 0 0.3787024126863839 0.9331054542245083 0 0.3818004754055106 0.9452012268334602 0 0.3969066378334236 0.9606727104960013 0 0.3992086088968347 0.9720244799709651 0 0.4060585963242636 0.989775753397062 0 0.4125000000017163 1 0 0.1055994419314348 0.323395029475767 0 0.1144050855019936 0.3326543573793488 0 0.1355520891368126 0.3729594548106696 0 0.1386291981701597 0.3849423356836641 0 0.1416958869273217 0.3969275008003951 0 0.1447656872064059 0.4089165513577289 0 0.1478371265215697 0.4209090180603275 0 0.1509104975096974 0.4329052354674601 0 0.1539837116657902 0.444904532941206 0 0.1570575865758184 0.4569080279381437 0 0.1601304074500236 0.4689132909324649 0 0.1751485745828316 0.4842502089909455 0 0.1782340513087279 0.4962707075501582 0 0.1813110662619673 0.5082895511910972 0 0.1843879000354481 0.5203085497518332 0 0.1993760180853822 0.5356929319247495 0 0.2024491007990164 0.5477218586779443 0 0.2055272963067057 0.5597518145483171 0 0.2086106771783027 0.5717811231795263 0 0.2116799943986923 0.5838103826771299 0 0.2147744769630336 0.5958192882182509 0 0.2178844992471572 0.6078317651455372 0 0.2329813639615864 0.6231938053342569 0 0.2360665644532459 0.6352316155954364 0 0.239146525677297 0.6472705889963759 0 0.2422185409720686 0.6593016380005123 0 0.2452330766788373 0.6713634504718713 0 0.2482631351575009 0.6834808715798291 0 0.2632426830265379 0.698928504551078 0 0.2663296913858147 0.7109794784977969 0 0.2963400158852438 0.7418210420910459 0 0.323707046299569 0.8055511017584643 0 0.3542941319810879 0.8813818365011812 0 0.357389776267042 0.8934681378699505 0 0.3848973633105572 0.957300295598005 0 0.400076838651972 0.9818625332563337 0 0.2813870077559285 0.7263742335491919 0 0.09726920782269013 0.3153390258270395 0 0.1174879225637061 0.3456746151093391 0 0.1205526963035006 0.3576468688300296 0 0.1236310527861876 0.3696242309215648 0 0.1632131927160937 0.4809121211607101 0 0.1874661330947981 0.5323305476503185 0 0.2210124412867683 0.6198496563602525 0 0.2512758691079181 0.6955891878251386 0 0.2694141536364256 0.7230315012816009 0 0.2844206178203292 0.7384233451234599 0 0.2993899853047534 0.753906198403971 0 0.3024600746067336 0.7659731332167269 0 0.3055391424575309 0.7780447598278114 0 0.3086211215446643 0.790117454227636 0 0.3117066641248837 0.8021921146632023 0 0.3268063034257833 0.8176226288774109 0 0.3299063126254366 0.8296961522671924 0 0.3330052418279414 0.8417711642403131 0 0.3360963046804588 0.8538525933171401 0 0.3391883238345866 0.8659349653889034 0 0.3422815860000453 0.8780189283919746 0 0.360486972633661 0.9055575889171222 0 0.3635826002976006 0.917648442752547 0 0.3666800177804913 0.9297391424558393 0 0.3697810776833905 0.9418348030050725 0 0.3728826025078239 0.9539335690780928 0 0.3875165631985514 0.968901727133699 0 0.3898173539463198 0.9798958760164962 0 0.4000000000016644 1 0 0.3941300482850956 0.9901272965538351 0 0.09259792385886124 0.327448586084734 0 0.1025212563191055 0.3330840000715681 0 0.1055927909385268 0.3428021170230384 0 0.126705493375674 0.3816065861968021 0 0.1297784161490303 0.3935913653521166 0 0.1328475122959991 0.4055782056902045 0 0.1359166779829774 0.4175702165775004 0 0.1389852482208486 0.4295653784157352 0 0.1420543967133199 0.4415639782611225 0 0.1451250380085538 0.4535666291578382 0 0.1481967975158732 0.465571908865571 0 0.1512715267678023 0.477574345846465 0 0.1663181375110874 0.4929207672534803 0 0.1694035124512129 0.5049327252845642 0 0.1724808180541524 0.5169510021172798 0 0.1755589080298221 0.5289702214190678 0 0.1905412341624216 0.5443514874003362 0 0.193618925667633 0.5563811632176409 0 0.1966939774628694 0.5684204707684999 0 0.199733363433064 0.5804625750873174 0 0.2028014984552652 0.5924923979381004 0 0.2059044672771666 0.6045031762973712 0 0.209017420501022 0.6165167074511247 0 0.2240964199752659 0.6318831029368498 0 0.2271785365918905 0.6439213897130558 0 0.2302584780429704 0.6559610537838751 0 0.233329512980855 0.6679915639560174 0 0.2363454179044193 0.6800981346927266 0 0.2393634423683415 0.6921891503835554 0 0.2543481189982141 0.7076272920219157 0 0.2574321806642259 0.7196799636099295 0 0.2874566771208088 0.7505222190052938 0 0.3147976199595944 0.8142643021566394 0 0.3453749120815415 0.8901048938471994 0 0.3484677049784049 0.902193627922365 0 0.375980387817603 0.9660348865725451 0 0.2724901012839469 0.7350753433180902 0 0.08541028511428159 0.3187555226136437 0 0.1086509813297497 0.3543135948767568 0 0.1117146895741946 0.3662890311281833 0 0.1147864815059975 0.3782699473017971 0 0.1543608321699472 0.489581069645344 0 0.178638262303288 0.5409923201314326 0 0.2121274096285371 0.6285372293742545 0 0.2423835988959473 0.7042930462453124 0 0.2605169295838627 0.7317326310057273 0 0.2755130048562219 0.7471309994574955 0 0.2904842327109028 0.7626125478043899 0 0.2935491980263245 0.7746829443017433 0 0.2966253105031323 0.786757401118265 0 0.299708908500663 0.7988323535446598 0 0.3027969054120765 0.810905205686284 0 0.3178945505607654 0.8263380034760257 0 0.3209887942238073 0.8384135334854474 0 0.3240846745104505 0.8504918484311572 0 0.3271771849724673 0.8625726450083393 0 0.3302700934518316 0.8746553717744427 0 0.3333629580579734 0.8867398104566595 0 0.3515621081126914 0.9142844219131763 0 0.3546593565058077 0.9263762114818196 0 0.3577586131806881 0.9384706686844426 0 0.3608586558756593 0.9505679988250831 0 0.3639562263202096 0.9626675800311214 0 0.3787291100144465 0.9776545760833928 0 0.3818548293788723 0.9894948520512876 0 0.3875000000016123 1 0 0.0809431119631378 0.3269780553565547 0 0.09414737232473437 0.3397016253774677 0 0.09675303800229082 0.350978098894808 0 0.1178587102999595 0.3902538638609053 0 0.1209294907095093 0.4022409594146518 0 0.1239980789662902 0.4142311778747718 0 0.1270656880480763 0.4262233916118799 0 0.1301280013424947 0.4382222627653088 0 0.1331944817164882 0.4502248392564508 0 0.1362639767722567 0.4622296329438276 0 0.13933570781186 0.474236538872232 0 0.1424119875418982 0.4862407973081738 0 0.1574516545614016 0.5015891480708091 0 0.16053443323242 0.5136066150209597 0 0.1636110449363555 0.5256258473337495 0 0.1666894689672759 0.5376467415018782 0 0.1817233327036627 0.553013774005188 0 0.1847823255509851 0.5650416716680078 0 0.1878086425823525 0.5770914727157281 0 0.1908452027391495 0.5891474024324889 0 0.1939214744180608 0.6011761088256212 0 0.1970216875994966 0.6131895243564739 0 0.2001540179670066 0.6251888931728594 0 0.2152103458787837 0.6405716502837302 0 0.2182909816177293 0.6526123768746186 0 0.2213708465988046 0.6646518983554542 0 0.2244411517168685 0.6766831734888896 0 0.2274450314255023 0.6887689176057299 0 0.2304676017187609 0.7009047443525965 0 0.245452545459261 0.7163309062748666 0 0.2485330138499417 0.7283818817361507 0 0.2785338681408258 0.7592279168501659 0 0.3058879670810754 0.8229781357412433 0 0.3364535309564971 0.8988271772774872 0 0.3395454232583877 0.9109177234475636 0 0.3672148065801641 0.9741940823996575 0 0.2635920055759867 0.7437758805835539 0 0.07343190839847019 0.3217262109759768 0 0.08245718051957435 0.3364843494034591 0 0.09981068588827739 0.3629536730153574 0 0.1028755722433246 0.3749335283383083 0 0.1059437622298233 0.3869163530184921 0 0.1454984939213998 0.4982492382324258 0 0.1697701188628087 0.5496680700804374 0 0.2032432368172166 0.6372213532057358 0 0.2334802307467693 0.7129916736070308 0 0.2516192054762726 0.7404340899851172 0 0.2666194194740522 0.7558246835896407 0 0.2815731560393536 0.7713175439058417 0 0.284626688665806 0.7833977283447411 0 0.2877065358926578 0.7954762867812846 0 0.2907969135265638 0.807545658791286 0 0.2938866966649973 0.8196180409155531 0 0.3089803060488955 0.8350532683282219 0 0.3120736297996098 0.8471307196159381 0 0.315166891558419 0.8592104349197653 0 0.3182595698137711 0.8712918950838806 0 0.3213520326571451 0.8833741936549679 0 0.3244448419155298 0.8954595540667374 0 0.3426366938294308 0.9230108314356613 0 0.3457324298196207 0.9351047681488361 0 0.3488313204742364 0.947201607250322 0 0.3519282460467199 0.9593003000525219 0 0.3556065722241053 0.9706638140833618 0 0.3684931112833587 0.9873228808351615 0 0.3750000000015603 1 0 0.07020174676051875 0.3332228853970954 0 0.08483021079005912 0.3477034582784567 0 0.08790812359890712 0.3596195971002033 0 0.1090129114557084 0.3989023007630957 0 0.1120806251866435 0.4108921416416488 0 0.1151467804814495 0.4228830290347856 0 0.1182047519490922 0.4348822006686265 0 0.1212636931265508 0.4468806493091725 0 0.1243317843357532 0.4588858831014356 0 0.127401060583927 0.4708943535216266 0 0.1304735943819698 0.4829029958796385 0 0.1335488122404475 0.4949133602686215 0 0.1485884732828956 0.5102619820655943 0 0.1516640273323892 0.5222803700270391 0 0.1547403235682655 0.5343012469988098 0 0.1578181561031157 0.5463227430477726 0 0.1728425495165037 0.561685368367365 0 0.1758757766630737 0.573728369541987 0 0.1789062012763873 0.5857806263881339 0 0.1819641824463808 0.5978308499736986 0 0.1850432529403806 0.609861217615801 0 0.1881456696165248 0.6218719655407031 0 0.19126831409033 0.6338771401496703 0 0.2063240669054579 0.6492606334101857 0 0.2093988149490181 0.6613048435465143 0 0.2124820603266699 0.6733434642045304 0 0.2155518190822659 0.6853744733149152 0 0.2185578432432493 0.697498854422498 0 0.2215630126736507 0.7095852468097853 0 0.2365492529709372 0.7250299406923 0 0.2396363293881934 0.7370829797258551 0 0.2696411059681555 0.7679282275826745 0 0.2969766410092106 0.831692282967688 0 0.3275388859393815 0.9075446664485406 0 0.3306261354807558 0.9196394348683317 0 0.3590589853852003 0.9801469084540024 0 0.2546944512972892 0.7524776745097143 0 0.06135083051496888 0.3242469361383752 0 0.07324742134136358 0.3448031275395614 0 0.09097019683215248 0.3715970811231275 0 0.09403318891888153 0.3835787353722141 0 0.09709713897409851 0.3955648909578764 0 0.1366354387222434 0.5069229586515694 0 0.1608972896754034 0.5583433294190022 0 0.1943425056989405 0.6459224735712135 0 0.2245630665486734 0.7216801625149825 0 0.2427212949953377 0.7491359166764704 0 0.2577027228016487 0.7645333473712667 0 0.2726291830095205 0.7800230646006553 0 0.2757115060196773 0.7921128970135023 0 0.2787982300298277 0.8041865249436915 0 0.2818809530905534 0.8162602752642212 0 0.2849661720839036 0.8283349601744605 0 0.300067808259285 0.8437687107543531 0 0.3031584152686458 0.855847649290322 0 0.3062496574751838 0.8679288514838049 0 0.3093417481073213 0.8800106647828516 0 0.3124342606570089 0.8920936203886314 0 0.315527383225173 0.9041778561741383 0 0.3337134162533151 0.9317378465062611 0 0.3368056883395853 0.9438342215758774 0 0.3399013806531387 0.9559332642938073 0 0.3429979177951222 0.9680336283955647 0 0.348453132769806 0.9797373741678636 0 0.3625000000015083 1 0 0.3552646712071553 0.9896621348688597 0 0.05662185826843881 0.3353686972398654 0 0.06328921503740445 0.3432678759070842 0 0.07600645905008614 0.3562844600519327 0 0.0790670401274909 0.3682602997051109 0 0.100163460437361 0.4075541297036809 0 0.1032305788699133 0.4195436577044799 0 0.1062910844264034 0.4315366970425525 0 0.1093462154870874 0.4435331159227429 0 0.1123999131198779 0.4555390693217478 0 0.115466543240447 0.4675510803034124 0 0.1185367669931999 0.4795600792000001 0 0.1216099320034085 0.491570223626094 0 0.1246903139612444 0.5035813851162639 0 0.1397177331732505 0.5189369457250235 0 0.1427923432967668 0.530955806413985 0 0.1458691329411731 0.5429768545105131 0 0.1489459194764811 0.5549978554130783 0 0.1639429119090997 0.5703571292328113 0 0.1669720291431141 0.5824139488798764 0 0.1700050429985409 0.5944833593919967 0 0.173084593835923 0.6065144425235784 0 0.1761625105747749 0.6185438029377696 0 0.1792565303185752 0.6305654537854428 0 0.1823356812983123 0.6426091753412922 0 0.1974183624141971 0.6579631719537002 0 0.20050657183125 0.6699975164805969 0 0.2035932302095898 0.68203590544096 0 0.206663200825866 0.694067023177882 0 0.2096576714309394 0.706160431666836 0 0.212651662353512 0.7182756142947689 0 0.227657098226218 0.7337242804097639 0 0.2307383057144066 0.7457844210673759 0 0.2607033694193077 0.7766431550721224 0 0.2880537793040945 0.8404105764723451 0 0.3186188519889279 0.9162700975546356 0 0.3217091406750301 0.9283660296115165 0 0.245793504730278 0.7611767204217528 0 0.04918394795064049 0.3263141726373354 0 0.06459074224136083 0.3531659438714226 0 0.0821286932914799 0.3802384144745376 0 0.08518803018534783 0.3922239020189156 0 0.08824637019985135 0.4042157081803069 0 0.1277688057542229 0.5155948405014876 0 0.152016120258061 0.5670025127192055 0 0.1854359659203809 0.6546261920266596 0 0.2157105460437462 0.7303296852449002 0 0.2338225921785409 0.7578374734500286 0 0.2488077517062428 0.7732281705093295 0 0.2637389851699055 0.7887464063028051 0 0.2668031374137855 0.8008254308009761 0 0.2698917499522795 0.8128957000393473 0 0.2729569450743827 0.824976434748433 0 0.2760420173601831 0.8370521506785227 0 0.2911464018732951 0.8524874688549384 0 0.2942410338394649 0.8645655389891865 0 0.2973318016106552 0.8766474135439495 0 0.3004239065264316 0.8887306884972399 0 0.303517930614171 0.9008159869290677 0 0.3066111867953414 0.9129021274163938 0 0.3247917679155359 0.9404625756437086 0 0.327879102923863 0.9525647654551513 0 0.3309691625821671 0.9646645762955366 0 0.3345911312714482 0.9783653501901878 0 0.3427611780778415 0.9896689976843311 0 0.3500000000014564 1 0 0.04429600402776826 0.3375649506061645 0 0.05240490804169107 0.3483398150102373 0 0.06716395414440608 0.3649223814413536 0 0.07022434265111847 0.3769009619346663 0 0.09131336236784254 0.4162084296372618 0 0.09437920231851489 0.4281977869191499 0 0.09743531242272403 0.4401895137554896 0 0.1004779263289305 0.4521889436935802 0 0.1035428585125062 0.4641996750796059 0 0.1065997528740372 0.4762143877444713 0 0.1096707989528772 0.4882268529461168 0 0.1127447514707701 0.5002388622894556 0 0.1158206139679264 0.5122523002702065 0 0.1308435654880235 0.5276122179776068 0 0.1339208287590529 0.5396313367368399 0 0.1369979981728511 0.5516491110894634 0 0.1400767023681855 0.5636639836607145 0 0.1550714145609983 0.579045789002679 0 0.1581169439989882 0.5910845031875702 0 0.1611688428684245 0.6031355717187786 0 0.1642163520711225 0.6151881464973095 0 0.1672868109656267 0.6272282961223171 0 0.1703706110921863 0.6392596438937638 0 0.1734529621724605 0.6512937115129351 0 0.1885168706205156 0.6666625115678749 0 0.1916251195875318 0.6786858952935807 0 0.194706213408891 0.6907305966710611 0 0.1977733160787266 0.7027586779172577 0 0.2007832959993578 0.7148426987532972 0 0.2038300330695412 0.7269120856913491 0 0.218792350017935 0.7423863425124605 0 0.2218573467291927 0.7544644711060947 0 0.251812995573664 0.7853464483436339 0 0.2791285629703865 0.8491292165320306 0 0.3097003798178857 0.9249904708088936 0 0.3127899681194466 0.937089578946579 0 0.2368948296291113 0.769878752007696 0 0.03694827719583835 0.3279250292555594 0 0.0554324958332137 0.3613780032783669 0 0.07328293968311328 0.3888828362642196 0 0.07633538679830261 0.4008709457954405 0 0.07939103976084622 0.4128688357838948 0 0.1188979781661762 0.5242678839397145 0 0.1431571145431685 0.5756777714679426 0 0.1765359396641504 0.6633276643334252 0 0.206901293304279 0.7389677189591094 0 0.2249239198108749 0.7665398446954664 0 0.2398963908114138 0.7819415020815823 0 0.2548357243766096 0.7974578858804566 0 0.2578966737475107 0.8095324910527198 0 0.2609437141889528 0.821618051551824 0 0.264026567898631 0.8336951587062211 0 0.2671218421051458 0.8457682545804401 0 0.2822315822997458 0.8612020144416365 0 0.2853209974109018 0.8732845861741493 0 0.288412842485358 0.8853670298315015 0 0.2915050990934664 0.8974518152094381 0 0.29459738139898 0.909538852472188 0 0.2976903415346576 0.9216278664185578 0 0.315881462647208 0.9491880462496167 0 0.3189466046558987 0.9612472019710144 0 0.3219246418105953 0.9728184313197603 0 0.3307581332157792 0.9902491268790754 0 0.3375000000014043 1 0 0.03173184804990194 0.3391124097460466 0 0.03883629812296689 0.3486919779674112 0 0.04408889725275639 0.3590952458700831 0 0.05831765906123985 0.3735637468033841 0 0.06138335168759906 0.3855475173489403 0 0.08246053689332955 0.4248655438176711 0 0.08553079845895915 0.4368630936426502 0 0.08858021912382677 0.4488443323068401 0 0.0916452714357896 0.4608435181203757 0 0.09469735211404746 0.4728576624260521 0 0.09774604247642782 0.4848778764583442 0 0.1008042546181679 0.4968948324653547 0 0.1038783986429279 0.5089086150465143 0 0.1069529936976991 0.5209238819715081 0 0.121973997926221 0.5362860029354922 0 0.1250503337852847 0.5483039665115492 0 0.1281303026043275 0.5603216189744868 0 0.1312143703614987 0.5723416143375529 0 0.146216675402596 0.5877078993479039 0 0.1492648315927309 0.5997438892893709 0 0.1523049784658245 0.6118035087623337 0 0.1553248253258026 0.6238820945125909 0 0.1584055122974124 0.6359140895395471 0 0.1614861695007309 0.6479471370610487 0 0.1645712293160063 0.6599806583330288 0 0.1796297469713128 0.6753564288735021 0 0.1827297034756285 0.6873921541433871 0 0.185816854668145 0.6994229928269686 0 0.1888863697569121 0.7114536987168256 0 0.1919406559434477 0.723503051065039 0 0.1950172930642283 0.7355672390961392 0 0.209947845359491 0.7510483148270378 0 0.2129423163391535 0.7631887904996242 0 0.2428957519585052 0.7940615702155075 0 0.2702117515614034 0.8578430460548481 0 0.3007806634681916 0.9337171591926077 0 0.3038763941928286 0.9458131921731301 0 0.3250000000013524 0.9822474940937006 0 0.2279957729772277 0.7785810286926981 0 0.02466093093987413 0.3290772530655663 0 0.04658650686733552 0.3703424652010719 0 0.06443298066078393 0.3975329312863024 0 0.06748407178610244 0.4095219925778266 0 0.07053378512108954 0.4215245883533014 0 0.11002827579144 0.5329407196572074 0 0.1342982461263707 0.5843664576829941 0 0.1676541236296006 0.6720160027208999 0 0.1980962788948526 0.7476059276243081 0 0.2160242631959664 0.7752424036209448 0 0.2310038104579649 0.7906353320074243 0 0.2459173985589946 0.8061617109790805 0 0.2489478339213289 0.8182538439256403 0 0.2520268125919523 0.8303340130106093 0 0.2551155292391444 0.8424075319881577 0 0.2582066236011269 0.8544824235228605 0 0.2733094075328641 0.8699221405250162 0 0.276401629526263 0.8820034286299225 0 0.2794934261544966 0.894086870784856 0 0.2825845767874818 0.9061725944183654 0 0.285673507843284 0.9182622229310052 0 0.2887662635308817 0.9303530826767384 0 0.3069792106597221 0.9579120559862799 0 0.3098965410139653 0.9697656094580115 0 0.3138722769723558 0.9804692104180686 0 0.3187076680176881 0.9899691865469846 0 0.3250000000013522 1 0 0.01910355599583198 0.3416049609951576 0 0.0269937676080673 0.3504890306146451 0 0.03364212505786624 0.357734470521349 0 0.03504080711804129 0.36746631389184 0 0.04949896878424906 0.382231026246819 0 0.05253390321468206 0.3941993757628375 0 0.07360388799046652 0.4335251355571759 0 0.07666929986228382 0.4455213100770347 0 0.07973905426062353 0.4575205947664772 0 0.08279246272434414 0.4695156284845346 0 0.08584988221703549 0.4815233280751097 0 0.08888604834718418 0.4935422848046512 0 0.09193689000020625 0.5055638870932316 0 0.09501036554042516 0.5175794010829063 0 0.0980834086192523 0.5295958090224246 0 0.1131040198119683 0.5449583396290976 0 0.1161820306061861 0.5569768523891696 0 0.119262498863899 0.5689963500932222 0 0.1223449674400265 0.5810196272026141 0 0.1373529871001548 0.596387276264481 0 0.1404109811854093 0.6084127788826676 0 0.1434440377514573 0.6204585716732849 0 0.1464641550388127 0.6325422874054364 0 0.1495285932152271 0.6445948557549922 0 0.1526074170057846 0.656631727489575 0 0.1556888857072319 0.6686674437964555 0 0.1707479456052469 0.6840464397182406 0 0.1738380536491322 0.6960797337587354 0 0.1769274864298679 0.7081156960772286 0 0.1800108390443927 0.720160654940204 0 0.1830880355331262 0.7322044138340091 0 0.1861780357283273 0.7442506133720865 0 0.201097486871533 0.7596766382606308 0 0.2040930330469126 0.7718231371085558 0 0.2339929669175951 0.8027612913399116 0 0.2612991819174992 0.8665597894853072 0 0.2918617097534276 0.9424471107268003 0 0.2949584251695391 0.9545431728391373 0 0.2190968658224051 0.7872841572804468 0 0.01233909414134175 0.3297692325790432 0 0.03758867117833307 0.3788913023179204 0 0.05557823079490413 0.4061749199685499 0 0.05862815475664038 0.4181773895529557 0 0.06168209770752772 0.4301811888594376 0 0.1011583095189299 0.5416134201104874 0 0.1254229086761423 0.5930448259124076 0 0.1587728190760639 0.6807001215569233 0 0.1891830356163476 0.756299649267911 0 0.2071250052470724 0.7839455158175603 0 0.2220769233763112 0.7993457825078322 0 0.2369797317142429 0.8148733699135378 0 0.2400305140483888 0.8269641254677609 0 0.2431161260115289 0.8390460375678673 0 0.2462047342260651 0.8511202603296737 0 0.249293865318391 0.8631965470348284 0 0.2643913024813719 0.8786399783642338 0 0.2674828407981924 0.8907219924997829 0 0.2705728735789708 0.9028057124847539 0 0.2736586417304635 0.9148941329646318 0 0.2767487086350436 0.9269859461193983 0 0.279839610775365 0.9390796874456792 0 0.2980543475743831 0.9666426894875145 0 0.3015370206115434 0.9785427030332174 0 0.3061677903789903 0.9894718380567376 0 0.3125000000013003 1 0 0.009256432876121594 0.3391021550662849 0 0.01802511653119784 0.3539059740298871 0 0.02325085518749934 0.3629297842627657 0 0.02563606659780974 0.3755228766355839 0 0.0406269205735286 0.390869220616282 0 0.04368098730503345 0.4028587701762934 0 0.06474612997331623 0.4421866178128014 0 0.067818077045023 0.4541930811709388 0 0.07088486567266275 0.4661944697824443 0 0.07394843603668161 0.4781956665041774 0 0.07698081810033272 0.4901947242882953 0 0.08001525873528627 0.5022158811754398 0 0.08307069282471045 0.5142337313312517 0 0.08613980945775498 0.5262504820325077 0 0.08921228473381049 0.538268125970115 0 0.1042343237989442 0.5536317783268825 0 0.1073125311120673 0.5656516088886693 0 0.1103927580629891 0.5776732625352259 0 0.1134702651719328 0.589697068964697 0 0.1285014521901552 0.605071244976726 0 0.1315234335962592 0.617110829802912 0 0.1345364541722535 0.6291756071304015 0 0.1375642544391124 0.6412503427014058 0 0.1406449010254312 0.6532831565052503 0 0.143725406400246 0.6653176914068093 0 0.1468065665875173 0.6773514299420851 0 0.1618632268297435 0.6927341972559965 0 0.1649532911969048 0.7047666005860653 0 0.1680382658952705 0.7168082911311038 0 0.1711210559857976 0.7288534830616676 0 0.1742045389158755 0.7408995730820919 0 0.1772728898078788 0.752931756154625 0 0.1921700465723998 0.7684003099813239 0 0.1951411833786166 0.7805947555143509 0 0.2250841854395521 0.8114899824160871 0 0.252383431448599 0.875275080009235 0 0.2829345479007866 0.9511754132437136 0 0.2860770458937426 0.9631579418168058 0 0.2101926652343194 0.7959824465048092 0 0 0.33 0 0.009538839054949479 0.3489659719380268 0 0.02930978716925783 0.3870098002863974 0 0.04674777877375792 0.4148428737170069 0 0.0497995494553509 0.4268392475506614 0 0.05281602302451067 0.4388370178334534 0 0.09228779731138405 0.5502867753063014 0 0.1165472644072635 0.6017229037998713 0 0.1498923859782008 0.689385240001653 0 0.180269916391877 0.7650005456871238 0 0.1982254437524366 0.7926484236358318 0 0.2131774348232363 0.8080791542476209 0 0.2280539150043087 0.8236219438018417 0 0.23111876731648 0.8356824249364765 0 0.2341995941640587 0.8477598473478423 0 0.2372826347316008 0.8598358378161097 0 0.2403713913615788 0.8719131950814196 0 0.2554733084272652 0.8873569118748483 0 0.2585634201629289 0.8994397438758741 0 0.2616515947451242 0.9115245906468279 0 0.2647368993076609 0.9236178408431297 0 0.2678214004437051 0.9357178583927228 0 0.2709117525810026 0.9478067380897022 0 0.2894158062835684 0.9745700733429279 0 0.2921176423034223 0.987698782850112 0 0.3000000000012483 1 0 0 0.3424074074074549 0 0.01074513000994136 0.3610185185186057 0 0.01272156387636363 0.3739316470871992 0 0.01956484800945549 0.3835041831844297 0 0.03175741620072307 0.3995160234540168 0 0.03481607757466735 0.4115132135857725 0 0.0558839977593932 0.4508501830677379 0 0.05895575819967999 0.4628583528202429 0 0.06202697593136347 0.4748671851501931 0 0.06506280874264488 0.4868666158092887 0 0.06809267860451806 0.4988719005335194 0 0.07112833672629376 0.5108910908248008 0 0.07419473299417319 0.5229050281160817 0 0.07726670023745172 0.5349218608465396 0 0.08034109431489392 0.5469405867632025 0 0.09536459142149352 0.5623063062022193 0 0.09844185716808901 0.5743273220533019 0 0.1015185144243368 0.5863498797908137 0 0.1045925215842007 0.5983721993265332 0 0.1195894116171452 0.613766125319625 0 0.1225746566884976 0.6258433161292164 0 0.1256135638173087 0.6378941160682436 0 0.1286840310787879 0.6499322919488638 0 0.1317627705814358 0.661968272469183 0 0.1348429521912468 0.674002936370935 0 0.1379245236194282 0.6860368183495638 0 0.1529791426446148 0.7014172474143285 0 0.1560652389139624 0.7134578881806439 0 0.1591488318877728 0.7255007486746088 0 0.1622307781921017 0.7375463784415361 0 0.165312649628171 0.7495934553075727 0 0.1683834376938704 0.7616278208140549 0 0.183224119944442 0.7771469360203958 0 0.1862735081650092 0.7892556593722159 0 0.2161627236241517 0.8201875638950726 0 0.2434625725358729 0.88399363700153 0 0.2740060660433485 0.9599046476677049 0 0.2773820649347223 0.9713082434235984 0 0.2012925540040718 0.8046853733611983 0 0 0.3548148148148881 0 0.02021494110177578 0.3939179085584515 0 0.03799288632798389 0.4235053539351873 0 0.04100728154878069 0.4355271516861846 0 0.04388790673245192 0.4474859101729474 0 0.08341619063809885 0.5589602570444321 0 0.1076386456802392 0.6103951839175161 0 0.1410080371118371 0.6980716254910214 0 0.1713859687163235 0.7735968018844329 0 0.1893256851435929 0.8013520243068727 0 0.2042555572610116 0.816783776800727 0 0.2191471262681867 0.8323454897690412 0 0.2222035062939592 0.8443985102643226 0 0.2252717964047184 0.8564760131726044 0 0.2283610365715179 0.8685524339448333 0 0.2314513775651136 0.8806297718210191 0 0.2465541064623182 0.896075218592902 0 0.2496443037596369 0.9081588740364843 0 0.2527273584308009 0.9202450407680001 0 0.2557996790823115 0.9323447984180012 0 0.2588887244245002 0.9444747397689603 0 0.2619802320273722 0.9565355380552407 0 0.2813590072822608 0.980512420892132 0 0.2875000000011962 1 0 0 0.3672222222223236 0 0.009941881302070465 0.3871386833545168 0 0.02180533031131792 0.4077551089174131 0 0.02667579916196897 0.4201825404097871 0 0.04695441178789228 0.4595007168690425 0 0.05005401560553016 0.4715107763866058 0 0.05311216188409088 0.4835259588534793 0 0.05614777827846683 0.4955324051488337 0 0.05918811461077143 0.5075458669608621 0 0.06224443124281293 0.519557003310834 0 0.06532056149523566 0.5315752779922056 0 0.06839486435351989 0.5435940933704675 0 0.07146922245412436 0.5556136728494445 0 0.08649183723701777 0.5709811092587523 0 0.08956837036713616 0.583003010367828 0 0.09264206742034577 0.5950239381077346 0 0.09570321550023093 0.6070386937912711 0 0.1106593886912336 0.6224598015799138 0 0.1136541318594617 0.6345483594416782 0 0.116724041537318 0.6465846880352699 0 0.1198012669428395 0.6586191735525011 0 0.1228802125114374 0.6706537659951808 0 0.1259606108494111 0.6826883001095104 0 0.1290422040041477 0.6947232413116657 0 0.1440941643013414 0.7101079589557528 0 0.1471774815676479 0.7221491458228156 0 0.1502591790300785 0.7341926696643808 0 0.1533401022590619 0.7462347131643562 0 0.1564204526900791 0.7582728848851241 0 0.1594834767276501 0.7702968404151416 0 0.1743953264412838 0.7857965361766857 0 0.1774210816987957 0.7979335441590867 0 0.2072562271487332 0.8289470403123521 0 0.2345423662376701 0.8927116366351768 0 0.2656321719818265 0.9684929618580098 0 0.2790829353854212 0.99022581658023 0 0.2689515838177556 0.9808824272036898 0 0.1923926936186561 0.8133891060639453 0 0 0.3796296296297976 0 0.01033570666735036 0.3993895974162471 0 0.02956050412350038 0.4323354226063741 0 0.03198681962888638 0.4441599580184844 0 0.03501414688611863 0.4560869047794436 0 0.0745435186112479 0.5676343393132384 0 0.09871052496090578 0.619103814979901 0 0.132124961073894 0.7067599759037377 0 0.1625335276153242 0.7823322195373904 0 0.1804435149279706 0.8100734922098193 0 0.1953673487839653 0.8255297286403371 0 0.2102295756383596 0.8410505540094447 0 0.2132644287758997 0.8531136797514278 0 0.2163494339729533 0.8651916204758274 0 0.2194395853931424 0.8772681653020201 0 0.2225308626328922 0.889347498646846 0 0.2376332648443417 0.9047945211498126 0 0.2407229222138952 0.9168777768517997 0 0.2437915541349478 0.9289720574055012 0 0.2468601496664054 0.9410682630379876 0 0.2499692178670523 0.9533828543668933 0 0.2531378418194705 0.9665658257738513 0 0.2750000000011442 1 0 0 0.3920370370372308 0 0.01005208728893799 0.4110444021852068 0 0.01745033237432324 0.4168530960555643 0 0.01912710482592637 0.4283586346897897 0 0.03814196799156986 0.4681375719156565 0 0.04113281783858451 0.4801748727110207 0 0.04419014421688326 0.4921862118009654 0 0.04724076161189247 0.5041978769348873 0 0.05029979125217086 0.5162113110656166 0 0.05337436182445239 0.528229018586474 0 0.05644893978881641 0.5402475849576382 0 0.05951883373272161 0.5522673063395274 0 0.0625960850575491 0.5642866091417718 0 0.07761846283635379 0.5796559706403879 0 0.08069470244820308 0.5916785134272466 0 0.08377156675353903 0.6037016822551272 0 0.08679301951134608 0.6157209383772126 0 0.1017219853715946 0.6311696645928015 0 0.1047687685998839 0.6432327226773134 0 0.1078388580772951 0.6552719526154138 0 0.1109180390727195 0.6673044762705974 0 0.1139977777406278 0.6793388481373414 0 0.1170775810844466 0.6913741930447623 0 0.1201584624812407 0.7034102600096332 0 0.135207342371262 0.7187987775178022 0 0.1382892828177743 0.7308395218737971 0 0.1413710732127909 0.7428775629426785 0 0.1444503784262344 0.7549102476548906 0 0.1475417527133934 0.7669548931487166 0 0.1506357209369104 0.7789964222211312 0 0.1655337525078082 0.7945140560865928 0 0.1685320619262856 0.806651594618776 0 0.1983285669300573 0.8376325332744093 0 0.2256220133854817 0.9014291725989514 0 0.2594834206809007 0.9765114893098672 0 0.2686407902507288 0.9918342176639346 0 0.1834958916182354 0.8220963462555819 0 0 0.4044444444446639 0 0.02070371382717135 0.4401802481789444 0 0.02257830567277347 0.4523324622937051 0 0.02614966627710708 0.4644460676666967 0 0.06566897721979761 0.5763089660998741 0 0.0897468950107904 0.6278386076206912 0 0.1232395561735353 0.7154479921365509 0 0.153704004857313 0.7910252381756681 0 0.1715469228780415 0.8187811940727211 0 0.1864413218925506 0.8341896657726671 0 0.2013076573191953 0.8497451080624695 0 0.2043504370502217 0.861821764064549 0 0.2074364564300115 0.8739043994054934 0 0.2105245717444089 0.88598285456114 0 0.213612917450046 0.8980639708701058 0 0.2287125176072959 0.9135135992125247 0 0.231789991242581 0.9255965500858664 0 0.2348492241736931 0.9376999152713512 0 0.2379379640730527 0.9497908074165258 0 0.2410033717045976 0.9616501506028163 0 0.2497607394601802 0.9784010608883176 0 0.257669432048231 0.988062844535754 0 0.2625000000010923 1 0 0.01035222479312788 0.423056274746419 0 0 0.4168518518521316 0 0.01016565785378784 0.4353782490807317 0 0.02968191955835112 0.4766838349430354 0 0.03221530822911707 0.4888350529433708 0 0.03528488028618258 0.5008498686248108 0 0.03835839833128947 0.5128659328468177 0 0.04141927017524238 0.5248708915537748 0 0.04435572065476158 0.5369388407366685 0 0.04755302546455038 0.5489256595784086 0 0.05074649034315555 0.5608624951600263 0 0.05372125524850513 0.5729611872318308 0 0.06874484339948159 0.5883309555846667 0 0.07182076050821529 0.6003539044047124 0 0.0748862047908949 0.6123669096692081 0 0.07788345848063574 0.6244076538798116 0 0.09280948159756508 0.6398837970835862 0 0.09587734535461942 0.6519255083887647 0 0.09895760488130975 0.663956144205909 0 0.1020364946520898 0.6759886586785169 0 0.1051154060189426 0.6880232715705004 0 0.108194092643074 0.7000593552359834 0 0.1112736034648327 0.712096854400493 0 0.1263209183851678 0.7274872299076465 0 0.1294018967481747 0.7395270965752054 0 0.1324862804667293 0.751561136714011 0 0.135576317754649 0.7635955334283006 0 0.138659352762379 0.7756425326749998 0 0.141750062189446 0.7876636911353386 0 0.1566260664535452 0.8032177498146412 0 0.1596210330915527 0.8153895313697948 0 0.1893692707975398 0.8463331028491865 0 0.2167021844899583 0.9101471080271453 0 0.2438898233110105 0.9710083305387691 0 0.1745931865782766 0.8307981266360116 0 0.01086455884912095 0.4476142719425328 0 0.0128723913970556 0.4617730354067526 0 0.02017282118036497 0.4726250204512652 0 0.05679569585233088 0.5849832275098616 0 0.08087330272666741 0.636514036368752 0 0.1143540650512565 0.7241348678092658 0 0.1447288517194777 0.7997204415169105 0 0.1626307359369413 0.8274694047429717 0 0.1775466867020521 0.8428341500213182 0 0.1923507794925692 0.8584581835707177 0 0.1954346536832839 0.8705396118649295 0 0.1985490047018993 0.8826043842697942 0 0.2016200687712323 0.8947007537728108 0 0.2046934670075099 0.9067808741961062 0 0.2197901478535277 0.9222298878518582 0 0.2228653440565073 0.9343063431384468 0 0.2259470155903599 0.9464082036444404 0 0.2290108909638076 0.9584867536617979 0 0.2326896172981543 0.9694950246919243 0 0.238446958482752 0.9793000257399244 0 0.2440010198346697 0.9893201440216728 0 0.2500000000010403 1 0 0 0.4292592592595735 0 0 0.4416666666670066 0 0.01996852193529961 0.4851903989463479 0 0.02333878789142552 0.4975037058287203 0 0.02707738569265201 0.5093500096013974 0 0.02949897394563156 0.5214702112725814 0 0.03251773119495533 0.5333976018624927 0 0.03573672247214438 0.5452360003062169 0 0.03931454330838744 0.5571205190074677 0 0.04177519924721971 0.5696136896611517 0 0.04484762372784774 0.5816355967309959 0 0.0598707876728636 0.5970053314004397 0 0.06294416006963399 0.609027964445675 0 0.06596108302152973 0.621049625582052 0 0.06897869867652202 0.6331264353108974 0 0.08392925787340422 0.6485725535173306 0 0.08699846013685783 0.6606081951442841 0 0.09007755377528504 0.6726385163298551 0 0.09315396622184098 0.6846733427199051 0 0.09623072870131349 0.6967091844105595 0 0.09930865642706001 0.7087462116629689 0 0.1023882814583084 0.720783390508325 0 0.1174343562998428 0.7361730161169567 0 0.1205162910663761 0.7482100304085531 0 0.1236017255921508 0.760246349274439 0 0.1266856943465256 0.7722888823473772 0 0.1297742080052288 0.7843121242525124 0 0.1327383942420492 0.7964316874237218 0 0.1476093019315233 0.8119804407325417 0 0.1506529625389677 0.8241139335935184 0 0.1804927897474826 0.8549849011967676 0 0.2077822851792748 0.918864117877717 0 0.1657048467796466 0.8395149833115079 0 0 0.454074074074455 0 0.01010172213499828 0.4748127539578378 0 0.0479246477264636 0.5936617138813651 0 0.07197595181282618 0.6452432740885816 0 0.1054681678305303 0.7328212512867414 0 0.1356634506665641 0.8085607155472136 0 0.1537279356769123 0.8361726391948685 0 0.1686632348010177 0.8515426869410075 0 0.1834737460508118 0.8671611146700468 0 0.186567470970194 0.8792231979033525 0 0.1897108066122653 0.891275488111039 0 0.1927678441464549 0.9034273820392428 0 0.1958065473604508 0.9155328958198732 0 0.2108682005390094 0.9309469880105752 0 0.2139500170778416 0.943030495558473 0 0.2170252070621127 0.9551023181625131 0 0.2201792658459847 0.9670500009667315 0 0.2255014234719979 0.9785121846560878 0 0.2316262002768247 0.9895337133424463 0 0.2375000000009883 1 0 0 0.4664814814819163 0 0.01120555590352692 0.497124657506313 0 0.008255159994764961 0.4854625991193262 0 0.01836997013642401 0.5054261399095248 0 0.01929501816677841 0.5164982390023568 0 0.0209888232856605 0.5293703598236288 0 0.02309630287404072 0.54248856274279 0 0.03014818890357703 0.5531289370783278 0 0.02952652716431383 0.5647597099068657 0 0.03301895789394756 0.5784096959277315 0 0.0359930373873299 0.5903310143588637 0 0.05099457329411877 0.605681282692601 0 0.05406266683720194 0.6177009323984556 0 0.05707838571965008 0.629747853842797 0 0.06008849733488645 0.6418167128363086 0 0.07504100561188939 0.6572605100300152 0 0.07811986933782873 0.6692891522514604 0 0.08119658007083699 0.6813200248748591 0 0.08426703411257795 0.6933604004551398 0 0.08734597758192515 0.7053951524124816 0 0.09042411561584743 0.7174322070515518 0 0.09350301784150222 0.7294694759851822 0 0.1085488228215008 0.7448586782375798 0 0.1116306262061496 0.7568966458087042 0 0.114713829302848 0.7689363597416474 0 0.1177946777299897 0.7809804886192975 0 0.1208057770104825 0.7930773547094589 0 0.1237080158610961 0.8052557973808973 0 0.1386678385074084 0.8207227519218937 0 0.141723169514221 0.83283569402655 0 0.1716777408005213 0.8636925091414716 0 0.1988677230449061 0.9275887151848381 0 0.1567906313062222 0.848206099340251 0 0 0.4788888888893493 0 0.03904616842429073 0.6023338305954286 0 0.0630968471731056 0.6539248699582916 0 0.09658256842042311 0.7415072754462603 0 0.126640673577862 0.8173441077592596 0 0.1448191898331108 0.8448801269198891 0 0.1598060041045322 0.8602497087101166 0 0.1747432859173335 0.8758002201666992 0 0.1778633481646203 0.8878432195667745 0 0.1809463428142144 0.8999581742427296 0 0.1839459828552178 0.9121579212616724 0 0.1868904077768911 0.9242569207239295 0 0.2019544580782527 0.9396700507184599 0 0.2050203894965756 0.9517545390812119 0 0.2080436633981071 0.9638839160624244 0 0.2111549736513859 0.9771778131670541 0 0.2186759069059518 0.9894644994335551 0 0.2250000000009362 1 0 0 0.4912962962967825 0 0.009736575025057334 0.5105207178568159 0 0.009902801092781442 0.5232298826441307 0 0.01044785465386156 0.5352338267194807 0 0.02068253835939989 0.5554499764311697 0 0.02137448267498207 0.5754944759552695 0 0.02393107901188378 0.5872071712185933 0 0.02750669023448994 0.5989217306417342 0 0.04211914966553255 0.6143567370974361 0 0.04518287757080147 0.6263676997176579 0 0.04819649087695891 0.6384257172114107 0 0.05120654659906507 0.6505220940632639 0 0.06616359342805252 0.6659402996926937 0 0.06924152591203789 0.6779678289092111 0 0.07231252086093017 0.6900062968756125 0 0.07538577527987317 0.7020438574984229 0 0.07846251936930111 0.7140814575487633 0 0.081539598236129 0.7261180501292221 0 0.08461803748190111 0.7381555752050986 0 0.09966312763275971 0.7535449888103498 0 0.1027439849252115 0.7655845259029076 0 0.1058242505448272 0.7776262871238769 0 0.1088316236014978 0.7897625118156859 0 0.1117601250783889 0.8019177748133559 0 0.1146907380093597 0.8140919403022734 0 0.1297174728153122 0.8295016198722794 0 0.1328160826765825 0.8415473761718286 0 0.1628873841819502 0.8724164231641912 0 0.1899464820967898 0.9363109038612454 0 0.1479099626713802 0.8569336454739696 0 0 0.5037037037042373 0 0.0106952618664444 0.5472143826731076 0 0.01843788474245297 0.5653876261644686 0 0.03017046218640084 0.611010779717838 0 0.05421063435247715 0.6625942857814381 0 0.08769736625130616 0.7501929831659034 0 0.1177095543484846 0.826168684423364 0 0.1359288189811298 0.853584681588866 0 0.1509570079615121 0.8689683528691845 0 0.1660250547759847 0.8845124365023995 0 0.1692264252206057 0.8964611618467504 0 0.1721636498861225 0.9085838726308988 0 0.1750636918235662 0.9208301472936654 0 0.1779910709487439 0.9329895556075695 0 0.1930256721859325 0.9483886781710186 0 0.1960997456449723 0.9605191688425352 0 0.1991388752000429 0.9723580213440619 0 0.2060950206057817 0.989914302672628 0 0.2125000000008843 1 0 0 0.5161111111116921 0 0 0.5285185185191252 0 0 0.5409259259265801 0 0.01019570735021254 0.5597745912015292 0 0.0112787847737799 0.5852611150024328 0 0.0104101681633565 0.571459377327509 0 0.01659939038963881 0.597028796864215 0 0.0209552784453873 0.60665245891022 0 0.03324383528578806 0.6230303040000253 0 0.03630772617895607 0.6350409941414206 0 0.03932904353965107 0.6470083977124573 0 0.04235483399619651 0.659163162016403 0 0.0572867743234467 0.6746195392604505 0 0.06035949282329121 0.6866498743068294 0 0.06342471696696385 0.6986957952092134 0 0.06650222930691137 0.7107315357261009 0 0.06957742019512059 0.722767942474801 0 0.07265546472503884 0.7348030545206471 0 0.075733720073158 0.7468398204507253 0 0.09077589640572843 0.762232511208325 0 0.09385571197970621 0.7742723325563068 0 0.09693444898319975 0.7863128790998839 0 0.09978840352581494 0.7985848993098736 0 0.1027361924620826 0.8107341453619465 0 0.1057320041525352 0.8228229386033652 0 0.120810076474746 0.838212194386504 0 0.1239200986586039 0.8502465804900166 0 0.154076932548481 0.8810744901056015 0 0.1810135283405448 0.9450234340887268 0 0.2004365849482017 0.9817211116980771 0 0.1390148529934848 0.8656433986289374 0 0 0.5533333333340349 0 0.0201022030823113 0.6182449011597467 0 0.04533265340668841 0.6712715331679676 0 0.07881081084591009 0.7588797210966156 0 0.1088166572850237 0.8348695663696177 0 0.1270261166207871 0.8622944947702305 0 0.1421083325808106 0.8777016831208224 0 0.1572345119985515 0.8931293083044954 0 0.1603067443509761 0.9051196327339606 0 0.1632336924057082 0.917365995454323 0 0.1661773832670603 0.9295085607102676 0 0.1691281155638102 0.9417128284936238 0 0.1840975376836115 0.9571102867002512 0 0.1872723359055644 0.9696195716962427 0 0.1906262473961362 0.9812775162830873 0 0.1939860701627562 0.9912375738114063 0 0.2000000000008322 1 0 0 0.5657407407414687 0 0.007014306743276816 0.5967662205104872 0 0 0.5781481481489228 0 0.0103976463340956 0.6080560861675662 0 0.0244898984723318 0.6312748660453672 0 0.02773537733109537 0.6432887865697102 0 0.03067105926427806 0.6556585730271731 0 0.03337906681501933 0.6679240883461186 0 0.04840896270895181 0.6832968959117217 0 0.05148198246777847 0.6953189869423255 0 0.05455070030060181 0.7073797962556243 0 0.05761909001939787 0.7194174347313861 0 0.0606951213662193 0.7314506878016297 0 0.06377267654402997 0.7434841392828533 0 0.06684877190839394 0.7555226362209735 0 0.08188849518949005 0.770919649137497 0 0.08496778873280836 0.7829592749838425 0 0.0879447984341454 0.7950390706750131 0 0.0906653700198667 0.8074348206219054 0 0.09375717454754891 0.8194852776231244 0 0.09684232687524008 0.831529243396923 0 0.1119206968768889 0.8469017924023424 0 0.1150389066036127 0.8589364144300113 0 0.14523131818393 0.8897512526982732 0 0.1721222697994157 0.9537851903056214 0 0.1301143537772034 0.8743508045921021 0 0 0.590555555556356 0 0.009240315927423186 0.6189676596280957 0 0.01294809307523268 0.6283064704831582 0 0.03645602970220908 0.6799494993529583 0 0.06992330736192456 0.7675663583709422 0 0.09993314931045238 0.8435626795772206 0 0.1181257140076656 0.8709978983215094 0 0.133218327233066 0.8864023756699586 0 0.1483466102081588 0.9018018297765118 0 0.151376182621838 0.9138542566126594 0 0.1543629291940539 0.9260194608719656 0 0.1573192497160934 0.9382028410875073 0 0.1602677772912129 0.950426870495459 0 0.1751632093381882 0.966198259274883 0 0.1781513940569435 0.9786469237016543 0 0.1817288061994498 0.9904012896399744 0 0.1875000000007802 1 0 0 0.6029629629638107 0 0 0.6153703703712551 0 0.01654051201350799 0.6385723078534735 0 0.01924485186596644 0.6509050409554353 0 0.02156261272587427 0.6637832401869661 0 0.02423403862212202 0.6762468188515113 0 0.03953236712997064 0.691974640737443 0 0.04266537533983353 0.7039931437310187 0 0.04566647848899225 0.7160615306609877 0 0.04873679818032284 0.7280998821268493 0 0.051813797980168 0.7401311167224904 0 0.05488936390667574 0.7521648047334556 0 0.05796278408940729 0.7642022381052778 0 0.073001690684901 0.7796062347446142 0 0.07605901798568095 0.791623320166821 0 0.0789813720265512 0.8037273354886306 0 0.08177755019892366 0.8161315542778946 0 0.08488996065237348 0.8282024750894117 0 0.08795309867958101 0.8402233715109292 0 0.1030312177883616 0.8556006088507911 0 0.1061346311605907 0.8676450392932892 0 0.1363247185074791 0.8984596193801553 0 0.1631971159015227 0.9625765991823363 0 0.1212144971273224 0.8830578220650529 0 0 0.6277777777786986 0 0.007636394469248665 0.6357683286543429 0 0.02767446102424626 0.6882477839956783 0 0.06103676065473665 0.7762478737464049 0 0.09104570038239701 0.852258698970264 0 0.1092246943835544 0.8797036895125316 0 0.124309253431582 0.8951145267030507 0 0.1394193828941397 0.9105215738132055 0 0.142518429717924 0.9226025202922763 0 0.1455602200397962 0.934691088592438 0 0.1484190729406269 0.94685823736129 0 0.151385933124993 0.9590490414699955 0 0.1661342880479927 0.9749661142996378 0 0.1681031194457907 0.9887789589951069 0 0.1750000000007281 1 0 0.009036066224511431 0.6463083793644896 0 0.01024424914995837 0.6585859769515746 0 0.01110164059708896 0.6711290657405397 0 0.01342018528057547 0.6850722984085221 0 0.03105819319249992 0.70050299727412 0 0.0339137724384297 0.7126494433641143 0 0.03685935556091167 0.724729650637547 0 0.03985658980940904 0.736780575130496 0 0.04293304314664313 0.7488103817098672 0 0.04595675130331836 0.7608382675901405 0 0.04900319223167474 0.7728815194498486 0 0.06411238796918103 0.7882883395688 0 0.06718148032825629 0.8003180335760238 0 0.07014435158353291 0.8122379320968341 0 0.07302513582116316 0.8246721222355116 0 0.0759988370785302 0.8368939104618314 0 0.07906318198429535 0.8489154541908921 0 0.09414144605685551 0.8643032883636965 0 0.09723495107891579 0.8763526840264289 0 0.1274234190939985 0.907166157619933 0 0.1546315462485451 0.971173746297143 0 0.1123128428586245 0.8917636394848774 0 0 0.6401851851861535 0 0.02013859751137596 0.6971672850126274 0 0.05214294727574958 0.7849276058686316 0 0.08215607139263816 0.8609579963107856 0 0.1003232834258185 0.8884087599913447 0 0.1154049688616209 0.9038240886433547 0 0.1305191274511449 0.9192431216617712 0 0.1336163307985797 0.9313233703783061 0 0.1366705291441614 0.9433648447142009 0 0.1398167399156998 0.9554899390532625 0 0.1436474288989509 0.9678841872180257 0 0.1566499907087169 0.982851932748972 0 0.1625000000006761 1 0 0 0.6525925925936003 0 0 0.6650000000010197 0 0 0.6774074074084013 0 0.009848545096592266 0.6959633227297159 0 0.02240886442407427 0.7093904886819922 0 0.02548645112534173 0.7212330994891556 0 0.0283703841374759 0.7333112366124942 0 0.03127771394379898 0.7453833374419985 0 0.03410354685409601 0.757475870435779 0 0.03678077010266843 0.7695058979595801 0 0.04013913996416817 0.7815672334290574 0 0.05522802665988946 0.7969747025772234 0 0.05828459585596703 0.8089903116261563 0 0.06120496226776388 0.8211652882429534 0 0.06413515314585483 0.8334015732441449 0 0.06709068130559805 0.8455662158822986 0 0.07017602244256438 0.8576094811611883 0 0.08524610453822985 0.8730047027306205 0 0.08833570628878909 0.8850548766671252 0 0.1185115962278942 0.9158902648885061 0 0.1477135383724884 0.9787381021848141 0 0.1563217643358997 0.9926157041602278 0 0.1034122572599989 0.9004710402058762 0 0 0.6898148148157613 0 0.01098381476167543 0.7065363788265127 0 0.04327036868610264 0.7936170732934207 0 0.07326428261755774 0.8696536997637612 0 0.09142283193980186 0.8971142345385668 0 0.1065055921133206 0.912533921020117 0 0.1216204534149003 0.9279699194972209 0 0.1246981889044925 0.9400422463424306 0 0.1277914324232 0.9521267801421137 0 0.1303435275215481 0.9661468277229097 0 0.1374167614668705 0.9779907810919514 0 0.1453753391989184 0.9890618701114592 0 0.1500000000006241 1 0 0 0.7022222222231429 0 0.01256286742540725 0.7203157343756514 0 0.01936867845711196 0.7292066945197224 0 0.02040708363815955 0.739992471879797 0 0.02210856467848017 0.7523963833319955 0 0.02304667718296137 0.7661098430740729 0 0.02825008936593255 0.7781946086824157 0 0.03150197135286539 0.790483428138344 0 0.04634156975812072 0.8056574944154554 0 0.04939839956311382 0.8176718753307706 0 0.05230756724027037 0.8298863724218043 0 0.05511921193707562 0.8422170312204424 0 0.05820440989372037 0.8542592578528752 0 0.06128801182494999 0.8663040905717067 0 0.0763520628292545 0.8817024816527022 0 0.07943751926928108 0.8937561159095573 0 0.1095994973714892 0.9246040364282512 0 0.09451076853459107 0.9091779726343784 0 0 0.7146296296305246 0 0.03440598911459462 0.8023200981615175 0 0.06437246492714081 0.8783510280199802 0 0.08252265565750962 0.9058152180090772 0 0.09759639970797748 0.9212477662245258 0 0.1127816859022683 0.9367302985708436 0 0.11590842537672 0.948711743472062 0 0.1186625608458031 0.9603303029589615 0 0.1251639540296912 0.9787384729110051 0 0.13151717527693 0.9893233096279908 0 0.1375000000005722 1 0 0.01063489702152094 0.7335065408814456 0 0 0.7270370370379062 0 0.01068226359056934 0.7461506384911261 0 0.0105255233956608 0.7580555555562996 0 0.01846500709492697 0.7766666666673866 0 0.02034972561333277 0.7869860793079422 0 0.02252978611036118 0.7992342157609361 0 0.03745788903689452 0.8143405208166611 0 0.04052774357020752 0.8263674660121043 0 0.0434599329576066 0.8384950004804104 0 0.04632940846056611 0.8507840237810514 0 0.04931729841687402 0.8629526157943026 0 0.05239959761258135 0.8749979863427337 0 0.0674571321852391 0.8903996375590888 0 0.0705413936264315 0.9024526930345722 0 0.1007360019159052 0.9333692747195548 0 0.1199058150706215 0.9704673306850493 0 0.08560304539070292 0.9178866389843801 0 0.01074513000987598 0.7704629629636878 0 0.02556467542542122 0.8109929533815589 0 0.0554812008417894 0.8870459735107532 0 0.07362150054896228 0.9145073960029003 0 0.08869335348904213 0.929968766304976 0 0.1039316327347294 0.945456588421191 0 0.1071494530049319 0.9575889257016281 0 0.1101585715070622 0.9694313070654934 0 0.1187255508012822 0.9896256696012822 0 0.1136156815317689 0.979367838273393 0 0.1250000000005201 1 0 0 0.7394444444452662 0 0 0.7518518518526134 0 0 0.7642592592599863 0 0.01014495261082746 0.7826249062003715 0 0.01120654714508311 0.794712650398199 0 0.01204650220912407 0.8087297480551668 0 0.02888022379638513 0.8229477482260253 0 0.03183151566704343 0.8351070320212727 0 0.03448996381797004 0.847383131729694 0 0.03735051980909741 0.8596035946618266 0 0.04042947455448689 0.8716481151783443 0 0.04350959262450777 0.8836947513382747 0 0.05856398147974593 0.8990932655314188 0 0.06164557261785098 0.9111445251953915 0 0.09183377502402379 0.9420925859019647 0 0.07669978114114817 0.9265926647640228 0 0 0.7766666666673896 0 0.01790150432214847 0.8209045308088921 0 0.0465905000133021 0.8957395080112216 0 0.06471483925151202 0.9232245656744404 0 0.07978660685726705 0.9386833200980675 0 0.09510483045451103 0.9542475148876202 0 0.09828102538820761 0.9663563869846901 0 0.1015075316622385 0.9783678607351194 0 0.1125000000004681 1 0 0.1062326661197182 0.9895763886424092 0 0 0.7890740740747344 0 0 0.8014814814820662 0 0.007659093442923569 0.8202820314793946 0 0.02227705450975809 0.8309842618223847 0 0.02202689875335519 0.8434619980552132 0 0.02571825891253391 0.8561698928885357 0 0.02911215142831835 0.8681297844468867 0 0.03153574029986106 0.8803542437635364 0 0.03462026341377213 0.8923886889498869 0 0.04967094306413537 0.9077852275307727 0 0.05273540869691339 0.9198564730730251 0 0.08287600192286768 0.9507572284106456 0 0.06778699467031329 0.9353065169369641 0 0 0.8138888888894696 0 0.01074513000985824 0.8325000000005205 0 0.03769968052101143 0.9044294180028205 0 0.05579977783388401 0.9319398180743389 0 0.07086319359666376 0.9473843621330836 0 0.08608659081560467 0.9629228484949477 0 0.08916065113430495 0.9752000347505599 0 0.09227222597428661 0.9885597148028499 0 0.100000000000416 1 0 0 0.8262962962968513 0 0.01770561572860519 0.8518102171831571 0 0.01875915541071294 0.8632403583920151 0 0.02034439485102172 0.8758401374135532 0 0.02076919316727549 0.888643695294683 0 0.02575998690261061 0.9009830937512593 0 0.04077539958298181 0.9164709886217096 0 0.04381270144643612 0.9285847741211306 0 0.07395582531788646 0.9594607582112579 0 0.05886455095672467 0.9440254316574636 0 0 0.8387037037041897 0 0.01002328303500053 0.8458565171840362 0 0.02909798592562277 0.9129495667294398 0 0.04687406775850939 0.9406689182216029 0 0.06195314401761468 0.956095999033976 0 0.07714121067585039 0.9715151677249139 0 0.07943590364363035 0.9832177419343848 0 0.08750000000036418 1 0 0.009662053718184578 0.8575520730495658 0 0.01001245782561389 0.8699400453703925 0 0.01044219763366081 0.8817253423951692 0 0.01325956570365375 0.8995281940375235 0 0.0173934336670063 0.9095806845869068 0 0.03222038846639325 0.9251037474380286 0 0.03488720476009902 0.9373136954777204 0 0.06558908641428748 0.9680334557918094 0 0.08125000000033818 0.9929679638900218 0 0.04995765635186189 0.9527315027309271 0 0 0.8511111111115715 0 0.008703089024413219 0.8912364162629964 0 0.02123199815932142 0.9214480505783471 0 0.03797180635735802 0.9493690247500526 0 0.05307744545848812 0.966085935165281 0 0.06813145604885681 0.9802582788149284 0 0.070098023275006 0.9908281049000955 0 0.07500000000031215 1 0 0 0.8635185185189748 0 0 0.8759259259263067 0 0 0.8883333333336514 0 0.007873617364788485 0.9078283486372445 0 0 0.900740740741054 0 0.009421965228060701 0.9179117840574049 0 0.02320504776089112 0.933954418028287 0 0.02650796987679368 0.9458779258605367 0 0.05919253807214601 0.9760649361390429 0 0.04108625170529626 0.9606406635366996 0 0.01073380927594539 0.9308761652567359 0 0.0300977865614401 0.957512864943751 0 0.04979204114993238 0.9782184916937986 0 0.05750603581596628 0.9878510050397883 0 0.06250000000026001 1 0 0 0.9131481481483843 0 0 0.9255555555557314 0 0.01305921607552027 0.9443848520232089 0 0.02031374233374105 0.9538813000642012 0 0.0434459750912978 0.9706739678370668 0 0.03278331588342317 0.9681158626801446 0 0 0.9379629629631597 0 0.02147332676903634 0.9641383566359878 0 0.03777573718367902 0.9789435439864179 0 0.04398138870488488 0.988969283315221 0 0.05000000000020799 1 0 0 0.9503703703705487 0 0.01105407149022816 0.9573445012420335 0 0.02354467416136798 0.9776776440574957 0 0.01123701724687035 0.9703286271495913 0 0.0313648268052005 0.989238428595329 0 0.03750000000015596 1 0 0 0.962777777777879 0 0.01070907755474478 0.9817635815427359 0 0 0.9751851851852422 0 0.01889585481469774 0.9898221880465079 0 0.02500000000010405 1 0 0.009092035120625565 0.9909330519583848 0 0 0.9875925925926616 0 0.01250000000005203 1 0 0 1 0 </DataArray>
      </Points>
      <Cells>
        <DataArray type="Int32" Name="connectivity" format="ascii">0 1 2 1 3 2 4 0 2 3 5 2 6 0 4 5 4 2 3 7 5 6 4 8 4 5 9 7 10 5 11 6 8 8 4 9 5 12 9 7 13 10 5 10 12 14 11 8 15 8 9 12 16 9 10 13 17 13 18 17 12 10 19 20 11 14 14 8 15 16 15 9 21 16 12 10 17 19 18 22 17 18 23 22 21 12 19 20 14 24 25 14 15 16 25 15 21 26 16 19 17 27 17 22 27 22 23 28 23 29 28 30 21 19 31 20 24 14 32 24 32 14 25 16 26 25 33 26 21 30 19 27 22 34 27 22 28 34 28 29 35 33 21 30 36 31 24 32 36 24 37 32 25 26 37 25 38 26 33 34 30 27 34 28 39 29 40 35 28 35 39 33 30 41 42 31 36 32 43 36 37 43 32 38 37 26 38 33 44 30 34 41 45 34 39 40 46 35 39 35 47 40 48 46 48 49 50 44 33 41 51 42 36 43 52 36 53 43 37 53 37 38 54 38 44 34 45 41 55 45 39 35 46 47 55 39 47 46 48 50 49 56 50 49 57 56 58 44 41 59 42 51 52 51 36 60 52 43 60 43 53 53 38 54 61 54 44 45 58 41 55 62 45 46 63 47 63 55 47 46 50 64 50 56 65 56 57 66 57 67 66 67 68 69 58 61 44 59 51 70 51 52 71 60 72 52 60 53 73 73 53 54 61 74 54 62 58 45 75 62 55 63 46 64 75 55 63 64 50 65 56 76 65 56 66 76 67 69 66 69 68 77 68 78 77 58 79 61 80 59 70 51 71 70 52 72 71 81 72 60 81 60 73 74 73 54 82 74 61 62 79 58 83 62 75 84 63 64 75 63 84 85 64 65 76 85 65 76 66 86 66 69 86 87 69 77 78 88 77 79 82 61 80 70 89 71 90 70 72 91 71 92 72 81 81 73 93 73 74 93 82 94 74 83 79 62 83 75 95 85 84 64 95 75 84 85 76 96 76 86 96 86 69 87 87 77 97 78 98 88 77 88 97 99 82 79 100 80 89 70 90 89 91 90 71 92 91 72 92 81 101 101 81 93 74 94 93 102 94 82 99 79 83 103 83 95 85 104 84 104 95 84 105 85 96 86 106 96 86 87 107 87 97 108 88 98 109 97 88 110 98 111 109 111 112 113 102 82 99 114 100 89 89 90 115 91 116 90 92 117 91 118 92 101 119 101 93 94 119 93 102 120 94 99 83 103 121 103 95 105 104 85 104 121 95 106 105 96 106 86 107 107 87 108 108 97 122 88 109 110 122 97 110 109 111 113 112 123 113 112 124 123 102 99 125 126 100 114 114 89 115 90 116 115 91 117 116 118 117 92 118 101 127 101 119 127 94 120 119 128 120 102 99 103 125 103 121 129 105 130 104 104 130 121 131 105 106 132 106 107 133 107 108 134 108 122 109 135 110 135 122 110 136 109 113 123 136 113 123 124 137 124 138 137 139 140 141 138 139 142 128 102 125 126 114 143 144 114 115 116 144 115 116 117 145 118 146 117 147 118 127 119 148 127 119 120 148 128 149 120 125 103 129 121 150 129 131 130 105 130 150 121 131 106 132 133 132 107 134 133 108 151 134 122 136 135 109 135 151 122 136 123 152 123 137 152 137 138 142 139 141 142 141 140 153 140 154 153 155 128 125 156 126 143 114 144 143 116 145 144 117 146 145 147 146 118 157 147 127 148 157 127 120 149 148 158 149 128 155 125 129 150 159 129 131 160 130 130 160 150 161 131 132 133 162 132 163 133 134 151 164 134 136 165 135 135 165 151 166 136 152 137 167 152 137 142 168 142 141 169 170 141 153 154 171 153 158 128 155 172 156 143 143 144 173 145 174 144 146 175 145 176 146 147 177 147 157 157 148 178 148 149 178 158 179 149 159 155 129 150 180 159 161 160 131 150 160 180 162 161 132 163 162 133 164 163 134 164 151 181 166 165 136 151 165 181 167 166 152 167 137 168 168 142 169 169 141 170 171 170 153 171 154 182 154 183 182 158 155 184 185 156 172 172 143 173 144 174 173 175 174 145 176 175 146 176 147 177 177 157 186 157 178 186 149 179 178 187 179 158 184 155 159 180 188 159 161 189 160 160 189 180 162 190 161 163 191 162 192 163 164 193 164 181 166 194 165 165 194 181 195 166 167 196 167 168 197 168 169 198 169 170 171 199 170 200 171 182 183 201 182 183 202 201 187 158 184 185 172 203 172 173 204 174 205 173 175 206 174 207 175 176 176 177 208 209 177 186 178 210 186 179 210 178 187 211 179 188 184 159 212 188 180 161 190 189 189 212 180 162 191 190 192 191 163 192 164 193 213 193 181 195 194 166 194 213 181 195 167 196 197 196 168 198 197 169 199 198 170 200 199 171 201 200 182 201 202 214 202 215 214 216 187 184 217 185 203 203 172 204 173 205 204 174 206 205 207 206 175 207 176 208 208 177 209 218 209 186 210 218 186 179 211 210 219 211 187 188 216 184 212 220 188 189 190 221 189 221 212 190 191 222 192 223 191 224 192 193 213 225 193 226 194 195 226 213 194 227 195 196 197 228 196 229 197 198 199 230 198 231 199 200 200 201 232 233 201 214 215 234 214 201 233 232 215 235 234 235 236 237 219 187 216 238 217 203 239 203 204 205 239 204 206 240 205 207 241 206 242 207 208 243 208 209 218 244 209 218 210 245 210 211 245 219 246 211 188 220 216 212 247 220 221 190 222 212 221 247 191 223 222 224 223 192 225 224 193 248 225 213 226 195 227 248 213 226 228 227 196 229 228 197 230 229 198 231 230 199 231 200 249 249 200 232 234 233 214 233 250 232 235 237 234 237 236 251 236 252 251 253 219 216 254 217 238 238 203 255 203 239 255 205 240 239 206 241 240 242 241 207 243 242 208 244 243 209 256 244 218 256 218 245 211 246 245 257 246 219 220 253 216 220 247 258 259 221 222 247 221 259 223 260 222 224 261 223 225 262 224 263 225 248 264 226 227 248 226 264 228 265 227 229 266 228 267 229 230 268 230 231 269 231 249 250 249 232 270 233 234 270 250 233 234 237 271 272 237 251 251 252 273 252 274 273 274 275 276 257 219 253 254 238 277 278 238 255 239 279 255 240 279 239 240 241 280 242 281 241 282 242 243 283 243 244 284 244 256 256 245 285 245 246 285 257 286 246 253 220 258 247 287 258 260 259 222 247 259 287 223 261 260 224 262 261 263 262 225 263 248 288 265 264 227 248 264 288 228 266 265 267 266 229 267 230 268 268 231 269 289 269 249 250 289 249 270 234 271 290 250 270 237 272 271 291 272 251 291 251 273 274 276 273 276 275 292 275 293 292 257 253 294 295 254 277 238 278 277 296 278 255 279 296 255 279 240 280 241 281 280 282 281 242 282 243 283 283 244 284 284 256 297 256 285 297 246 286 285 298 286 257 294 253 258 287 299 258 260 300 259 259 300 287 260 261 301 261 262 302 263 303 262 304 263 288 305 264 265 288 264 305 266 306 265 307 266 267 267 268 308 309 268 269 289 310 269 290 289 250 311 270 271 290 270 311 272 312 271 291 313 272 314 291 273 276 314 273 276 292 315 292 293 316 298 257 294 317 295 277 278 317 277 296 318 278 319 296 279 319 279 280 281 320 280 321 281 282 282 283 322 283 284 323 324 284 297 285 325 297 286 325 285 298 326 286 299 294 258 327 299 287 260 301 300 300 327 287 301 261 302 262 303 302 304 303 263 328 304 288 306 305 265 328 288 305 307 306 266 307 267 308 308 268 309 310 309 269 289 329 310 290 329 289 312 311 271 330 290 311 272 313 312 314 313 291 314 276 315 315 292 331 293 332 316 292 316 331 333 298 294 334 295 317 278 318 317 296 335 318 319 335 296 320 319 280 321 320 281 321 282 322 322 283 323 323 284 324 336 324 297 325 336 297 286 326 325 337 326 298 299 333 294 327 338 299 300 301 339 300 339 327 301 302 340 303 341 302 304 342 303 328 343 304 306 344 305 344 328 305 345 306 307 346 307 308 347 308 309 310 348 309 310 329 349 330 329 290 312 350 311 350 330 311 313 351 312 352 313 314 353 314 315 354 315 331 332 355 316 316 356 331 332 357 355 357 358 359 337 298 333 360 334 317 317 318 361 318 335 362 319 363 335 320 363 319 364 320 321 365 321 322 366 322 323 367 323 324 336 368 324 325 369 336 325 326 369 337 370 326 299 338 333 327 371 338 339 301 340 327 339 371 302 341 340 303 342 341 304 343 342 328 372 343 345 344 306 344 372 328 345 307 346 346 308 347 348 347 309 310 349 348 329 373 349 330 373 329 351 350 312 374 330 350 352 351 313 352 314 353 354 353 315 354 331 375 316 355 356 331 356 375 355 357 359 358 376 359 358 377 376 378 337 333 379 334 360 360 317 361 361 318 362 362 335 380 335 363 380 364 363 320 364 321 365 366 365 322 367 366 323 368 367 324 368 336 381 336 369 381 326 370 369 382 370 337 338 378 333 338 371 383 384 339 340 339 384 371 341 385 340 341 342 386 342 343 387 343 372 388 389 344 345 389 372 344 345 346 390 391 346 347 348 392 347 349 393 348 373 394 349 374 373 330 395 350 351 374 350 395 396 351 352 397 352 353 354 398 353 399 354 375 356 355 400 356 401 375 402 355 359 359 376 403 376 377 404 377 405 404 405 406 407 382 337 378 379 360 408 360 361 409 410 361 362 411 362 380 363 412 380 364 412 363 413 364 365 366 414 365 367 415 366 416 367 368 417 368 381 369 418 381 369 370 418 382 419 370 378 338 383 371 420 383 385 384 340 371 384 420 341 386 385 386 342 387 343 388 387 372 421 388 389 345 390 389 421 372 390 346 391 392 391 347 393 392 348 394 393 349 422 394 373 422 373 374 395 351 396 374 395 423 396 352 397 398 397 353 399 398 354 401 399 375 355 402 400 401 356 400 402 359 403 376 424 403 376 404 424 405 407 404 407 406 425 406 426 425 382 378 427 428 379 408 408 360 409 361 410 409 410 362 411 429 411 380 412 429 380 413 412 364 414 413 365 415 414 366 416 415 367 416 368 417 430 417 381 418 430 381 370 419 418 431 419 382 427 378 383 420 432 383 385 433 384 384 433 420 385 386 434 435 386 387 388 436 387 388 421 437 438 389 390 438 421 389 439 390 391 392 440 391 393 441 392 442 393 394 443 394 422 422 374 423 395 396 444 423 395 444 445 396 397 398 446 397 399 447 398 448 399 401 402 449 400 449 401 400 450 402 403 424 450 403 404 451 424 407 451 404 407 425 452 426 453 425 426 454 453 454 455 456 431 382 427 457 428 408 408 409 458 410 459 409 460 410 411 461 411 429 412 462 429 413 462 412 463 413 414 464 414 415 465 415 416 466 416 417 430 467 417 418 468 430 419 468 418 431 469 419 432 427 383 470 432 420 385 434 433 433 470 420 434 386 435 436 435 387 436 388 437 421 471 437 439 438 390 438 471 421 440 439 391 392 441 440 442 441 393 442 394 443 443 422 472 472 422 423 444 396 445 473 423 444 446 445 397 398 447 446 448 447 399 448 401 474 450 449 402 474 401 449 450 424 475 424 451 475 451 407 452 452 425 476 425 453 476 453 454 456 455 477 456 455 478 477 479 431 427 480 428 457 457 408 458 409 459 458 460 459 410 461 460 411 481 461 429 462 481 429 463 462 413 463 414 464 464 415 465 465 416 466 467 466 417 430 482 467 430 468 482 419 469 468 483 469 431 432 479 427 470 484 432 433 434 485 433 485 470 434 435 486 487 435 436 488 436 437 471 489 437 490 438 439 490 471 438 491 439 440 441 492 440 493 441 442 442 443 494 443 472 495 472 423 473 496 444 445 496 473 444 446 497 445 447 498 446 499 447 448 448 474 500 501 449 450 474 449 501 502 450 475 451 503 475 504 451 452 505 452 476 453 506 476 453 456 506 456 477 507 477 478 508 478 509 508 483 431 479 480 457 510 457 458 511 459 512 458 460 513 459 461 514 460 481 515 461 516 481 462 516 462 463 463 464 517 464 465 518 465 466 519 466 467 520 482 521 467 482 468 522 468 469 522 483 523 469 432 484 479 470 524 484 485 434 486 470 485 524 486 435 487 487 436 488 489 488 437 471 525 489 491 490 439 490 525 471 492 491 440 493 492 441 493 442 494 494 443 495 495 472 526 526 472 473 497 496 445 496 527 473 498 497 446 499 498 447 499 448 500 474 528 500 501 450 502 474 501 528 503 502 475 504 503 451 505 504 452 505 476 529 476 506 529 506 456 507 507 477 530 531 477 508 509 532 508 509 533 532 533 534 535 536 483 479 537 480 510 510 457 511 458 512 511 459 513 512 460 514 513 461 515 514 481 538 515 516 538 481 516 463 517 464 518 517 518 465 519 519 466 520 467 521 520 482 539 521 482 522 539 469 523 522 540 523 483 484 536 479 484 524 541 542 485 486 524 485 542 486 487 543 544 487 488 489 545 488 489 525 546 491 547 490 490 547 525 492 548 491 549 492 493 550 493 494 551 494 495 552 495 526 527 526 473 497 553 496 496 553 527 498 554 497 555 498 499 499 500 556 500 528 557 558 501 502 528 501 558 503 559 502 504 560 503 561 504 505 562 505 529 506 563 529 563 506 507 477 531 530 564 507 530 532 531 508 532 533 535 534 565 535 534 566 565 540 483 536 537 510 567 568 510 511 512 568 511 512 513 569 513 514 570 514 515 571 515 538 572 573 538 516 573 516 517 517 518 574 575 518 519 576 519 520 521 577 520 539 578 521 522 579 539 523 579 522 540 580 523 536 484 541 524 581 541 542 486 543 581 524 542 487 544 543 545 544 488 489 546 545 546 525 582 491 548 547 525 547 582 549 548 492 549 493 550 551 550 494 552 551 495 583 552 526 527 583 526 497 554 553 527 553 584 555 554 498 555 499 556 556 500 557 528 585 557 559 558 502 528 558 585 503 560 559 561 560 504 561 505 562 563 562 529 564 563 507 531 586 530 586 564 530 532 587 531 588 532 535 535 565 589 565 566 590 566 591 590 540 536 592 593 537 567 510 568 567 568 512 569 513 570 569 514 571 570 571 515 572 538 594 572 573 594 538 573 517 574 574 518 575 576 575 519 577 576 520 521 578 577 595 578 539 579 595 539 523 580 579 596 580 540 592 536 541 581 597 541 598 542 543 598 581 542 544 599 543 545 600 544 545 546 601 602 546 582 547 548 603 547 603 582 549 604 548 605 549 550 551 606 550 552 607 551 608 552 583 527 584 583 553 554 609 584 553 609 555 610 554 611 555 556 612 556 557 585 613 557 614 558 559 585 558 614 560 615 559 561 616 560 617 561 562 618 562 563 564 619 563 587 586 531 586 620 564 587 532 588 588 535 589 565 621 589 622 565 590 591 623 590 624 625 626 591 624 627 596 540 592 628 593 567 568 629 567 630 568 569 570 631 569 571 632 570 633 571 572 594 634 572 635 594 573 635 573 574 636 574 575 576 637 575 638 576 577 578 639 577 640 578 595 595 579 641 579 580 641 596 642 580 597 592 541 581 643 597 599 598 543 598 643 581 544 600 599 545 601 600 601 546 602 644 602 582 548 604 603 603 644 582 605 604 549 606 605 550 551 607 606 608 607 552 645 608 583 584 645 583 554 610 609 584 609 646 611 610 555 612 611 556 613 612 557 613 585 647 615 614 559 647 585 614 560 616 615 617 616 561 618 617 562 619 618 563 564 620 619 648 586 587 648 620 586 587 588 649 650 588 589 565 622 621 621 650 589 623 622 590 623 591 627 624 626 627 626 625 651 625 652 651 653 596 592 654 593 628 629 628 567 630 629 568 631 630 569 632 631 570 632 571 633 634 633 572 594 655 634 635 655 594 636 635 574 637 636 575 638 637 576 639 638 577 640 639 578 640 595 656 595 641 656 580 642 641 657 642 596 597 653 592 597 643 658 659 598 599 659 643 598 600 660 599 600 601 661 601 602 662 602 644 663 603 604 664 603 664 644 605 665 604 666 605 606 607 667 606 668 607 608 669 608 645 584 646 645 610 670 609 609 670 646 611 671 610 672 611 612 613 673 612 674 613 647 615 675 614 675 647 614 615 616 676 617 677 616 678 617 618 679 618 619 620 680 619 648 587 649 681 620 648 649 588 650 622 682 621 682 650 621 623 683 622 684 623 627 626 684 627 626 651 685 652 686 651 652 687 686 657 596 653 654 628 688 689 628 629 630 689 629 631 690 630 691 631 632 632 633 692 693 633 634 655 694 634 695 655 635 695 635 636 696 636 637 697 637 638 698 638 639 699 639 640 700 640 656 641 701 656 642 701 641 657 702 642 653 597 658 643 703 658 660 659 599 659 703 643 600 661 660 661 601 662 662 602 663 644 704 663 604 665 664 644 664 704 666 665 605 667 666 606 668 667 607 668 608 669 705 669 645 646 705 645 610 671 670 646 670 706 672 671 611 673 672 612 674 673 613 707 674 647 615 676 675 675 707 647 616 677 676 678 677 617 678 618 679 680 679 619 681 680 620 648 649 708 681 648 708 649 650 709 683 682 622 650 682 709 684 683 623 684 626 685 685 651 710 651 686 710 686 687 711 657 653 712 713 654 688 628 714 688 628 689 714 630 690 689 691 690 631 691 632 692 633 693 692 694 693 634 715 694 655 715 655 695 695 636 696 696 637 697 697 638 698 698 639 699 699 640 700 700 656 716 656 701 716 642 702 701 717 702 657 712 653 658 703 718 658 660 719 659 659 719 703 660 661 720 721 661 662 722 662 663 704 723 663 665 724 664 664 724 704 666 725 665 667 726 666 668 727 667 728 668 669 729 669 705 646 706 705 670 671 730 706 670 730 672 731 671 732 672 673 733 673 674 734 674 707 676 735 675 735 707 675 676 677 736 678 737 677 738 678 679 680 739 679 740 680 681 649 741 708 742 681 708 741 649 709 683 743 682 682 744 709 745 683 684 746 684 685 747 685 710 710 686 748 687 749 711 686 711 748 749 750 751 717 657 712 752 713 688 688 714 753 714 689 754 689 690 755 691 756 690 757 691 692 693 758 692 694 759 693 760 694 715 715 695 761 695 696 761 696 697 762 697 698 763 698 699 764 699 700 765 766 700 716 701 767 716 701 702 767 717 768 702 718 712 658 703 769 718 660 720 719 703 719 769 720 661 721 722 721 662 723 722 663 770 723 704 665 725 724 724 770 704 666 726 725 667 727 726 728 727 668 729 728 669 771 729 705 706 771 705 671 731 730 772 706 730 732 731 672 732 673 733 733 674 734 734 707 773 735 676 736 773 707 735 677 737 736 738 737 678 739 738 679 740 739 680 740 681 742 741 774 708 774 742 708 744 741 709 745 743 683 682 743 744 745 684 746 747 746 685 775 747 710 775 710 748 749 751 711 711 776 748 751 750 777 750 778 777 779 717 712 780 713 752 752 688 753 714 781 753 754 689 755 714 754 781 690 756 755 757 756 691 758 757 692 759 758 693 760 759 694 760 715 782 715 761 782 696 762 761 697 763 762 763 698 764 764 699 765 765 700 766 783 766 716 767 783 716 702 768 767 784 768 717 718 779 712 718 769 785 719 720 786 769 719 786 720 721 787 788 721 722 722 723 789 770 790 723 724 725 791 770 724 791 725 726 792 726 727 793 728 794 727 795 728 729 796 729 771 706 772 771 731 797 730 797 772 730 798 731 732 732 733 799 733 734 800 734 773 801 802 735 736 773 735 802 737 803 736 738 804 737 805 738 739 806 739 740 807 740 742 808 774 741 774 809 742 808 741 744 810 743 745 743 811 744 812 745 746 747 813 746 814 747 775 776 775 748 751 776 711 815 751 777 778 816 777 778 817 816 784 717 779 818 780 752 819 752 753 781 819 753 820 754 755 781 754 821 756 820 755 757 822 756 758 823 757 759 824 758 760 825 759 826 760 782 782 761 827 761 762 827 762 763 828 829 763 764 830 764 765 831 765 766 783 832 766 767 833 783 768 833 767 784 834 768 779 718 785 769 835 785 720 787 786 835 769 786 787 721 788 788 722 789 723 790 789 836 790 770 725 792 791 836 770 791 792 726 793 727 794 793 795 794 728 795 729 796 837 796 771 772 837 771 798 797 731 797 838 772 798 732 799 733 800 799 734 801 800 801 773 839 803 802 736 839 773 802 737 804 803 805 804 738 805 739 806 806 740 807 809 807 742 808 840 774 774 840 809 811 808 744 810 811 743 810 745 812 813 812 746 814 813 747 841 814 775 776 841 775 776 751 842 751 815 842 816 815 777 817 843 816 817 844 843 784 779 845 846 780 818 818 752 819 781 847 819 754 820 821 847 781 821 756 822 820 757 823 822 758 824 823 759 825 824 826 825 760 848 826 782 848 782 827 827 762 828 828 763 829 830 829 764 831 830 765 832 831 766 849 832 783 833 849 783 768 834 833 850 834 784 845 779 785 835 851 785 787 852 786 852 835 786 853 787 788 854 788 789 790 855 789 856 790 836 792 857 791 857 836 791 792 793 858 793 794 859 795 860 794 861 795 796 837 862 796 772 838 837 863 797 798 863 838 797 864 798 799 800 865 799 801 866 800 801 839 867 802 803 868 839 802 868 804 869 803 870 804 805 805 806 871 806 807 872 873 807 809 808 874 840 840 875 809 811 874 808 810 876 811 877 810 812 813 878 812 814 879 813 880 814 841 881 841 776 881 776 842 815 882 842 883 815 816 816 843 884 843 844 885 844 886 885 850 784 845 846 818 887 818 819 888 847 889 819 820 890 821 890 847 821 820 822 891 822 823 892 823 824 893 824 825 894 826 895 825 896 826 848 897 848 827 897 827 828 898 828 829 830 899 829 831 900 830 901 831 832 902 832 849 849 833 903 833 834 903 850 904 834 851 845 785 835 905 851 787 853 852 852 905 835 854 853 788 855 854 789 856 855 790 856 836 906 857 792 858 906 836 857 793 859 858 794 860 859 861 860 795 862 861 796 907 862 837 838 907 837 863 798 864 908 838 863 865 864 799 800 866 865 801 867 866 867 839 909 803 869 868 909 839 868 870 869 804 870 805 871 806 872 871 872 807 873 875 873 809 840 874 910 840 910 875 811 876 874 877 876 810 878 877 812 813 879 878 880 879 814 880 841 911 911 841 881 882 881 842 883 882 815 883 816 884 884 843 912 843 885 912 886 913 885 914 850 845 915 846 887 887 818 888 819 889 888 916 889 847 820 891 890 916 847 890 891 822 892 823 893 892 893 824 894 825 895 894 896 895 826 917 896 848 897 917 848 898 897 828 899 898 829 830 900 899 901 900 831 901 832 902 902 849 918 849 903 918 834 904 903 919 904 850 851 914 845 851 905 920 853 921 852 921 905 852 854 922 853 855 923 854 924 855 856 856 906 925 926 857 858 906 857 926 859 927 858 860 928 859 861 929 860 862 930 861 907 931 862 908 907 838 863 864 932 908 863 932 933 864 865 866 934 865 866 867 935 936 867 909 869 937 868 937 909 868 870 938 869 939 870 871 871 872 940 941 872 873 875 942 873 910 874 943 910 944 875 874 876 943 877 945 876 946 877 878 879 947 878 948 879 880 880 911 949 911 881 950 950 881 882 951 882 883 952 883 884 953 884 912 912 885 954 886 955 913 885 913 954 919 850 914 956 915 887 957 887 888 889 957 888 916 958 889 891 959 890 959 916 890 960 891 892 893 961 892 893 894 962 894 895 963 896 964 895 965 896 917 966 917 897 966 897 898 899 967 898 900 968 899 969 900 901 901 902 970 971 902 918 903 972 918 904 972 903 919 973 904 914 851 920 905 974 920 853 922 921 921 974 905 854 923 922 924 923 855 924 856 925 925 906 975 927 926 858 975 906 926 859 928 927 860 929 928 861 930 929 862 931 930 976 931 907 976 907 908 864 933 932 908 932 977 934 933 865 866 935 934 935 867 936 978 936 909 869 938 937 937 978 909 939 938 870 939 871 940 940 872 941 942 941 873 944 942 875 910 943 979 944 910 979 876 945 943 946 945 877 947 946 878 948 947 879 948 880 949 911 980 949 911 950 980 950 882 951 951 883 952 953 952 884 981 953 912 981 912 954 913 955 982 913 983 954 955 984 982 919 914 985 986 915 956 957 956 887 889 958 957 987 958 916 891 960 959 987 916 959 961 960 892 961 893 962 894 963 962 895 964 963 965 964 896 965 917 988 988 917 966 967 966 898 968 967 899 969 968 900 969 901 970 970 902 971 989 971 918 972 989 918 904 973 972 990 973 919 985 914 920 974 991 920 921 922 992 921 992 974 922 923 993 924 994 923 995 924 925 996 925 975 927 997 926 997 975 926 928 998 927 928 929 999 929 930 1000 930 931 1001 976 1002 931 976 908 977 932 933 1003 977 932 1003 934 1004 933 934 935 1005 935 936 1006 936 978 1007 937 938 1008 937 1008 978 939 1009 938 1010 939 940 1011 940 941 942 1012 941 1013 942 944 943 1014 979 1015 944 979 945 1014 943 1016 945 946 1017 946 947 1018 947 948 1019 948 949 980 1020 949 980 950 1021 1021 950 951 1022 951 952 953 1023 952 981 1024 953 983 981 954 913 982 1025 983 913 1025 984 1026 982 984 1027 1026 1028 1029 1030 1031 1028 1032 1027 1031 1033 990 919 985 986 956 1034 956 957 1035 958 1036 957 987 1037 958 960 1038 959 1038 987 959 1039 960 961 1040 961 962 963 1041 962 964 1042 963 1043 964 965 965 988 1044 988 966 1045 1045 966 967 1046 967 968 1047 968 969 1048 969 970 970 971 1049 989 1050 971 972 1051 989 972 973 1051 990 1052 973 991 985 920 974 1053 991 992 922 993 974 992 1053 923 994 993 995 994 924 996 995 925 1054 996 975 998 997 927 997 1054 975 928 999 998 999 929 1000 930 1001 1000 931 1002 1001 1055 1002 976 1055 976 977 933 1004 1003 1056 977 1003 934 1005 1004 1005 935 1006 1006 936 1007 978 1057 1007 938 1009 1008 1008 1057 978 1010 1009 939 1011 1010 940 1012 1011 941 1013 1012 942 1015 1013 944 1014 1058 979 1058 1015 979 1016 1014 945 1016 946 1017 1017 947 1018 1018 948 1019 1020 1019 949 1020 980 1059 980 1021 1059 1021 951 1022 1023 1022 952 1024 1023 953 1060 1024 981 1060 981 983 982 1061 1025 1062 983 1025 982 1026 1061 1026 1027 1033 1028 1030 1032 1030 1029 1063 1033 1031 1032 1029 1064 1063 1065 990 985 1066 986 1034 1034 956 1035 957 1036 1035 958 1037 1036 987 1067 1037 1039 1038 960 1038 1067 987 1039 961 1040 1041 1040 962 963 1042 1041 1043 1042 964 1043 965 1044 988 1068 1044 988 1045 1068 1045 967 1046 1046 968 1047 1047 969 1048 1048 970 1049 971 1050 1049 989 1069 1050 989 1051 1069 973 1052 1051 1070 1052 990 991 1065 985 991 1053 1071 1072 992 993 1053 992 1072 994 1073 993 995 1074 994 1075 995 996 1054 1076 996 998 1077 997 997 1077 1054 998 999 1078 1079 999 1000 1001 1080 1000 1002 1081 1001 1055 1082 1002 1056 1055 977 1004 1083 1003 1083 1056 1003 1004 1005 1084 1085 1005 1006 1086 1006 1007 1057 1087 1007 1009 1088 1008 1008 1088 1057 1089 1009 1010 1090 1010 1011 1091 1011 1012 1092 1012 1013 1093 1013 1015 1094 1058 1014 1095 1015 1058 1094 1014 1016 1016 1017 1096 1017 1018 1097 1018 1019 1098 1099 1019 1020 1100 1020 1059 1059 1021 1101 1101 1021 1022 1023 1102 1022 1024 1103 1023 1060 1104 1024 1060 983 1062 1061 1062 1025 1061 1026 1105 1105 1026 1033 1032 1030 1106 1030 1063 1107 1108 1033 1032 1063 1064 1109 1064 1110 1109 1110 1111 1112 1070 990 1065 1113 1066 1034 1034 1035 1114 1036 1115 1035 1036 1037 1116 1037 1067 1117 1118 1038 1039 1118 1067 1038 1119 1039 1040 1041 1120 1040 1041 1042 1121 1043 1122 1042 1123 1043 1044 1044 1068 1124 1045 1125 1068 1045 1046 1125 1046 1047 1126 1047 1048 1127 1128 1048 1049 1050 1129 1049 1069 1130 1050 1051 1131 1069 1052 1131 1051 1070 1132 1052 1065 991 1071 1053 1133 1071 1073 1072 993 1053 1072 1133 994 1074 1073 1075 1074 995 1076 1075 996 1134 1076 1054 998 1078 1077 1077 1134 1054 1078 999 1079 1080 1079 1000 1001 1081 1080 1002 1082 1081 1135 1082 1055 1135 1055 1056 1004 1084 1083 1056 1083 1136 1084 1005 1085 1085 1006 1086 1087 1086 1007 1137 1087 1057 1089 1088 1009 1088 1137 1057 1089 1010 1090 1090 1011 1091 1091 1012 1092 1092 1013 1093 1093 1015 1095 1138 1058 1094 1095 1058 1138 1094 1016 1096 1017 1097 1096 1018 1098 1097 1098 1019 1099 1099 1020 1100 1139 1100 1059 1139 1059 1101 1102 1101 1022 1023 1103 1102 1024 1104 1103 1140 1104 1060 1140 1060 1062 1062 1061 1141 1061 1105 1141 1105 1033 1108 1106 1030 1107 1108 1032 1106 1107 1063 1142 1063 1109 1142 1110 1112 1109 1112 1111 1143 1111 1144 1143 1070 1065 1145 1146 1066 1113 1113 1034 1114 1035 1115 1114 1036 1116 1115 1116 1037 1117 1067 1147 1117 1118 1039 1119 1118 1147 1067 1120 1119 1040 1120 1041 1121 1042 1122 1121 1123 1122 1043 1123 1044 1124 1124 1068 1148 1068 1125 1148 1125 1046 1126 1047 1127 1126 1127 1048 1128 1129 1128 1049 1050 1130 1129 1149 1130 1069 1131 1149 1069 1052 1132 1131 1150 1132 1070 1145 1065 1071 1133 1151 1071 1072 1073 1152 1133 1072 1152 1073 1074 1153 1075 1154 1074 1076 1155 1075 1134 1156 1076 1077 1078 1157 1077 1157 1134 1078 1079 1158 1079 1080 1159 1081 1160 1080 1081 1082 1161 1135 1162 1082 1135 1056 1136 1083 1084 1163 1136 1083 1163 1084 1085 1164 1165 1085 1086 1087 1166 1086 1137 1167 1087 1168 1088 1089 1168 1137 1088 1089 1090 1169 1090 1091 1170 1091 1092 1171 1092 1093 1172 1093 1095 1173 1138 1094 1174 1095 1138 1175 1094 1096 1174 1096 1097 1176 1097 1098 1177 1098 1099 1178 1179 1099 1100 1139 1180 1100 1181 1139 1101 1102 1181 1101 1102 1103 1182 1103 1104 1183 1140 1184 1104 1185 1140 1062 1185 1062 1141 1105 1186 1141 1105 1108 1186 1187 1106 1107 1188 1108 1106 1189 1107 1142 1109 1190 1142 1109 1112 1190 1112 1143 1191 1144 1192 1143 1150 1070 1145 1146 1113 1193 1194 1113 1114 1115 1194 1114 1115 1116 1195 1116 1117 1196 1147 1197 1117 1198 1118 1119 1198 1147 1118 1120 1199 1119 1200 1120 1121 1122 1201 1121 1202 1122 1123 1203 1123 1124 1204 1124 1148 1148 1125 1205 1125 1126 1205 1126 1127 1206 1207 1127 1128 1208 1128 1129 1130 1209 1129 1210 1130 1149 1149 1131 1211 1131 1132 1211 1150 1212 1132 1151 1145 1071 1133 1213 1151 1152 1073 1153 1213 1133 1152 1074 1154 1153 1075 1155 1154 1076 1156 1155 1134 1214 1156 1157 1078 1158 1134 1157 1214 1158 1079 1159 1080 1160 1159 1160 1081 1161 1082 1162 1161 1215 1162 1135 1215 1135 1136 1163 1084 1164 1216 1136 1163 1164 1085 1165 1166 1165 1086 1087 1167 1166 1217 1167 1137 1168 1089 1169 1217 1137 1168 1090 1170 1169 1091 1171 1170 1171 1092 1172 1172 1093 1173 1095 1175 1173 1218 1138 1174 1175 1138 1218 1174 1096 1176 1176 1097 1177 1177 1098 1178 1178 1099 1179 1180 1179 1100 1219 1180 1139 1219 1139 1181 1102 1182 1181 1182 1103 1183 1104 1184 1183 1220 1184 1140 1220 1140 1185 1185 1141 1221 1141 1186 1221 1186 1108 1222 1187 1188 1106 1189 1187 1107 1108 1188 1222 1190 1189 1142 1190 1112 1191 1191 1143 1223 1144 1224 1192 1143 1192 1223 1225 1150 1145 1226 1146 1193 1113 1227 1193 1227 1113 1194 1194 1115 1195 1116 1196 1195 1117 1197 1196 1147 1228 1197 1199 1198 1119 1198 1228 1147 1200 1199 1120 1201 1200 1121 1202 1201 1122 1202 1123 1203 1204 1203 1124 1229 1204 1148 1229 1148 1205 1126 1206 1205 1206 1127 1207 1208 1207 1128 1209 1208 1129 1210 1209 1130 1210 1149 1230 1149 1211 1230 1132 1212 1211 1231 1212 1150 1151 1225 1145 1151 1213 1232 1233 1152 1153 1233 1213 1152 1154 1234 1153 1154 1155 1235 1155 1156 1236 1156 1214 1237 1238 1157 1158 1214 1157 1238 1239 1158 1159 1160 1240 1159 1241 1160 1161 1162 1242 1161 1215 1243 1162 1216 1215 1136 1244 1163 1164 1244 1216 1163 1245 1164 1165 1166 1246 1165 1167 1247 1166 1248 1167 1217 1249 1168 1169 1217 1168 1249 1170 1250 1169 1170 1171 1251 1252 1171 1172 1253 1172 1173 1175 1254 1173 1255 1218 1174 1175 1218 1256 1255 1174 1176 1257 1176 1177 1258 1177 1178 1259 1178 1179 1180 1260 1179 1219 1261 1180 1262 1219 1181 1182 1262 1181 1263 1182 1183 1184 1264 1183 1220 1265 1184 1220 1185 1266 1266 1185 1221 1186 1267 1221 1267 1186 1222 1187 1268 1188 1269 1187 1189 1188 1270 1222 1189 1190 1271 1272 1190 1191 1273 1191 1223 1192 1224 1274 1192 1275 1223 1224 1276 1274 1231 1150 1225 1226 1193 1277 1227 1278 1193 1279 1227 1194 1279 1194 1195 1196 1280 1195 1196 1197 1281 1197 1228 1282 1199 1283 1198 1198 1283 1228 1200 1284 1199 1201 1285 1200 1202 1286 1201 1287 1202 1203 1204 1288 1203 1229 1289 1204 1290 1229 1205 1206 1290 1205 1291 1206 1207 1208 1292 1207 1209 1293 1208 1294 1209 1210 1295 1210 1230 1211 1296 1230 1212 1296 1211 1231 1297 1212 1225 1151 1232 1213 1298 1232 1234 1233 1153 1233 1298 1213 1154 1235 1234 1235 1155 1236 1156 1237 1236 1237 1214 1299 1239 1238 1158 1299 1214 1238 1240 1239 1159 1241 1240 1160 1242 1241 1161 1162 1243 1242 1215 1300 1243 1216 1300 1215 1245 1244 1164 1301 1216 1244 1246 1245 1165 1166 1247 1246 1248 1247 1167 1248 1217 1302 1250 1249 1169 1217 1249 1302 1250 1170 1251 1171 1252 1251 1253 1252 1172 1254 1253 1173 1175 1256 1254 1303 1218 1255 1256 1218 1303 1255 1176 1257 1258 1257 1177 1259 1258 1178 1260 1259 1179 1180 1261 1260 1304 1261 1219 1304 1219 1262 1263 1262 1182 1264 1263 1183 1184 1265 1264 1305 1265 1220 1305 1220 1266 1267 1266 1221 1270 1267 1222 1269 1268 1187 1188 1268 1270 1269 1189 1271 1190 1272 1271 1273 1272 1191 1273 1223 1306 1192 1274 1275 1223 1275 1306 1274 1276 1307 1276 1308 1307 1231 1225 1309 1310 1226 1277 1193 1278 1277 1227 1311 1278 1279 1311 1227 1280 1279 1195 1280 1196 1281 1197 1282 1281 1228 1312 1282 1199 1284 1283 1228 1283 1312 1200 1285 1284 1201 1286 1285 1287 1286 1202 1288 1287 1203 1204 1289 1288 1313 1289 1229 1313 1229 1290 1290 1206 1291 1292 1291 1207 1208 1293 1292 1294 1293 1209 1294 1210 1295 1314 1295 1230 1296 1314 1230 1212 1297 1296 1315 1297 1231 1309 1225 1232 1298 1316 1232 1234 1317 1233 1233 1317 1298 1234 1235 1318 1235 1236 1319 1237 1320 1236 1237 1299 1321 1239 1322 1238 1322 1299 1238 1323 1239 1240 1241 1324 1240 1242 1325 1241 1242 1243 1326 1243 1300 1327 1301 1300 1216 1245 1328 1244 1328 1301 1244 1329 1245 1246 1247 1330 1246 1331 1247 1248 1248 1302 1332 1333 1249 1250 1249 1333 1302 1334 1250 1251 1252 1335 1251 1253 1336 1252 1337 1253 1254 1256 1338 1254 1303 1255 1339 1256 1303 1340 1339 1255 1257 1258 1341 1257 1259 1342 1258 1343 1259 1260 1261 1344 1260 1345 1261 1304 1304 1262 1346 1346 1262 1263 1263 1264 1347 1265 1348 1264 1305 1349 1265 1350 1305 1266 1267 1350 1266 1351 1267 1270 1269 1352 1268 1268 1353 1270 1354 1269 1271 1272 1355 1271 1356 1272 1273 1357 1273 1306 1275 1274 1358 1275 1359 1306 1360 1274 1307 1308 1361 1307 1315 1231 1309 1362 1310 1277 1278 1362 1277 1278 1311 1363 1364 1311 1279 1364 1279 1280 1365 1280 1281 1282 1366 1281 1282 1312 1367 1283 1284 1368 1312 1283 1368 1284 1285 1369 1285 1286 1370 1287 1371 1286 1372 1287 1288 1289 1373 1288 1374 1289 1313 1313 1290 1375 1375 1290 1291 1292 1376 1291 1293 1377 1292 1378 1293 1294 1379 1294 1295 1314 1380 1295 1296 1381 1314 1296 1297 1381 1315 1382 1297 1316 1309 1232 1298 1383 1316 1234 1318 1317 1298 1317 1383 1318 1235 1319 1236 1320 1319 1237 1321 1320 1321 1299 1384 1323 1322 1239 1384 1299 1322 1324 1323 1240 1241 1325 1324 1242 1326 1325 1326 1243 1327 1300 1385 1327 1301 1385 1300 1329 1328 1245 1328 1386 1301 1330 1329 1246 1331 1330 1247 1331 1248 1332 1302 1387 1332 1334 1333 1250 1333 1387 1302 1335 1334 1251 1252 1336 1335 1337 1336 1253 1338 1337 1254 1256 1340 1338 1388 1303 1339 1340 1303 1388 1341 1339 1257 1258 1342 1341 1343 1342 1259 1344 1343 1260 1345 1344 1261 1345 1304 1389 1304 1346 1389 1346 1263 1347 1264 1348 1347 1265 1349 1348 1305 1390 1349 1350 1390 1305 1351 1350 1267 1353 1351 1270 1354 1352 1269 1268 1352 1353 1355 1354 1271 1356 1355 1272 1356 1273 1357 1359 1357 1306 1274 1360 1358 1359 1275 1358 1360 1307 1391 1308 1392 1361 1307 1361 1391 1393 1315 1309 1394 1310 1362 1362 1278 1363 1311 1395 1363 1364 1395 1311 1364 1280 1365 1366 1365 1281 1282 1367 1366 1312 1396 1367 1284 1369 1368 1396 1312 1368 1369 1285 1370 1286 1371 1370 1372 1371 1287 1373 1372 1288 1374 1373 1289 1374 1313 1397 1397 1313 1375 1376 1375 1291 1377 1376 1292 1378 1377 1293 1378 1294 1379 1380 1379 1295 1314 1398 1380 1314 1381 1398 1297 1382 1381 1399 1382 1315 1316 1393 1309 1316 1383 1400 1317 1318 1401 1317 1401 1383 1402 1318 1319 1320 1403 1319 1320 1321 1404 1321 1384 1405 1406 1322 1323 1384 1322 1406 1323 1324 1407 1324 1325 1408 1325 1326 1409 1410 1326 1327 1385 1411 1327 1301 1386 1385 1329 1412 1328 1328 1412 1386 1330 1413 1329 1331 1414 1330 1415 1331 1332 1332 1387 1416 1334 1417 1333 1333 1417 1387 1418 1334 1335 1336 1419 1335 1337 1420 1336 1338 1421 1337 1338 1340 1422 1423 1388 1339 1340 1388 1424 1341 1423 1339 1341 1342 1425 1343 1426 1342 1344 1427 1343 1345 1428 1344 1429 1345 1389 1389 1346 1430 1430 1346 1347 1348 1431 1347 1348 1349 1432 1349 1390 1433 1434 1390 1350 1434 1350 1351 1435 1351 1353 1436 1352 1354 1352 1437 1353 1438 1354 1355 1439 1355 1356 1440 1356 1357 1359 1441 1357 1360 1442 1358 1442 1359 1358 1443 1360 1391 1361 1392 1444 1361 1445 1391 1392 1446 1444 1447 1448 1449 1446 1447 1450 1399 1315 1393 1394 1362 1451 1362 1363 1452 1395 1453 1363 1454 1395 1364 1454 1364 1365 1366 1455 1365 1366 1367 1456 1367 1396 1457 1369 1458 1368 1458 1396 1368 1459 1369 1370 1370 1371 1460 1372 1461 1371 1462 1372 1373 1463 1373 1374 1464 1374 1397 1465 1397 1375 1376 1465 1375 1377 1466 1376 1467 1377 1378 1378 1379 1468 1379 1380 1469 1398 1470 1380 1398 1381 1471 1381 1382 1471 1399 1472 1382 1393 1316 1400 1383 1473 1400 1401 1318 1402 1401 1473 1383 1403 1402 1319 1403 1320 1404 1404 1321 1405 1384 1474 1405 1406 1323 1407 1384 1406 1474 1407 1324 1408 1325 1409 1408 1326 1410 1409 1411 1410 1327 1411 1385 1475 1385 1386 1475 1329 1413 1412 1386 1412 1476 1330 1414 1413 1415 1414 1331 1415 1332 1416 1416 1387 1477 1418 1417 1334 1387 1417 1477 1419 1418 1335 1336 1420 1419 1337 1421 1420 1338 1422 1421 1422 1340 1424 1388 1423 1478 1424 1388 1478 1341 1425 1423 1342 1426 1425 1343 1427 1426 1344 1428 1427 1429 1428 1345 1429 1389 1479 1389 1430 1479 1431 1430 1347 1348 1432 1431 1432 1349 1433 1390 1480 1433 1434 1480 1390 1434 1351 1435 1437 1435 1353 1436 1437 1352 1436 1354 1438 1438 1355 1439 1439 1356 1440 1441 1440 1357 1359 1481 1441 1443 1442 1360 1442 1481 1359 1445 1443 1391 1361 1444 1445 1446 1450 1444 1450 1447 1449 1448 1482 1449 1448 1483 1482 1399 1393 1484 1485 1394 1451 1362 1452 1451 1363 1453 1452 1395 1486 1453 1454 1486 1395 1455 1454 1365 1455 1366 1456 1367 1457 1456 1396 1487 1457 1458 1369 1459 1458 1487 1396 1459 1370 1460 1371 1461 1460 1462 1461 1372 1462 1373 1463 1463 1374 1464 1488 1464 1397 1465 1488 1397 1376 1466 1465 1467 1466 1377 1467 1378 1468 1468 1379 1469 1380 1470 1469 1398 1489 1470 1398 1471 1489 1382 1472 1471 1490 1472 1399 1484 1393 1400 1473 1491 1400 1401 1402 1492 1401 1492 1473 1493 1402 1403 1494 1403 1404 1495 1404 1405 1405 1474 1496 1497 1406 1407 1474 1406 1497 1498 1407 1408 1409 1499 1408 1410 1500 1409 1501 1410 1411 1502 1411 1475 1386 1476 1475 1412 1413 1503 1476 1412 1503 1413 1414 1504 1415 1505 1414 1506 1415 1416 1507 1416 1477 1418 1508 1417 1417 1508 1477 1419 1509 1418 1419 1420 1510 1420 1421 1511 1421 1422 1512 1513 1422 1424 1423 1514 1478 1515 1424 1478 1425 1514 1423 1426 1516 1425 1426 1427 1517 1427 1428 1518 1429 1519 1428 1520 1429 1479 1479 1430 1521 1521 1430 1431 1432 1522 1431 1523 1432 1433 1480 1524 1433 1525 1480 1434 1525 1434 1435 1437 1526 1435 1527 1437 1436 1436 1438 1528 1438 1439 1529 1439 1440 1530 1440 1441 1531 1481 1532 1441 1533 1442 1443 1533 1481 1442 1534 1443 1445 1444 1535 1445 1444 1450 1535 1450 1449 1536 1449 1482 1537 1482 1483 1538 1483 1539 1538 1539 1540 1541 1490 1399 1484 1485 1451 1542 1452 1543 1451 1453 1544 1452 1453 1486 1545 1454 1546 1486 1455 1546 1454 1547 1455 1456 1457 1548 1456 1457 1487 1549 1550 1458 1459 1550 1487 1458 1551 1459 1460 1461 1552 1460 1553 1461 1462 1462 1463 1554 1463 1464 1555 1556 1464 1488 1465 1557 1488 1466 1557 1465 1467 1558 1466 1559 1467 1468 1560 1468 1469 1470 1561 1469 1489 1562 1470 1471 1563 1489 1472 1563 1471 1490 1564 1472 1491 1484 1400 1473 1565 1491 1492 1402 1493 1473 1492 1565 1494 1493 1403 1495 1494 1404 1495 1405 1496 1474 1566 1496 1498 1497 1407 1474 1497 1566 1499 1498 1408 1500 1499 1409 1501 1500 1410 1501 1411 1502 1567 1502 1475 1476 1567 1475 1503 1413 1504 1476 1503 1568 1414 1505 1504 1506 1505 1415 1507 1506 1416 1569 1507 1477 1418 1509 1508 1508 1569 1477 1419 1510 1509 1510 1420 1511 1421 1512 1511 1512 1422 1513 1513 1424 1515 1514 1570 1478 1570 1515 1478 1425 1516 1514 1426 1517 1516 1517 1427 1518 1428 1519 1518 1520 1519 1429 1571 1520 1479 1571 1479 1521 1522 1521 1431 1523 1522 1432 1524 1523 1433 1480 1572 1524 1525 1572 1480 1526 1525 1435 1527 1526 1437 1527 1436 1528 1438 1529 1528 1529 1439 1530 1530 1440 1531 1441 1532 1531 1573 1532 1481 1533 1443 1534 1573 1481 1533 1574 1534 1445 1535 1574 1445 1535 1450 1536 1536 1449 1537 1537 1482 1575 1482 1538 1575 1539 1541 1538 1540 1576 1541 1540 1577 1576 1578 1490 1484 1579 1485 1542 1451 1543 1542 1544 1543 1452 1453 1545 1544 1545 1486 1580 1486 1546 1580 1547 1546 1455 1548 1547 1456 1548 1457 1549 1487 1581 1549 1550 1459 1551 1550 1581 1487 1552 1551 1460 1553 1552 1461 1553 1462 1554 1463 1555 1554 1555 1464 1556 1582 1556 1488 1557 1582 1488 1466 1558 1557 1559 1558 1467 1560 1559 1468 1561 1560 1469 1470 1562 1561 1583 1562 1489 1563 1583 1489 1472 1564 1563 1584 1564 1490 1491 1578 1484 1491 1565 1585 1492 1493 1586 1565 1492 1586 1494 1587 1493 1588 1494 1495 1589 1495 1496 1566 1590 1496 1591 1497 1498 1566 1497 1591 1592 1498 1499 1500 1593 1499 1594 1500 1501 1595 1501 1502 1567 1596 1502 1476 1568 1567 1597 1503 1504 1568 1503 1597 1505 1598 1504 1506 1599 1505 1600 1506 1507 1507 1569 1601 1508 1509 1602 1508 1602 1569 1509 1510 1603 1510 1511 1604 1512 1605 1511 1512 1513 1606 1607 1513 1515 1608 1570 1514 1570 1609 1515 1516 1608 1514 1516 1517 1610 1611 1517 1518 1519 1612 1518 1520 1613 1519 1614 1520 1571 1571 1521 1615 1521 1522 1615 1523 1616 1522 1524 1617 1523 1524 1572 1618 1525 1619 1572 1526 1619 1525 1620 1526 1527 1527 1528 1621 1528 1529 1622 1623 1529 1530 1624 1530 1531 1532 1625 1531 1573 1626 1532 1627 1533 1534 1573 1533 1627 1574 1628 1534 1629 1574 1535 1629 1535 1536 1630 1536 1537 1631 1537 1575 1538 1632 1575 1541 1632 1538 1541 1576 1633 1576 1577 1634 1577 1635 1634 1584 1490 1578 1636 1579 1542 1542 1543 1637 1544 1638 1543 1544 1545 1639 1640 1545 1580 1546 1641 1580 1547 1641 1546 1642 1547 1548 1643 1548 1549 1581 1644 1549 1645 1550 1551 1645 1581 1550 1552 1646 1551 1647 1552 1553 1553 1554 1648 1554 1555 1649 1555 1556 1650 1651 1556 1582 1557 1652 1582 1557 1558 1652 1559 1653 1558 1654 1559 1560 1655 1560 1561 1562 1656 1561 1657 1562 1583 1583 1563 1658 1563 1564 1658 1584 1659 1564 1491 1585 1578 1585 1565 1660 1493 1587 1586 1660 1565 1586 1588 1587 1494 1588 1495 1589 1590 1589 1496 1566 1661 1590 1591 1498 1592 1566 1591 1661 1593 1592 1499 1594 1593 1500 1594 1501 1595 1596 1595 1502 1596 1567 1662 1567 1568 1662 1598 1597 1504 1568 1597 1663 1505 1599 1598 1600 1599 1506 1600 1507 1601 1569 1664 1601 1602 1509 1603 1569 1602 1664 1510 1604 1603 1511 1605 1604 1512 1606 1605 1606 1513 1607 1609 1607 1515 1608 1665 1570 1570 1665 1609 1516 1610 1608 1610 1517 1611 1612 1611 1518 1519 1613 1612 1614 1613 1520 1614 1571 1666 1666 1571 1615 1522 1616 1615 1523 1617 1616 1524 1618 1617 1618 1572 1667 1572 1619 1667 1620 1619 1526 1620 1527 1621 1528 1622 1621 1622 1529 1623 1624 1623 1530 1625 1624 1531 1532 1626 1625 1668 1626 1573 1628 1627 1534 1668 1573 1627 1574 1669 1628 1629 1669 1574 1630 1629 1536 1631 1630 1537 1632 1631 1575 1632 1541 1633 1633 1576 1670 1576 1634 1670 1635 1671 1634 1635 1672 1671 1673 1584 1578 1674 1579 1636 1636 1542 1637 1543 1638 1637 1544 1639 1638 1639 1545 1640 1675 1640 1580 1641 1675 1580 1642 1641 1547 1642 1548 1643 1644 1643 1549 1581 1676 1644 1646 1645 1551 1645 1676 1581 1647 1646 1552 1647 1553 1648 1554 1649 1648 1649 1555 1650 1650 1556 1651 1677 1651 1582 1652 1677 1582 1558 1653 1652 1654 1653 1559 1654 1560 1655 1656 1655 1561 1657 1656 1562 1657 1583 1678 1678 1583 1658 1564 1659 1658 1679 1659 1584 1585 1673 1578 1585 1660 1680 1587 1681 1586 1681 1660 1586 1588 1682 1587 1683 1588 1589 1590 1684 1589 1590 1661 1685 1591 1592 1686 1661 1591 1686 1593 1687 1592 1594 1688 1593 1689 1594 1595 1596 1690 1595 1691 1596 1662 1568 1663 1662 1597 1598 1692 1663 1597 1692 1598 1599 1693 1600 1694 1599 1695 1600 1601 1601 1664 1696 1602 1603 1697 1664 1602 1697 1603 1604 1698 1604 1605 1699 1605 1606 1700 1606 1607 1701 1702 1607 1609 1608 1703 1665 1665 1704 1609 1608 1610 1703 1705 1610 1611 1706 1611 1612 1613 1707 1612 1708 1613 1614 1709 1614 1666 1710 1666 1615 1616 1710 1615 1617 1711 1616 1617 1618 1712 1713 1618 1667 1619 1714 1667 1620 1714 1619 1715 1620 1621 1621 1622 1716 1717 1622 1623 1624 1718 1623 1719 1624 1625 1626 1720 1625 1668 1721 1626 1628 1722 1627 1722 1668 1627 1628 1669 1723 1629 1724 1669 1630 1724 1629 1725 1630 1631 1632 1726 1631 1727 1632 1633 1728 1633 1670 1634 1729 1670 1634 1671 1730 1671 1672 1731 1672 1732 1731 1679 1584 1673 1674 1636 1733 1636 1637 1734 1638 1735 1637 1638 1639 1736 1639 1640 1737 1640 1675 1738 1739 1675 1641 1739 1641 1642 1642 1643 1740 1741 1643 1644 1676 1742 1644 1646 1743 1645 1645 1743 1676 1647 1744 1646 1745 1647 1648 1648 1649 1746 1747 1649 1650 1748 1650 1651 1677 1749 1651 1750 1677 1652 1653 1750 1652 1751 1653 1654 1752 1654 1655 1656 1753 1655 1657 1754 1656 1755 1657 1678 1756 1678 1658 1659 1756 1658 1679 1757 1659 1673 1585 1680 1660 1758 1680 1587 1682 1681 1758 1660 1681 1683 1682 1588 1684 1683 1589 1684 1590 1685 1661 1759 1685 1592 1687 1686 1759 1661 1686 1593 1688 1687 1689 1688 1594 1690 1689 1595 1691 1690 1596 1760 1691 1662 1663 1760 1662 1692 1598 1693 1663 1692 1761 1599 1694 1693 1695 1694 1600 1695 1601 1696 1696 1664 1762 1697 1603 1698 1762 1664 1697 1698 1604 1699 1699 1605 1700 1700 1606 1701 1701 1607 1702 1704 1702 1609 1665 1703 1763 1704 1665 1763 1703 1610 1705 1706 1705 1611 1707 1706 1612 1708 1707 1613 1708 1614 1709 1764 1709 1666 1710 1764 1666 1711 1710 1616 1617 1712 1711 1712 1618 1713 1765 1713 1667 1714 1765 1667 1715 1714 1620 1715 1621 1716 1716 1622 1717 1718 1717 1623 1719 1718 1624 1720 1719 1625 1626 1721 1720 1668 1766 1721 1722 1628 1723 1722 1766 1668 1669 1767 1723 1669 1724 1767 1725 1724 1630 1726 1725 1631 1727 1726 1632 1728 1727 1633 1729 1728 1670 1729 1634 1730 1671 1731 1730 1731 1732 1768 1732 1769 1768 1679 1673 1770 1771 1674 1733 1733 1636 1734 1637 1735 1734 1735 1638 1736 1736 1639 1737 1640 1738 1737 1675 1772 1738 1739 1772 1675 1739 1642 1740 1740 1643 1741 1742 1741 1644 1676 1773 1742 1646 1744 1743 1676 1743 1773 1745 1744 1647 1745 1648 1746 1746 1649 1747 1748 1747 1650 1749 1748 1651 1677 1774 1749 1750 1774 1677 1751 1750 1653 1751 1654 1752 1753 1752 1655 1656 1754 1753 1755 1754 1657 1775 1755 1678 1756 1775 1678 1659 1757 1756 1776 1757 1679 1770 1673 1680 1758 1777 1680 1682 1778 1681 1778 1758 1681 1683 1779 1682 1684 1780 1683 1781 1684 1685 1759 1782 1685 1686 1687 1783 1759 1686 1783 1687 1688 1784 1689 1785 1688 1786 1689 1690 1787 1690 1691 1788 1691 1760 1760 1663 1761 1692 1693 1789 1692 1789 1761 1693 1694 1790 1695 1791 1694 1792 1695 1696 1793 1696 1762 1794 1697 1698 1794 1762 1697 1795 1698 1699 1796 1699 1700 1797 1700 1701 1798 1701 1702 1704 1799 1702 1703 1800 1763 1801 1704 1763 1703 1705 1800 1705 1706 1802 1707 1803 1706 1804 1707 1708 1708 1709 1805 1709 1764 1806 1710 1807 1764 1711 1807 1710 1711 1712 1808 1712 1713 1809 1713 1765 1810 1714 1811 1765 1715 1811 1714 1812 1715 1716 1813 1716 1717 1718 1814 1717 1719 1815 1718 1720 1816 1719 1720 1721 1817 1721 1766 1818 1819 1722 1723 1819 1766 1722 1767 1820 1723 1724 1821 1767 1725 1821 1724 1726 1822 1725 1727 1823 1726 1824 1727 1728 1825 1728 1729 1826 1729 1730 1731 1827 1730 1828 1731 1768 1769 1829 1768 1776 1679 1770 1830 1771 1733 1831 1733 1734 1735 1831 1734 1832 1735 1736 1833 1736 1737 1738 1834 1737 1772 1835 1738 1836 1772 1739 1836 1739 1740 1837 1740 1741 1742 1838 1741 1742 1773 1839 1743 1744 1840 1773 1743 1840 1745 1841 1744 1842 1745 1746 1843 1746 1747 1748 1844 1747 1845 1748 1749 1774 1846 1749 1847 1774 1750 1847 1750 1751 1751 1752 1848 1849 1752 1753 1754 1850 1753 1755 1851 1754 1852 1755 1775 1775 1756 1853 1756 1757 1853 1776 1854 1757 1777 1770 1680 1758 1855 1777 1682 1779 1778 1778 1855 1758 1683 1780 1779 1781 1780 1684 1782 1781 1685 1856 1782 1759 1783 1687 1784 1856 1759 1783 1688 1785 1784 1786 1785 1689 1786 1690 1787 1787 1691 1788 1788 1760 1857 1857 1760 1761 1789 1693 1790 1789 1858 1761 1694 1791 1790 1792 1791 1695 1793 1792 1696 1859 1793 1762 1795 1794 1698 1794 1859 1762 1796 1795 1699 1797 1796 1700 1798 1797 1701 1799 1798 1702 1801 1799 1704 1800 1860 1763 1860 1801 1763 1800 1705 1802 1706 1803 1802 1804 1803 1707 1804 1708 1805 1805 1709 1806 1764 1861 1806 1807 1861 1764 1711 1808 1807 1808 1712 1809 1713 1810 1809 1765 1862 1810 1811 1862 1765 1812 1811 1715 1813 1812 1716 1814 1813 1717 1718 1815 1814 1719 1816 1815 1720 1817 1816 1817 1721 1818 1766 1863 1818 1820 1819 1723 1819 1863 1766 1820 1767 1864 1767 1821 1864 1725 1822 1821 1726 1823 1822 1824 1823 1727 1824 1728 1825 1825 1729 1865 1729 1826 1865 1827 1826 1730 1828 1827 1731 1829 1828 1768 1866 1776 1770 1867 1771 1830 1831 1830 1733 1832 1831 1735 1833 1832 1736 1834 1833 1737 1738 1835 1834 1772 1868 1835 1836 1868 1772 1837 1836 1740 1838 1837 1741 1742 1839 1838 1839 1773 1869 1744 1841 1840 1869 1773 1840 1842 1841 1745 1843 1842 1746 1844 1843 1747 1845 1844 1748 1846 1845 1749 1870 1846 1774 1870 1774 1847 1847 1751 1848 1848 1752 1849 1850 1849 1753 1754 1851 1850 1852 1851 1755 1852 1775 1871 1775 1853 1871 1757 1854 1853 1872 1854 1776 1777 1866 1770 1777 1855 1873 1778 1779 1874 1778 1874 1855 1779 1780 1875 1781 1876 1780 1782 1877 1781 1856 1878 1782 1879 1783 1784 1879 1856 1783 1785 1880 1784 1881 1785 1786 1786 1787 1882 1787 1788 1883 1884 1788 1857 1858 1857 1761 1789 1790 1885 1789 1885 1858 1791 1886 1790 1792 1887 1791 1793 1888 1792 1859 1889 1793 1890 1794 1795 1890 1859 1794 1796 1891 1795 1892 1796 1797 1798 1893 1797 1894 1798 1799 1801 1895 1799 1860 1800 1896 1897 1801 1860 1800 1802 1896 1803 1898 1802 1899 1803 1804 1900 1804 1805 1901 1805 1806 1861 1902 1806 1807 1903 1861 1808 1903 1807 1904 1808 1809 1810 1905 1809 1862 1906 1810 1811 1907 1862 1812 1907 1811 1908 1812 1813 1909 1813 1814 1815 1910 1814 1815 1816 1911 1816 1817 1912 1913 1817 1818 1863 1914 1818 1820 1915 1819 1819 1915 1863 1916 1820 1864 1821 1917 1864 1821 1822 1917 1822 1823 1918 1824 1919 1823 1920 1824 1825 1921 1825 1865 1826 1922 1865 1827 1923 1826 1924 1827 1828 1829 1925 1828 1872 1776 1866 1926 1867 1830 1830 1831 1927 1832 1928 1831 1929 1832 1833 1930 1833 1834 1835 1931 1834 1835 1868 1932 1933 1868 1836 1933 1836 1837 1934 1837 1838 1839 1935 1838 1839 1869 1936 1840 1841 1937 1869 1840 1937 1842 1938 1841 1939 1842 1843 1940 1843 1844 1941 1844 1845 1942 1845 1846 1943 1846 1870 1870 1847 1944 1847 1848 1944 1945 1848 1849 1850 1946 1849 1851 1947 1850 1948 1851 1852 1949 1852 1871 1853 1950 1871 1854 1950 1853 1872 1951 1854 1866 1777 1873 1855 1952 1873 1874 1779 1875 1855 1874 1952 1780 1876 1875 1781 1877 1876 1782 1878 1877 1856 1953 1878 1880 1879 1784 1879 1953 1856 1881 1880 1785 1881 1786 1882 1787 1883 1882 1883 1788 1884 1884 1857 1954 1857 1858 1954 1790 1886 1885 1885 1955 1858 1791 1887 1886 1792 1888 1887 1793 1889 1888 1859 1956 1889 1891 1890 1795 1890 1956 1859 1892 1891 1796 1893 1892 1797 1894 1893 1798 1895 1894 1799 1897 1895 1801 1957 1860 1896 1957 1897 1860 1802 1898 1896 1899 1898 1803 1899 1804 1900 1900 1805 1901 1902 1901 1806 1902 1861 1958 1861 1903 1958 1904 1903 1808 1905 1904 1809 1906 1905 1810 1906 1862 1959 1862 1907 1959 1908 1907 1812 1908 1813 1909 1910 1909 1814 1815 1911 1910 1911 1816 1912 1817 1913 1912 1914 1913 1818 1914 1863 1960 1916 1915 1820 1863 1915 1960 1961 1916 1864 1917 1961 1864 1917 1822 1918 1823 1919 1918 1920 1919 1824 1921 1920 1825 1922 1921 1865 1826 1923 1922 1924 1923 1827 1925 1924 1828 1872 1866 1962 1963 1867 1926 1926 1830 1927 1831 1928 1927 1929 1928 1832 1929 1833 1930 1931 1930 1834 1931 1835 1932 1868 1964 1932 1933 1964 1868 1933 1837 1934 1935 1934 1838 1935 1839 1936 1869 1965 1936 1841 1938 1937 1965 1869 1937 1939 1938 1842 1939 1843 1940 1940 1844 1941 1941 1845 1942 1942 1846 1943 1943 1870 1966 1966 1870 1944 1944 1848 1945 1946 1945 1849 1947 1946 1850 1948 1947 1851 1948 1852 1949 1967 1949 1871 1950 1967 1871 1854 1951 1950 1968 1951 1872 1962 1866 1873 1952 1969 1873 1970 1874 1875 1952 1874 1970 1876 1971 1875 1876 1877 1972 1877 1878 1973 1878 1953 1974 1880 1975 1879 1879 1975 1953 1976 1880 1881 1881 1882 1977 1882 1883 1978 1883 1884 1979 1980 1884 1954 1858 1955 1954 1886 1981 1885 1981 1955 1885 1886 1887 1982 1887 1888 1983 1888 1889 1984 1889 1956 1985 1891 1986 1890 1890 1986 1956 1892 1987 1891 1893 1988 1892 1894 1989 1893 1895 1990 1894 1897 1991 1895 1992 1957 1896 1957 1993 1897 1898 1992 1896 1994 1898 1899 1899 1900 1995 1996 1900 1901 1902 1997 1901 1998 1902 1958 1903 1999 1958 1904 1999 1903 2000 1904 1905 2001 1905 1906 1906 1959 2002 1907 2003 1959 1908 2003 1907 2004 1908 1909 1910 2005 1909 1911 2006 1910 2007 1911 1912 1913 2008 1912 2009 1913 1914 1914 1960 2010 1916 2011 1915 1915 2011 1960 2012 1916 1961 1961 1917 2013 1917 1918 2013 1919 2014 1918 1920 2015 1919 2016 1920 1921 2017 1921 1922 1923 2018 1922 1924 2019 1923 1925 2020 1924 1968 1872 1962 1963 1926 2021 1926 1927 2022 1928 2023 1927 1929 2024 1928 2025 1929 1930 2026 1930 1931 2027 1931 1932 1964 2028 1932 2029 1964 1933 2029 1933 1934 1935 2030 1934 2031 1935 1936 1965 2032 1936 1938 2033 1937 2033 1965 1937 2034 1938 1939 1939 1940 2035 1940 1941 2036 1941 1942 2037 1942 1943 2038 1943 1966 2039 2040 1966 1944 2040 1944 1945 1946 2041 1945 1947 2042 1946 1948 2043 1947 2044 1948 1949 1967 2045 1949 1950 2046 1967 1950 1951 2046 1968 2047 1951 1969 1962 1873 1952 2048 1969 1971 1970 1875 1952 1970 2048 1876 1972 1971 1972 1877 1973 1878 1974 1973 1974 1953 2049 1976 1975 1880 1953 1975 2049 1976 1881 1977 1882 1978 1977 1978 1883 1979 1979 1884 1980 2050 1980 1954 1955 2050 1954 1886 1982 1981 1981 2051 1955 1982 1887 1983 1983 1888 1984 1889 1985 1984 1985 1956 2052 1891 1987 1986 1956 1986 2052 1892 1988 1987 1893 1989 1988 1894 1990 1989 1895 1991 1990 1897 1993 1991 1992 2053 1957 1957 2053 1993 1994 1992 1898 1994 1899 1995 1995 1900 1996 1997 1996 1901 1998 1997 1902 2054 1998 1958 1999 2054 1958 2000 1999 1904 2000 1905 2001 2001 1906 2002 1959 2055 2002 2003 2055 1959 2004 2003 1908 2005 2004 1909 1910 2006 2005 2007 2006 1911 2008 2007 1912 2009 2008 1913 2009 1914 2010 1960 2056 2010 2012 2011 1916 2011 2056 1960 2012 1961 2057 2057 1961 2013 1918 2014 2013 1919 2015 2014 2016 2015 1920 2016 1921 2017 2018 2017 1922 2019 2018 1923 1924 2020 2019 2058 1968 1962 2059 1963 2021 2021 1926 2022 1927 2023 2022 1928 2024 2023 2025 2024 1929 2026 2025 1930 2027 2026 1931 2028 2027 1932 1964 2060 2028 2029 2060 1964 2030 2029 1934 2031 2030 1935 2032 2031 1936 1965 2061 2032 2034 2033 1938 2033 2061 1965 2034 1939 2035 1940 2036 2035 2036 1941 2037 1942 2038 2037 1943 2039 2038 2039 1966 2062 2062 1966 2040 2041 2040 1945 1946 2042 2041 1947 2043 2042 2044 2043 1948 2045 2044 1949 1967 2063 2045 1967 2046 2063 1951 2047 2046 2064 2047 1968 1969 2058 1962 1969 2048 2065 1971 2066 1970 1970 2066 2048 1971 1972 2067 2068 1972 1973 1973 1974 2069 1974 2049 2070 1976 2071 1975 1975 2071 2049 2072 1976 1977 1977 1978 2073 2074 1978 1979 2075 1979 1980 2050 2076 1980 1955 2051 2050 1981 1982 2077 1981 2077 2051 2078 1982 1983 2079 1983 1984 1985 2080 1984 2081 1985 2052 1986 1987 2082 1986 2082 2052 1987 1988 2083 1988 1989 2084 1989 1990 2085 1990 1991 2086 1991 1993 2087 1992 2088 2053 1993 2053 2089 1994 2088 1992 2090 1994 1995 2091 1995 1996 1997 2092 1996 1998 2093 1997 2054 2094 1998 2095 2054 1999 2095 1999 2000 2000 2001 2096 2097 2001 2002 2055 2098 2002 2003 2099 2055 2004 2099 2003 2100 2004 2005 2006 2101 2005 2102 2006 2007 2103 2007 2008 2104 2008 2009 2105 2009 2010 2056 2106 2010 2012 2107 2011 2011 2107 2056 2108 2012 2057 2109 2057 2013 2014 2109 2013 2014 2015 2110 2016 2111 2015 2112 2016 2017 2018 2113 2017 2114 2018 2019 2020 2115 2019 2064 1968 2058 2059 2021 2116 2117 2021 2022 2023 2118 2022 2023 2024 2119 2025 2120 2024 2121 2025 2026 2122 2026 2027 2123 2027 2028 2060 2124 2028 2125 2060 2029 2125 2029 2030 2031 2126 2030 2127 2031 2032 2061 2128 2032 2129 2033 2034 2129 2061 2033 2130 2034 2035 2035 2036 2131 2036 2037 2132 2037 2038 2133 2039 2134 2038 2039 2062 2135 2062 2040 2136 2136 2040 2041 2042 2137 2041 2043 2138 2042 2139 2043 2044 2140 2044 2045 2063 2141 2045 2063 2046 2142 2046 2047 2142 2064 2143 2047 1969 2065 2058 2065 2048 2144 1971 2067 2066 2048 2066 2144 2067 1972 2068 2068 1973 2069 1974 2070 2069 2070 2049 2145 2072 2071 1976 2049 2071 2145 2072 1977 2073 2073 1978 2074 2075 2074 1979 2076 2075 1980 2050 2146 2076 2051 2146 2050 2077 1982 2078 2051 2077 2147 2079 2078 1983 2080 2079 1984 1985 2081 2080 2081 2052 2148 2082 1987 2083 2052 2082 2148 1988 2084 2083 2084 1989 2085 1990 2086 2085 2086 1991 2087 1993 2089 2087 2053 2088 2149 2089 2053 2149 2090 2088 1994 2091 2090 1995 2092 2091 1996 1997 2093 2092 1998 2094 2093 2054 2150 2094 2095 2150 2054 2095 2000 2096 2096 2001 2097 2098 2097 2002 2151 2098 2055 2099 2151 2055 2100 2099 2004 2101 2100 2005 2102 2101 2006 2102 2007 2103 2103 2008 2104 2104 2009 2105 2106 2105 2010 2056 2152 2106 2108 2107 2012 2056 2107 2152 2153 2108 2057 2109 2153 2057 2014 2110 2109 2015 2111 2110 2112 2111 2016 2113 2112 2017 2114 2113 2018 2115 2114 2019 2154 2064 2058 2155 2059 2116 2021 2117 2116 2118 2117 2022 2118 2023 2119 2024 2120 2119 2121 2120 2025 2121 2026 2122 2122 2027 2123 2124 2123 2028 2060 2156 2124 2125 2156 2060 2126 2125 2030 2127 2126 2031 2128 2127 2032 2157 2128 2061 2129 2034 2130 2157 2061 2129 2130 2035 2131 2131 2036 2132 2037 2133 2132 2038 2134 2133 2039 2135 2134 2135 2062 2158 2158 2062 2136 2137 2136 2041 2042 2138 2137 2139 2138 2043 2139 2044 2140 2141 2140 2045 2063 2159 2141 2159 2063 2142 2047 2143 2142 2160 2143 2064 2065 2154 2058 2065 2144 2161 2066 2067 2162 2144 2066 2162 2067 2068 2163 2164 2068 2069 2070 2165 2069 2166 2070 2145 2072 2167 2071 2071 2167 2145 2168 2072 2073 2169 2073 2074 2075 2170 2074 2171 2075 2076 2146 2172 2076 2051 2147 2146 2077 2078 2173 2147 2077 2173 2174 2078 2079 2175 2079 2080 2081 2176 2080 2177 2081 2148 2082 2083 2178 2148 2082 2178 2084 2179 2083 2084 2085 2180 2086 2181 2085 2182 2086 2087 2087 2089 2183 2088 2184 2149 2089 2149 2185 2090 2184 2088 2186 2090 2091 2187 2091 2092 2093 2188 2092 2093 2094 2189 2094 2150 2190 2191 2150 2095 2191 2095 2096 2192 2096 2097 2098 2193 2097 2151 2194 2098 2099 2195 2151 2100 2195 2099 2101 2196 2100 2197 2101 2102 2102 2103 2198 2103 2104 2199 2200 2104 2105 2106 2201 2105 2152 2202 2106 2108 2203 2107 2107 2203 2152 2204 2108 2153 2153 2109 2205 2109 2110 2205 2111 2206 2110 2207 2111 2112 2112 2113 2208 2114 2209 2113 2115 2210 2114 2160 2064 2154 2211 2155 2116 2117 2212 2116 2213 2117 2118 2214 2118 2119 2120 2214 2119 2215 2120 2121 2121 2122 2216 2217 2122 2123 2124 2218 2123 2124 2156 2219 2125 2220 2156 2126 2220 2125 2127 2221 2126 2128 2222 2127 2157 2223 2128 2129 2130 2224 2157 2129 2224 2225 2130 2131 2226 2131 2132 2133 2227 2132 2133 2134 2228 2134 2135 2229 2135 2158 2230 2231 2158 2136 2137 2231 2136 2138 2232 2137 2233 2138 2139 2234 2139 2140 2141 2235 2140 2141 2159 2236 2237 2159 2142 2143 2237 2142 2160 2238 2143 2154 2065 2161 2144 2239 2161 2067 2163 2162 2239 2144 2162 2163 2068 2164 2165 2164 2069 2166 2165 2070 2240 2166 2145 2168 2167 2072 2167 2240 2145 2169 2168 2073 2170 2169 2074 2171 2170 2075 2172 2171 2076 2146 2241 2172 2146 2147 2241 2078 2174 2173 2242 2147 2173 2175 2174 2079 2176 2175 2080 2177 2176 2081 2243 2177 2148 2083 2179 2178 2243 2148 2178 2084 2180 2179 2085 2181 2180 2086 2182 2181 2182 2087 2183 2089 2185 2183 2184 2244 2149 2149 2244 2185 2186 2184 2090 2186 2091 2187 2188 2187 2092 2093 2189 2188 2189 2094 2190 2150 2245 2190 2191 2245 2150 2192 2191 2096 2193 2192 2097 2098 2194 2193 2151 2246 2194 2151 2195 2246 2100 2196 2195 2197 2196 2101 2197 2102 2198 2103 2199 2198 2199 2104 2200 2201 2200 2105 2106 2202 2201 2247 2202 2152 2204 2203 2108 2203 2247 2152 2204 2153 2248 2248 2153 2205 2110 2206 2205 2207 2206 2111 2207 2112 2208 2113 2249 2208 2114 2210 2209 2209 2249 2113 2160 2154 2250 2251 2155 2211 2212 2211 2116 2213 2212 2117 2214 2213 2118 2215 2214 2120 2215 2121 2216 2216 2122 2217 2218 2217 2123 2124 2219 2218 2219 2156 2252 2156 2220 2252 2126 2221 2220 2127 2222 2221 2128 2223 2222 2253 2223 2157 2224 2130 2225 2253 2157 2224 2226 2225 2131 2227 2226 2132 2227 2133 2228 2134 2229 2228 2135 2230 2229 2230 2158 2254 2254 2158 2231 2232 2231 2137 2233 2232 2138 2233 2139 2234 2235 2234 2140 2235 2141 2236 2159 2255 2236 2237 2255 2159 2143 2238 2237 2256 2238 2160 2250 2154 2161 2239 2257 2161 2163 2258 2162 2258 2239 2162 2163 2164 2259 2260 2164 2165 2165 2166 2261 2240 2262 2166 2168 2263 2167 2167 2263 2240 2169 2264 2168 2170 2265 2169 2171 2266 2170 2172 2267 2171 2172 2241 2268 2241 2147 2242 2173 2174 2269 2242 2173 2269 2175 2270 2174 2271 2175 2176 2272 2176 2177 2273 2177 2243 2178 2179 2274 2243 2178 2274 2179 2180 2275 2180 2181 2276 2182 2277 2181 2278 2182 2183 2185 2279 2183 2184 2280 2244 2244 2281 2185 2186 2280 2184 2282 2186 2187 2188 2283 2187 2188 2189 2284 2189 2190 2285 2245 2286 2190 2191 2287 2245 2192 2287 2191 2288 2192 2193 2194 2289 2193 2194 2246 2290 2246 2195 2291 2195 2196 2291 2197 2292 2196 2293 2197 2198 2198 2199 2294 2199 2200 2295 2296 2200 2201 2202 2297 2201 2247 2298 2202 2299 2203 2204 2299 2247 2203 2204 2248 2300 2301 2248 2205 2206 2301 2205 2207 2302 2206 2303 2207 2208 2249 2303 2208 2210 2304 2209 2209 2305 2249 2256 2160 2250 2251 2211 2306 2307 2211 2212 2308 2212 2213 2213 2214 2309 2215 2310 2214 2311 2215 2216 2312 2216 2217 2218 2313 2217 2218 2219 2314 2315 2219 2252 2220 2316 2252 2220 2221 2316 2221 2222 2317 2222 2223 2318 2253 2319 2223 2320 2224 2225 2320 2253 2224 2226 2321 2225 2227 2322 2226 2323 2227 2228 2229 2324 2228 2230 2325 2229 2230 2254 2326 2254 2231 2327 2327 2231 2232 2328 2232 2233 2329 2233 2234 2235 2330 2234 2331 2235 2236 2255 2332 2236 2237 2333 2255 2237 2238 2333 2256 2334 2238 2257 2250 2161 2239 2335 2257 2163 2259 2258 2258 2335 2239 2259 2164 2260 2260 2165 2261 2166 2262 2261 2240 2336 2262 2168 2264 2263 2240 2263 2336 2169 2265 2264 2170 2266 2265 2171 2267 2266 2172 2268 2267 2268 2241 2337 2241 2242 2337 2174 2270 2269 2338 2242 2269 2271 2270 2175 2271 2176 2272 2272 2177 2273 2273 2243 2339 2179 2275 2274 2339 2243 2274 2275 2180 2276 2181 2277 2276 2278 2277 2182 2279 2278 2183 2281 2279 2185 2244 2280 2340 2281 2244 2340 2282 2280 2186 2283 2282 2187 2283 2188 2284 2284 2189 2285 2190 2286 2285 2245 2341 2286 2245 2287 2341 2288 2287 2192 2289 2288 2193 2194 2290 2289 2290 2246 2342 2342 2246 2291 2196 2292 2291 2293 2292 2197 2293 2198 2294 2294 2199 2295 2295 2200 2296 2297 2296 2201 2202 2298 2297 2247 2343 2298 2299 2204 2300 2299 2343 2247 2300 2248 2344 2248 2301 2344 2206 2302 2301 2303 2302 2207 2303 2249 2345 2304 2305 2209 2249 2305 2345 2346 2256 2250 2347 2251 2306 2306 2211 2307 2307 2212 2308 2308 2213 2309 2214 2310 2309 2311 2310 2215 2311 2216 2312 2313 2312 2217 2218 2314 2313 2219 2315 2314 2348 2315 2252 2316 2348 2252 2316 2221 2317 2317 2222 2318 2223 2319 2318 2349 2319 2253 2321 2320 2225 2349 2253 2320 2226 2322 2321 2323 2322 2227 2324 2323 2228 2325 2324 2229 2230 2326 2325 2326 2254 2350 2254 2327 2350 2327 2232 2328 2328 2233 2329 2330 2329 2234 2331 2330 2235 2332 2331 2236 2332 2255 2351 2255 2333 2351 2238 2334 2333 2352 2334 2256 2257 2346 2250 2257 2335 2353 2258 2259 2354 2258 2354 2335 2259 2260 2355 2356 2260 2261 2262 2357 2261 2262 2336 2358 2263 2264 2359 2336 2263 2359 2264 2265 2360 2265 2266 2361 2266 2267 2362 2267 2268 2363 2364 2268 2337 2242 2338 2337 2270 2365 2269 2365 2338 2269 2366 2270 2271 2271 2272 2367 2272 2273 2368 2369 2273 2339 2275 2370 2274 2370 2339 2274 2371 2275 2276 2277 2372 2276 2278 2373 2277 2374 2278 2279 2375 2279 2281 2280 2376 2340 2281 2340 2377 2282 2376 2280 2378 2282 2283 2379 2283 2284 2284 2285 2380 2286 2381 2285 2341 2382 2286 2287 2383 2341 2288 2383 2287 2289 2384 2288 2289 2290 2385 2290 2342 2386 2342 2291 2387 2291 2292 2387 2293 2388 2292 2389 2293 2294 2390 2294 2295 2391 2295 2296 2297 2392 2296 2297 2298 2393 2298 2343 2394 2395 2299 2300 2395 2343 2299 2396 2300 2344 2301 2397 2344 2302 2397 2301 2398 2302 2303 2399 2303 2345 2304 2400 2305 2305 2401 2345 2352 2256 2346 2402 2347 2306 2306 2307 2403 2307 2308 2404 2308 2309 2405 2310 2406 2309 2311 2407 2310 2408 2311 2312 2409 2312 2313 2314 2410 2313 2315 2411 2314 2412 2315 2348 2316 2413 2348 2413 2316 2317 2414 2317 2318 2319 2415 2318 2349 2416 2319 2417 2320 2321 2349 2320 2417 2322 2418 2321 2323 2419 2322 2420 2323 2324 2324 2325 2421 2325 2326 2422 2423 2326 2350 2350 2327 2424 2327 2328 2424 2328 2329 2425 2426 2329 2330 2427 2330 2331 2428 2331 2332 2429 2332 2351 2333 2430 2351 2333 2334 2430 2352 2431 2334 2346 2257 2353 2335 2432 2353 2354 2259 2355 2335 2354 2432 2260 2356 2355 2357 2356 2261 2262 2358 2357 2358 2336 2433 2264 2360 2359 2336 2359 2433 2265 2361 2360 2361 2266 2362 2267 2363 2362 2363 2268 2364 2364 2337 2434 2337 2338 2434 2366 2365 2270 2365 2435 2338 2366 2271 2367 2367 2272 2368 2368 2273 2369 2436 2369 2339 2275 2371 2370 2436 2339 2370 2372 2371 2276 2277 2373 2372 2374 2373 2278 2374 2279 2375 2375 2281 2377 2376 2437 2340 2340 2437 2377 2378 2376 2282 2378 2283 2379 2379 2284 2380 2285 2381 2380 2286 2382 2381 2341 2438 2382 2383 2438 2341 2288 2384 2383 2289 2385 2384 2385 2290 2386 2342 2439 2386 2439 2342 2387 2292 2388 2387 2389 2388 2293 2390 2389 2294 2391 2390 2295 2392 2391 2296 2297 2393 2392 2393 2298 2394 2343 2440 2394 2396 2395 2300 2395 2440 2343 2441 2396 2344 2397 2441 2344 2398 2397 2302 2398 2303 2399 2401 2399 2345 2400 2401 2305 2352 2346 2442 2443 2347 2402 2402 2306 2403 2307 2404 2403 2404 2308 2405 2309 2406 2405 2310 2407 2406 2408 2407 2311 2409 2408 2312 2410 2409 2313 2411 2410 2314 2412 2411 2315 2444 2412 2348 2413 2444 2348 2414 2413 2317 2415 2414 2318 2319 2416 2415 2445 2416 2349 2418 2417 2321 2445 2349 2417 2322 2419 2418 2420 2419 2323 2420 2324 2421 2325 2422 2421 2422 2326 2423 2446 2423 2350 2446 2350 2424 2328 2425 2424 2425 2329 2426 2426 2330 2427 2427 2331 2428 2428 2332 2429 2447 2429 2351 2430 2447 2351 2334 2431 2430 2448 2431 2352 2442 2346 2353 2432 2449 2353 2450 2354 2355 2432 2354 2450 2355 2356 2451 2357 2452 2356 2357 2358 2453 2454 2358 2433 2360 2455 2359 2359 2455 2433 2360 2361 2456 2457 2361 2362 2362 2363 2458 2363 2364 2459 2460 2364 2434 2338 2435 2434 2461 2365 2366 2461 2435 2365 2462 2366 2367 2463 2367 2368 2464 2368 2369 2436 2465 2369 2371 2466 2370 2466 2436 2370 2467 2371 2372 2373 2468 2372 2469 2373 2374 2374 2375 2470 2471 2375 2377 2376 2472 2437 2437 2473 2377 2378 2472 2376 2474 2378 2379 2475 2379 2380 2380 2381 2476 2381 2382 2477 2382 2438 2478 2383 2479 2438 2383 2384 2479 2384 2385 2480 2481 2385 2386 2439 2482 2386 2483 2439 2387 2388 2483 2387 2389 2484 2388 2485 2389 2390 2486 2390 2391 2487 2391 2392 2393 2488 2392 2393 2394 2489 2440 2490 2394 2491 2395 2396 2491 2440 2395 2492 2396 2441 2493 2441 2397 2493 2397 2398 2494 2398 2399 2401 2495 2399 2400 2496 2401 2448 2352 2442 2443 2402 2497 2402 2403 2498 2403 2404 2499 2500 2404 2405 2406 2500 2405 2406 2407 2501 2408 2502 2407 2503 2408 2409 2504 2409 2410 2505 2410 2411 2506 2411 2412 2507 2412 2444 2508 2444 2413 2508 2413 2414 2509 2414 2415 2416 2510 2415 2445 2511 2416 2512 2417 2418 2512 2445 2417 2419 2513 2418 2420 2514 2419 2515 2420 2421 2421 2422 2516 2422 2423 2517 2446 2518 2423 2519 2446 2424 2425 2519 2424 2425 2426 2520 2426 2427 2521 2427 2428 2522 2523 2428 2429 2447 2524 2429 2525 2447 2430 2431 2525 2430 2448 2526 2431 2449 2442 2353 2432 2527 2449 2450 2355 2451 2527 2432 2450 2356 2452 2451 2357 2453 2452 2453 2358 2454 2454 2433 2528 2360 2456 2455 2433 2455 2528 2361 2457 2456 2457 2362 2458 2363 2459 2458 2459 2364 2460 2529 2460 2434 2435 2529 2434 2461 2366 2462 2461 2530 2435 2463 2462 2367 2464 2463 2368 2465 2464 2369 2436 2531 2465 2467 2466 2371 2466 2531 2436 2468 2467 2372 2469 2468 2373 2469 2374 2470 2470 2375 2471 2473 2471 2377 2437 2472 2532 2437 2532 2473 2474 2472 2378 2475 2474 2379 2475 2380 2476 2381 2477 2476 2477 2382 2478 2438 2533 2478 2479 2533 2438 2384 2480 2479 2480 2385 2481 2482 2481 2386 2534 2482 2439 2534 2439 2483 2388 2484 2483 2485 2484 2389 2485 2390 2486 2486 2391 2487 2488 2487 2392 2488 2393 2489 2394 2490 2489 2535 2490 2440 2491 2396 2492 2535 2440 2491 2492 2441 2536 2536 2441 2493 2493 2398 2494 2495 2494 2399 2401 2496 2495 2537 2448 2442 2538 2443 2497 2497 2402 2498 2403 2539 2498 2404 2500 2499 2539 2403 2499 2406 2501 2500 2407 2502 2501 2503 2502 2408 2503 2409 2504 2504 2410 2505 2505 2411 2506 2506 2412 2507 2507 2444 2540 2540 2444 2508 2508 2414 2509 2510 2509 2415 2416 2511 2510 2541 2511 2445 2513 2512 2418 2541 2445 2512 2419 2514 2513 2515 2514 2420 2515 2421 2516 2516 2422 2517 2423 2518 2517 2446 2542 2518 2519 2542 2446 2425 2520 2519 2520 2426 2521 2427 2522 2521 2522 2428 2523 2524 2523 2429 2447 2543 2524 2525 2543 2447 2431 2526 2525 2544 2526 2448 2449 2537 2442 2449 2527 2545 2546 2450 2451 2546 2527 2450 2452 2547 2451 2452 2453 2548 2453 2454 2549 2550 2454 2528 2456 2551 2455 2455 2551 2528 2457 2552 2456 2553 2457 2458 2459 2554 2458 2555 2459 2460 2460 2529 2556 2435 2530 2529 2557 2461 2462 2557 2530 2461 2463 2558 2462 2559 2463 2464 2560 2464 2465 2531 2561 2465 2562 2466 2467 2562 2531 2466 2563 2467 2468 2564 2468 2469 2565 2469 2470 2566 2470 2471 2473 2567 2471 2472 2568 2532 2532 2569 2473 2474 2568 2472 2570 2474 2475 2571 2475 2476 2477 2572 2476 2573 2477 2478 2533 2574 2478 2575 2533 2479 2480 2575 2479 2480 2481 2576 2577 2481 2482 2534 2578 2482 2579 2534 2483 2484 2579 2483 2580 2484 2485 2485 2486 2581 2582 2486 2487 2488 2583 2487 2584 2488 2489 2489 2490 2585 2535 2586 2490 2491 2492 2587 2535 2491 2587 2492 2536 2588 2536 2493 2589 2493 2494 2589 2590 2494 2495 2496 2591 2495 2544 2448 2537 2592 2538 2497 2497 2498 2593 2539 2594 2498 2500 2595 2499 2595 2539 2499 2501 2596 2500 2502 2597 2501 2598 2502 2503 2503 2504 2599 2504 2505 2600 2505 2506 2601 2506 2507 2602 2507 2540 2603 2540 2508 2604 2604 2508 2509 2510 2605 2509 2510 2511 2606 2541 2607 2511 2608 2512 2513 2541 2512 2608 2514 2609 2513 2515 2610 2514 2611 2515 2516 2612 2516 2517 2518 2613 2517 2518 2542 2614 2519 2615 2542 2519 2520 2615 2616 2520 2521 2521 2522 2617 2522 2523 2618 2619 2523 2524 2543 2620 2524 2525 2621 2543 2525 2526 2621 2544 2622 2526 2537 2449 2545 2527 2623 2545 2547 2546 2451 2546 2623 2527 2452 2548 2547 2548 2453 2549 2454 2550 2549 2624 2550 2528 2552 2551 2456 2551 2624 2528 2553 2552 2457 2554 2553 2458 2459 2555 2554 2555 2460 2556 2556 2529 2625 2529 2530 2625 2558 2557 2462 2557 2626 2530 2559 2558 2463 2559 2464 2560 2561 2560 2465 2627 2561 2531 2562 2467 2563 2627 2531 2562 2563 2468 2564 2564 2469 2565 2566 2565 2470 2567 2566 2471 2473 2569 2567 2568 2628 2532 2532 2628 2569 2570 2568 2474 2570 2475 2571 2572 2571 2476 2477 2573 2572 2574 2573 2478 2533 2629 2574 2575 2629 2533 2480 2576 2575 2576 2481 2577 2578 2577 2482 2534 2630 2578 2579 2630 2534 2580 2579 2484 2580 2485 2581 2581 2486 2582 2583 2582 2487 2584 2583 2488 2584 2489 2585 2490 2586 2585 2631 2586 2535 2492 2588 2587 2631 2535 2587 2588 2536 2632 2632 2536 2589 2494 2590 2589 2591 2590 2495 2544 2537 2633 2634 2538 2592 2592 2497 2593 2498 2594 2593 2635 2594 2539 2596 2595 2500 2595 2635 2539 2501 2597 2596 2598 2597 2502 2598 2503 2599 2599 2504 2600 2505 2601 2600 2601 2506 2602 2507 2603 2602 2603 2540 2636 2636 2540 2604 2605 2604 2509 2510 2606 2605 2511 2607 2606 2637 2607 2541 2609 2608 2513 2637 2541 2608 2514 2610 2609 2611 2610 2515 2612 2611 2516 2613 2612 2517 2613 2518 2614 2542 2638 2614 2542 2615 2638 2615 2520 2616 2616 2521 2617 2617 2522 2618 2618 2523 2619 2620 2619 2524 2543 2639 2620 2543 2621 2639 2526 2622 2621 2640 2622 2544 2633 2537 2545 2623 2641 2545 2547 2642 2546 2546 2642 2623 2547 2548 2643 2644 2548 2549 2550 2645 2549 2646 2550 2624 2552 2647 2551 2551 2647 2624 2648 2552 2553 2553 2554 2649 2555 2650 2554 2651 2555 2556 2652 2556 2625 2530 2626 2625 2558 2653 2557 2557 2653 2626 2559 2654 2558 2655 2559 2560 2561 2656 2560 2657 2561 2627 2562 2563 2658 2627 2562 2658 2563 2564 2659 2564 2565 2660 2661 2565 2566 2662 2566 2567 2569 2663 2567 2568 2664 2628 2569 2628 2665 2570 2664 2568 2666 2570 2571 2667 2571 2572 2573 2668 2572 2669 2573 2574 2629 2670 2574 2629 2575 2671 2575 2576 2671 2672 2576 2577 2577 2578 2673 2578 2630 2674 2579 2675 2630 2580 2675 2579 2676 2580 2581 2677 2581 2582 2583 2678 2582 2679 2583 2584 2680 2584 2585 2586 2681 2585 2682 2586 2631 2587 2588 2683 2631 2587 2683 2588 2632 2684 2632 2589 2685 2590 2686 2589 2591 2687 2590 2640 2544 2633 2634 2592 2688 2592 2593 2689 2594 2690 2593 2635 2691 2594 2692 2595 2596 2692 2635 2595 2597 2693 2596 2598 2694 2597 2695 2598 2599 2696 2599 2600 2601 2697 2600 2601 2602 2698 2603 2699 2602 2603 2636 2700 2701 2636 2604 2701 2604 2605 2606 2702 2605 2607 2703 2606 2704 2607 2637 2609 2705 2608 2705 2637 2608 2610 2706 2609 2611 2707 2610 2612 2708 2611 2709 2612 2613 2710 2613 2614 2638 2711 2614 2638 2615 2712 2615 2616 2712 2713 2616 2617 2714 2617 2618 2715 2618 2619 2620 2716 2619 2639 2717 2620 2621 2718 2639 2622 2718 2621 2640 2719 2622 2641 2633 2545 2623 2720 2641 2547 2643 2642 2623 2642 2720 2643 2548 2644 2645 2644 2549 2646 2645 2550 2721 2646 2624 2648 2647 2552 2647 2721 2624 2648 2553 2649 2554 2650 2649 2651 2650 2555 2651 2556 2652 2722 2652 2625 2626 2722 2625 2558 2654 2653 2626 2653 2723 2655 2654 2559 2656 2655 2560 2657 2656 2561 2657 2627 2724 2563 2659 2658 2627 2658 2724 2564 2660 2659 2660 2565 2661 2661 2566 2662 2663 2662 2567 2569 2665 2663 2628 2664 2725 2665 2628 2725 2666 2664 2570 2667 2666 2571 2668 2667 2572 2669 2668 2573 2670 2669 2574 2726 2670 2629 2726 2629 2671 2576 2672 2671 2672 2577 2673 2578 2674 2673 2674 2630 2727 2630 2675 2727 2676 2675 2580 2677 2676 2581 2678 2677 2582 2679 2678 2583 2679 2584 2680 2681 2680 2585 2682 2681 2586 2682 2631 2728 2588 2684 2683 2728 2631 2683 2684 2632 2685 2589 2686 2685 2590 2687 2686 2729 2640 2633 2730 2634 2688 2688 2592 2689 2593 2690 2689 2594 2691 2690 2635 2731 2691 2693 2692 2596 2692 2731 2635 2597 2694 2693 2695 2694 2598 2696 2695 2599 2697 2696 2600 2697 2601 2698 2602 2699 2698 2603 2700 2699 2700 2636 2732 2732 2636 2701 2702 2701 2605 2606 2703 2702 2704 2703 2607 2704 2637 2733 2609 2706 2705 2733 2637 2705 2610 2707 2706 2611 2708 2707 2709 2708 2612 2710 2709 2613 2711 2710 2614 2638 2734 2711 2638 2712 2734 2712 2616 2713 2714 2713 2617 2715 2714 2618 2716 2715 2619 2620 2717 2716 2735 2717 2639 2718 2735 2639 2622 2719 2718 2736 2719 2640 2641 2729 2633 2641 2720 2737 2642 2643 2738 2720 2642 2738 2643 2644 2739 2740 2644 2645 2646 2741 2645 2721 2742 2646 2743 2647 2648 2743 2721 2647 2744 2648 2649 2650 2745 2649 2651 2746 2650 2747 2651 2652 2722 2748 2652 2626 2723 2722 2653 2654 2749 2723 2653 2749 2655 2750 2654 2656 2751 2655 2657 2752 2656 2753 2657 2724 2658 2659 2754 2724 2658 2754 2660 2755 2659 2660 2661 2756 2757 2661 2662 2663 2758 2662 2663 2665 2759 2664 2760 2725 2665 2725 2761 2666 2760 2664 2762 2666 2667 2763 2667 2668 2764 2668 2669 2765 2669 2670 2766 2670 2726 2767 2726 2671 2672 2767 2671 2768 2672 2673 2674 2769 2673 2674 2727 2770 2675 2771 2727 2676 2771 2675 2772 2676 2677 2773 2677 2678 2774 2678 2679 2775 2679 2680 2681 2776 2680 2682 2777 2681 2778 2682 2728 2683 2684 2779 2728 2683 2779 2780 2684 2685 2686 2781 2685 2687 2782 2686 2736 2640 2729 2783 2730 2688 2784 2688 2689 2690 2784 2689 2690 2691 2785 2691 2731 2786 2787 2692 2693 2787 2731 2692 2694 2788 2693 2695 2789 2694 2696 2790 2695 2791 2696 2697 2697 2698 2792 2698 2699 2793 2699 2700 2794 2700 2732 2795 2732 2701 2796 2796 2701 2702 2703 2797 2702 2704 2798 2703 2799 2704 2733 2706 2800 2705 2800 2733 2705 2706 2707 2801 2707 2708 2802 2709 2803 2708 2804 2709 2710 2710 2711 2805 2711 2734 2806 2734 2712 2807 2807 2712 2713 2714 2808 2713 2715 2809 2714 2810 2715 2716 2717 2811 2716 2812 2717 2735 2735 2718 2813 2718 2719 2813 2736 2814 2719 2729 2641 2737 2720 2815 2737 2643 2739 2738 2815 2720 2738 2739 2644 2740 2741 2740 2645 2646 2742 2741 2721 2816 2742 2743 2648 2744 2743 2816 2721 2745 2744 2649 2650 2746 2745 2747 2746 2651 2748 2747 2652 2748 2722 2817 2722 2723 2817 2654 2750 2749 2818 2723 2749 2655 2751 2750 2656 2752 2751 2753 2752 2657 2819 2753 2724 2659 2755 2754 2819 2724 2754 2660 2756 2755 2756 2661 2757 2758 2757 2662 2758 2663 2759 2665 2761 2759 2760 2820 2725 2725 2820 2761 2762 2760 2666 2762 2667 2763 2763 2668 2764 2764 2669 2765 2765 2670 2766 2766 2726 2821 2821 2726 2767 2768 2767 2672 2769 2768 2673 2769 2674 2770 2727 2822 2770 2771 2822 2727 2772 2771 2676 2772 2677 2773 2773 2678 2774 2774 2679 2775 2776 2775 2680 2681 2777 2776 2778 2777 2682 2778 2728 2823 2779 2684 2824 2728 2779 2823 2684 2780 2824 2781 2780 2685 2782 2781 2686 2736 2729 2825 2826 2730 2783 2783 2688 2827 2688 2784 2827 2690 2785 2784 2691 2786 2785 2731 2828 2786 2788 2787 2693 2787 2828 2731 2694 2789 2788 2695 2790 2789 2791 2790 2696 2791 2697 2792 2698 2793 2792 2793 2699 2794 2700 2795 2794 2795 2732 2829 2829 2732 2796 2797 2796 2702 2703 2798 2797 2799 2798 2704 2830 2799 2733 2800 2706 2801 2830 2733 2800 2801 2707 2802 2708 2803 2802 2804 2803 2709 2804 2710 2805 2805 2711 2806 2806 2734 2831 2831 2734 2807 2808 2807 2713 2714 2809 2808 2810 2809 2715 2811 2810 2716 2812 2811 2717 2812 2735 2832 2735 2813 2832 2719 2814 2813 2833 2814 2736 2825 2729 2737 2815 2834 2737 2739 2835 2738 2835 2815 2738 2739 2740 2836 2740 2741 2837 2741 2742 2838 2742 2816 2839 2840 2743 2744 2840 2816 2743 2745 2841 2744 2746 2842 2745 2843 2746 2747 2844 2747 2748 2845 2748 2817 2723 2818 2817 2750 2846 2749 2846 2818 2749 2750 2751 2847 2751 2752 2848 2753 2849 2752 2850 2753 2819 2755 2851 2754 2851 2819 2754 2756 2852 2755 2756 2757 2853 2854 2757 2758 2758 2759 2855 2761 2856 2759 2857 2820 2760 2820 2858 2761 2857 2760 2762 2762 2763 2859 2763 2764 2860 2764 2765 2861 2765 2766 2862 2766 2821 2863 2821 2767 2864 2864 2767 2768 2865 2768 2769 2866 2769 2770 2822 2867 2770 2868 2822 2771 2868 2771 2772 2772 2773 2869 2773 2774 2870 2871 2774 2775 2775 2776 2872 2777 2873 2776 2874 2777 2778 2875 2778 2823 2876 2779 2824 2779 2876 2823 2780 2877 2824 2781 2878 2780 2782 2879 2781 2833 2736 2825 2826 2783 2880 2881 2783 2827 2784 2882 2827 2785 2882 2784 2786 2883 2785 2786 2828 2884 2788 2885 2787 2787 2885 2828 2788 2789 2886 2789 2790 2887 2791 2888 2790 2889 2791 2792 2792 2793 2890 2891 2793 2794 2795 2892 2794 2893 2795 2829 2894 2829 2796 2797 2894 2796 2798 2895 2797 2896 2798 2799 2897 2799 2830 2898 2800 2801 2898 2830 2800 2899 2801 2802 2803 2900 2802 2804 2901 2803 2902 2804 2805 2903 2805 2806 2904 2806 2831 2905 2831 2807 2808 2905 2807 2809 2906 2808 2907 2809 2810 2908 2810 2811 2909 2811 2812 2910 2812 2832 2813 2911 2832 2814 2911 2813 2833 2912 2814 2834 2825 2737 2815 2913 2834 2739 2836 2835 2835 2913 2815 2836 2740 2837 2741 2838 2837 2838 2742 2839 2816 2914 2839 2841 2840 2744 2840 2914 2816 2745 2842 2841 2843 2842 2746 2843 2747 2844 2844 2748 2845 2915 2845 2817 2818 2915 2817 2750 2847 2846 2846 2916 2818 2847 2751 2848 2752 2849 2848 2850 2849 2753 2850 2819 2917 2755 2852 2851 2819 2851 2917 2756 2853 2852 2853 2757 2854 2854 2758 2855 2759 2856 2855 2858 2856 2761 2918 2820 2857 2918 2858 2820 2857 2762 2859 2763 2860 2859 2764 2861 2860 2861 2765 2862 2766 2863 2862 2821 2919 2863 2821 2864 2919 2864 2768 2865 2865 2769 2866 2867 2866 2770 2822 2920 2867 2868 2920 2822 2868 2772 2869 2773 2870 2869 2870 2774 2871 2871 2775 2872 2776 2873 2872 2874 2873 2777 2874 2778 2875 2876 2875 2823 2877 2876 2824 2878 2877 2780 2781 2879 2878 2921 2833 2825 2922 2826 2880 2880 2783 2881 2882 2881 2827 2883 2882 2785 2883 2786 2884 2828 2923 2884 2788 2886 2885 2828 2885 2923 2886 2789 2887 2790 2888 2887 2889 2888 2791 2889 2792 2890 2890 2793 2891 2892 2891 2794 2892 2795 2893 2924 2893 2829 2894 2924 2829 2895 2894 2797 2896 2895 2798 2896 2799 2897 2897 2830 2925 2899 2898 2801 2925 2830 2898 2900 2899 2802 2803 2901 2900 2902 2901 2804 2903 2902 2805 2904 2903 2806 2926 2904 2831 2905 2926 2831 2906 2905 2808 2907 2906 2809 2907 2810 2908 2908 2811 2909 2909 2812 2910 2927 2910 2832 2911 2927 2832 2814 2912 2911 2928 2912 2833 2834 2921 2825 2834 2913 2929 2835 2836 2930 2835 2930 2913 2931 2836 2837 2838 2932 2837 2933 2838 2839 2914 2934 2839 2935 2840 2841 2935 2914 2840 2842 2936 2841 2937 2842 2843 2843 2844 2938 2844 2845 2939 2845 2915 2940 2818 2916 2915 2846 2847 2941 2846 2941 2916 2847 2848 2942 2848 2849 2943 2850 2944 2849 2945 2850 2917 2851 2852 2946 2917 2851 2946 2852 2853 2947 2853 2854 2948 2949 2854 2855 2856 2950 2855 2858 2951 2856 2918 2857 2952 2953 2858 2918 2952 2857 2859 2859 2860 2954 2860 2861 2955 2956 2861 2862 2863 2957 2862 2863 2919 2958 2919 2864 2959 2864 2865 2959 2865 2866 2960 2866 2867 2961 2920 2962 2867 2963 2920 2868 2963 2868 2869 2869 2870 2964 2870 2871 2965 2966 2871 2872 2873 2967 2872 2968 2873 2874 2969 2874 2875 2876 2970 2875 2971 2876 2877 2972 2877 2878 2879 2973 2878 2928 2833 2921 2922 2880 2974 2975 2880 2881 2881 2882 2976 2883 2977 2882 2978 2883 2884 2923 2979 2884 2885 2886 2980 2885 2980 2923 2981 2886 2887 2888 2982 2887 2889 2983 2888 2984 2889 2890 2985 2890 2891 2892 2986 2891 2987 2892 2893 2924 2988 2893 2894 2989 2924 2895 2989 2894 2990 2895 2896 2896 2897 2991 2897 2925 2992 2993 2898 2899 2925 2898 2993 2994 2899 2900 2901 2995 2900 2902 2996 2901 2997 2902 2903 2998 2903 2904 2926 2999 2904 2905 3000 2926 2906 3000 2905 3001 2906 2907 2907 2908 3002 2908 2909 3003 2909 2910 3004 3005 2910 2927 2911 3006 2927 2911 2912 3006 2928 3007 2912 2921 2834 2929 2913 3008 2929 2930 2836 2931 2913 2930 3008 2932 2931 2837 2838 2933 2932 2934 2933 2839 2914 3009 2934 2936 2935 2841 2935 3009 2914 2937 2936 2842 2937 2843 2938 2844 2939 2938 2939 2845 2940 2915 3010 2940 2916 3010 2915 2941 2847 2942 2916 2941 3011 2942 2848 2943 2849 2944 2943 2945 2944 2850 3012 2945 2917 2852 2947 2946 3012 2917 2946 2947 2853 2948 2948 2854 2949 2950 2949 2855 2856 2951 2950 2953 2951 2858 2918 2952 3013 2953 2918 3013 2952 2859 2954 2954 2860 2955 2955 2861 2956 2957 2956 2862 2957 2863 2958 2958 2919 3014 3014 2919 2959 2959 2865 2960 2866 2961 2960 2867 2962 2961 3015 2962 2920 3015 2920 2963 2963 2869 2964 2964 2870 2965 2965 2871 2966 2967 2966 2872 2968 2967 2873 2968 2874 2969 2969 2875 3016 2971 2970 2876 2875 2970 3016 2971 2877 2972 2973 2972 2878 2928 2921 3017 3018 2922 2974 2974 2880 2975 2975 2881 2976 2882 2977 2976 2978 2977 2883 2979 2978 2884 3019 2979 2923 2980 2886 2981 2980 3019 2923 2982 2981 2887 2888 2983 2982 2984 2983 2889 2985 2984 2890 2986 2985 2891 2987 2986 2892 2988 2987 2893 3020 2988 2924 2989 3020 2924 2990 2989 2895 2990 2896 2991 2897 2992 2991 2925 3021 2992 2993 2899 2994 2925 2993 3021 2995 2994 2900 2901 2996 2995 2997 2996 2902 2997 2903 2998 2999 2998 2904 2926 3022 2999 3000 3022 2926 3001 3000 2906 3001 2907 3002 2908 3003 3002 3003 2909 3004 3004 2910 3005 3023 3005 2927 3006 3023 2927 2912 3007 3006 3024 3007 2928 3017 2921 2929 3008 3025 2929 2930 2931 3026 3008 2930 3026 3027 2931 2932 2932 2933 3028 2934 3029 2933 2934 3009 3030 2936 3031 2935 2935 3031 3009 2937 3032 2936 3033 2937 2938 2938 2939 3034 3035 2939 2940 3010 3036 2940 2916 3011 3010 3037 2941 2942 3011 2941 3037 3038 2942 2943 2944 3039 2943 2945 3040 2944 3041 2945 3012 2946 2947 3042 3012 2946 3042 2947 2948 3043 3044 2948 2949 2950 3045 2949 2951 3046 2950 3047 2951 2953 3013 2952 3048 3049 2953 3013 3048 2952 2954 3050 2954 2955 3051 2955 2956 2957 3052 2956 3053 2957 2958 3054 2958 3014 3055 3014 2959 3055 2959 2960 2961 3056 2960 2962 3057 2961 3015 3058 2962 3015 2963 3059 3059 2963 2964 3060 2964 2965 3061 2965 2966 2967 3062 2966 3063 2967 2968 2968 2969 3064 3065 2969 3016 3066 2970 2971 2970 3067 3016 3068 2971 2972 2973 3069 2972 3024 2928 3017 3070 3018 2974 3071 2974 2975 3072 2975 2976 2977 3072 2976 2978 3073 2977 3074 2978 2979 3075 2979 3019 2980 2981 3076 2980 3076 3019 2981 2982 3077 2982 2983 3078 2984 3079 2983 2985 3080 2984 2986 3081 2985 2987 3082 2986 2988 3083 2987 3020 3084 2988 3085 3020 2989 3085 2989 2990 2990 2991 3086 2991 2992 3087 3021 3088 2992 3089 2993 2994 3021 2993 3089 2995 3090 2994 2995 2996 3091 2997 3092 2996 3093 2997 2998 2999 3094 2998 3022 3095 2999 3096 3022 3000 3096 3000 3001 3001 3002 3097 3002 3003 3098 3099 3003 3004 3100 3004 3005 3023 3101 3005 3006 3102 3023 3007 3102 3006 3024 3103 3007 3025 3017 2929 3008 3104 3025 2931 3027 3026 3104 3008 3026 3027 2932 3028 2933 3029 3028 2934 3030 3029 3030 3009 3105 2936 3032 3031 3009 3031 3105 3033 3032 2937 3033 2938 3034 3034 2939 3035 3036 3035 2940 3010 3106 3036 3010 3011 3106 3038 3037 2942 3011 3037 3107 3039 3038 2943 2944 3040 3039 3041 3040 2945 3041 3012 3108 3042 2947 3043 3108 3012 3042 3043 2948 3044 3045 3044 2949 3046 3045 2950 3047 3046 2951 3047 2953 3049 3109 3013 3048 3049 3013 3109 3050 3048 2954 3051 3050 2955 3052 3051 2956 3053 3052 2957 3053 2958 3054 3110 3054 3014 3055 3110 3014 3056 3055 2960 3057 3056 2961 2962 3058 3057 3111 3058 3015 3111 3015 3059 3060 3059 2964 3061 3060 2965 3062 3061 2966 3063 3062 2967 3063 2968 3064 3064 2969 3065 3067 3065 3016 3066 3067 2970 3068 3066 2971 3069 3068 2972 3112 3024 3017 3113 3018 3070 3070 2974 3071 3071 2975 3114 2975 3072 3114 2977 3073 3072 3074 3073 2978 3074 2979 3075 3115 3075 3019 2981 3077 3076 3076 3115 3019 2982 3078 3077 2983 3079 3078 2984 3080 3079 2985 3081 3080 2986 3082 3081 2987 3083 3082 2988 3084 3083 3020 3116 3084 3085 3116 3020 3085 2990 3086 2991 3087 3086 2992 3088 3087 3021 3117 3088 3090 3089 2994 3021 3089 3117 2995 3091 3090 2996 3092 3091 3093 3092 2997 3094 3093 2998 3095 3094 2999 3118 3095 3022 3118 3022 3096 3096 3001 3097 3097 3002 3098 3098 3003 3099 3100 3099 3004 3101 3100 3005 3023 3119 3101 3102 3119 3023 3007 3103 3102 3120 3103 3024 3025 3112 3017 3025 3104 3121 3027 3122 3026 3122 3104 3026 3123 3027 3028 3029 3124 3028 3029 3030 3125 3126 3030 3105 3031 3032 3127 3031 3127 3105 3033 3128 3032 3129 3033 3034 3130 3034 3035 3036 3131 3035 3106 3132 3036 3011 3107 3106 3133 3037 3038 3107 3037 3133 3134 3038 3039 3039 3040 3135 3041 3136 3040 3137 3041 3108 3138 3042 3043 3138 3108 3042 3139 3043 3044 3045 3140 3044 3046 3141 3045 3142 3046 3047 3047 3049 3143 3144 3109 3048 3145 3049 3109 3050 3144 3048 3146 3050 3051 3052 3147 3051 3053 3148 3052 3149 3053 3054 3110 3150 3054 3151 3110 3055 3056 3151 3055 3152 3056 3057 3058 3153 3057 3154 3058 3111 3155 3111 3059 3060 3155 3059 3156 3060 3061 3062 3157 3061 3158 3062 3063 3159 3063 3064 3160 3064 3065 3067 3161 3065 3162 3067 3066 3066 3068 3163 3069 3164 3068 3120 3024 3112 3113 3070 3165 3070 3071 3166 3167 3071 3114 3072 3168 3114 3072 3073 3168 3074 3169 3073 3170 3074 3075 3115 3171 3075 3077 3172 3076 3172 3115 3076 3077 3078 3173 3079 3174 3078 3079 3080 3175 3080 3081 3176 3081 3082 3177 3082 3083 3178 3083 3084 3179 3084 3116 3180 3181 3116 3085 3181 3085 3086 3087 3182 3086 3087 3088 3183 3088 3117 3184 3185 3089 3090 3117 3089 3185 3091 3186 3090 3092 3187 3091 3188 3092 3093 3189 3093 3094 3190 3094 3095 3191 3095 3118 3118 3096 3192 3192 3096 3097 3193 3097 3098 3194 3098 3099 3100 3195 3099 3196 3100 3101 3119 3197 3101 3119 3102 3198 3102 3103 3198 3120 3199 3103 3112 3025 3121 3104 3200 3121 3123 3122 3027 3122 3200 3104 3124 3123 3028 3029 3125 3124 3125 3030 3126 3201 3126 3105 3032 3128 3127 3127 3201 3105 3129 3128 3033 3130 3129 3034 3131 3130 3035 3036 3132 3131 3202 3132 3106 3107 3202 3106 3133 3038 3134 3107 3133 3203 3134 3039 3135 3040 3136 3135 3137 3136 3041 3204 3137 3108 3139 3138 3043 3138 3204 3108 3140 3139 3044 3045 3141 3140 3142 3141 3046 3142 3047 3143 3143 3049 3145 3144 3205 3109 3205 3145 3109 3146 3144 3050 3147 3146 3051 3052 3148 3147 3149 3148 3053 3150 3149 3054 3110 3206 3150 3151 3206 3110 3152 3151 3056 3153 3152 3057 3154 3153 3058 3154 3111 3207 3207 3111 3155 3156 3155 3060 3157 3156 3061 3158 3157 3062 3158 3063 3159 3159 3064 3160 3161 3160 3065 3162 3161 3067 3162 3066 3163 3068 3164 3163 3120 3112 3208 3209 3113 3165 3165 3070 3166 3071 3167 3166 3210 3167 3114 3168 3210 3114 3073 3169 3168 3170 3169 3074 3171 3170 3075 3211 3171 3115 3077 3173 3172 3211 3115 3172 3078 3174 3173 3079 3175 3174 3175 3080 3176 3176 3081 3177 3082 3178 3177 3178 3083 3179 3084 3180 3179 3116 3212 3180 3181 3212 3116 3182 3181 3086 3182 3087 3183 3183 3088 3184 3184 3117 3213 3186 3185 3090 3213 3117 3185 3187 3186 3091 3188 3187 3092 3188 3093 3189 3189 3094 3190 3190 3095 3191 3191 3118 3214 3118 3192 3214 3192 3097 3193 3194 3193 3098 3195 3194 3099 3196 3195 3100 3197 3196 3101 3215 3197 3119 3215 3119 3198 3103 3199 3198 3216 3199 3120 3208 3112 3121 3200 3217 3121 3123 3218 3122 3122 3218 3200 3124 3219 3123 3124 3125 3220 3125 3126 3221 3126 3201 3222 3127 3128 3223 3127 3223 3201 3129 3224 3128 3225 3129 3130 3226 3130 3131 3132 3227 3131 3202 3228 3132 3107 3203 3202 3133 3134 3229 3203 3133 3229 3134 3135 3230 3136 3231 3135 3232 3136 3137 3233 3137 3204 3139 3234 3138 3234 3204 3138 3235 3139 3140 3141 3236 3140 3237 3141 3142 3142 3143 3238 3239 3143 3145 3144 3240 3205 3205 3241 3145 3146 3240 3144 3242 3146 3147 3148 3243 3147 3244 3148 3149 3149 3150 3245 3206 3246 3150 3151 3247 3206 3152 3247 3151 3153 3248 3152 3249 3153 3154 3154 3207 3250 3207 3155 3251 3251 3155 3156 3252 3156 3157 3253 3157 3158 3158 3159 3254 3255 3159 3160 3161 3256 3160 3257 3161 3162 3258 3162 3163 3164 3259 3163 3216 3120 3208 3260 3209 3165 3165 3166 3261 3167 3262 3166 3263 3167 3210 3168 3264 3210 3169 3264 3168 3170 3265 3169 3171 3266 3170 3211 3267 3171 3173 3268 3172 3268 3211 3172 3174 3269 3173 3174 3175 3270 3175 3176 3271 3272 3176 3177 3178 3273 3177 3274 3178 3179 3179 3180 3275 3212 3276 3180 3277 3212 3181 3277 3181 3182 3278 3182 3183 3279 3183 3184 3280 3184 3213 3186 3281 3185 3281 3213 3185 3187 3282 3186 3283 3187 3188 3188 3189 3284 3189 3190 3285 3190 3191 3286 3287 3191 3214 3214 3192 3288 3288 3192 3193 3194 3289 3193 3195 3290 3194 3291 3195 3196 3292 3196 3197 3293 3197 3215 3294 3215 3198 3199 3294 3198 3216 3295 3199 3217 3208 3121 3200 3296 3217 3123 3219 3218 3200 3218 3296 3124 3220 3219 3220 3125 3221 3221 3126 3222 3201 3297 3222 3128 3224 3223 3223 3297 3201 3225 3224 3129 3225 3130 3226 3227 3226 3131 3132 3228 3227 3202 3298 3228 3202 3203 3298 3229 3134 3230 3299 3203 3229 3135 3231 3230 3232 3231 3136 3232 3137 3233 3233 3204 3300 3235 3234 3139 3300 3204 3234 3236 3235 3140 3237 3236 3141 3237 3142 3238 3238 3143 3239 3241 3239 3145 3205 3240 3301 3205 3301 3241 3242 3240 3146 3243 3242 3147 3244 3243 3148 3244 3149 3245 3150 3246 3245 3206 3302 3246 3206 3247 3302 3152 3248 3247 3249 3248 3153 3249 3154 3250 3250 3207 3303 3207 3251 3303 3251 3156 3252 3252 3157 3253 3253 3158 3254 3159 3255 3254 3256 3255 3160 3257 3256 3161 3258 3257 3162 3259 3258 3163 3304 3216 3208 3305 3209 3260 3260 3165 3261 3166 3262 3261 3263 3262 3167 3306 3263 3210 3264 3306 3210 3169 3265 3264 3170 3266 3265 3171 3267 3266 3211 3307 3267 3269 3268 3173 3268 3307 3211 3174 3270 3269 3270 3175 3271 3176 3272 3271 3273 3272 3177 3178 3274 3273 3274 3179 3275 3180 3276 3275 3212 3308 3276 3277 3308 3212 3277 3182 3278 3279 3278 3183 3280 3279 3184 3309 3280 3213 3186 3282 3281 3281 3309 3213 3283 3282 3187 3283 3188 3284 3189 3285 3284 3190 3286 3285 3286 3191 3287 3287 3214 3310 3310 3214 3288 3289 3288 3193 3194 3290 3289 3291 3290 3195 3291 3196 3292 3292 3197 3293 3293 3215 3311 3215 3294 3311 3199 3295 3294 3312 3295 3216 3217 3304 3208 3217 3296 3313 3218 3219 3314 3296 3218 3314 3219 3220 3315 3316 3220 3221 3317 3221 3222 3222 3297 3318 3224 3319 3223 3223 3319 3297 3225 3320 3224 3321 3225 3226 3227 3322 3226 3227 3228 3323 3228 3298 3324 3298 3203 3299 3325 3229 3230 3325 3299 3229 3231 3326 3230 3327 3231 3232 3232 3233 3328 3233 3300 3329 3330 3234 3235 3300 3234 3330 3331 3235 3236 3332 3236 3237 3333 3237 3238 3334 3238 3239 3241 3335 3239 3240 3336 3301 3241 3301 3337 3242 3336 3240 3338 3242 3243 3339 3243 3244 3340 3244 3245 3246 3341 3245 3246 3302 3342 3302 3247 3343 3247 3248 3343 3249 3344 3248 3345 3249 3250 3346 3250 3303 3303 3251 3347 3251 3252 3347 3252 3253 3348 3349 3253 3254 3255 3350 3254 3256 3351 3255 3352 3256 3257 3257 3258 3353 3259 3354 3258 3312 3216 3304 3305 3260 3355 3356 3260 3261 3262 3356 3261 3263 3357 3262 3358 3263 3306 3264 3359 3306 3264 3265 3359 3265 3266 3360 3266 3267 3361 3267 3307 3362 3269 3363 3268 3268 3363 3307 3269 3270 3364 3365 3270 3271 3272 3366 3271 3367 3272 3273 3274 3368 3273 3369 3274 3275 3276 3370 3275 3276 3308 3371 3372 3308 3277 3372 3277 3278 3279 3373 3278 3280 3374 3279 3375 3280 3309 3282 3376 3281 3281 3376 3309 3377 3282 3283 3378 3283 3284 3285 3379 3284 3286 3380 3285 3286 3287 3381 3382 3287 3310 3383 3310 3288 3289 3383 3288 3290 3384 3289 3385 3290 3291 3291 3292 3386 3292 3293 3387 3388 3293 3311 3294 3389 3311 3295 3389 3294 3312 3390 3295 3217 3313 3304 3313 3296 3391 3219 3315 3314 3391 3296 3314 3315 3220 3316 3317 3316 3221 3317 3222 3318 3318 3297 3392 3224 3320 3319 3297 3319 3392 3321 3320 3225 3322 3321 3226 3322 3227 3323 3228 3324 3323 3324 3298 3393 3298 3299 3393 3326 3325 3230 3299 3325 3394 3327 3326 3231 3327 3232 3328 3233 3329 3328 3300 3395 3329 3330 3235 3331 3300 3330 3395 3331 3236 3332 3332 3237 3333 3333 3238 3334 3335 3334 3239 3335 3241 3337 3336 3396 3301 3301 3396 3337 3338 3336 3242 3338 3243 3339 3339 3244 3340 3341 3340 3245 3246 3342 3341 3342 3302 3397 3397 3302 3343 3248 3344 3343 3345 3344 3249 3346 3345 3250 3398 3346 3303 3398 3303 3347 3252 3348 3347 3348 3253 3349 3350 3349 3254 3350 3255 3399 3352 3351 3256 3255 3351 3399 3352 3257 3353 3258 3354 3353 3400 3312 3304 3401 3305 3355 3355 3260 3402 3260 3356 3402 3262 3357 3356 3358 3357 3263 3403 3358 3306 3359 3403 3306 3265 3360 3359 3360 3266 3361 3267 3362 3361 3362 3307 3404 3269 3364 3363 3307 3363 3404 3364 3270 3365 3366 3365 3271 3367 3366 3272 3368 3367 3273 3369 3368 3274 3370 3369 3275 3370 3276 3371 3308 3405 3371 3372 3405 3308 3373 3372 3278 3374 3373 3279 3375 3374 3280 3406 3375 3309 3377 3376 3282 3376 3406 3309 3377 3283 3378 3379 3378 3284 3285 3380 3379 3286 3381 3380 3381 3287 3382 3407 3382 3310 3383 3407 3310 3289 3384 3383 3385 3384 3290 3385 3291 3386 3386 3292 3387 3387 3293 3388 3408 3388 3311 3389 3408 3311 3295 3390 3389 3409 3390 3312 3313 3400 3304 3313 3391 3410 3315 3411 3314 3411 3391 3314 3315 3316 3412 3413 3316 3317 3414 3317 3318 3415 3318 3392 3319 3320 3416 3392 3319 3416 3321 3417 3320 3418 3321 3322 3419 3322 3323 3324 3420 3323 3421 3324 3393 3393 3299 3394 3326 3422 3325 3325 3422 3394 3423 3326 3327 3424 3327 3328 3329 3425 3328 3395 3426 3329 3330 3331 3427 3395 3330 3427 3331 3332 3428 3332 3333 3429 3430 3333 3334 3335 3431 3334 3432 3335 3337 3433 3396 3336 3396 3434 3337 3433 3336 3338 3338 3339 3435 3339 3340 3436 3340 3341 3437 3342 3438 3341 3439 3342 3397 3440 3397 3343 3344 3440 3343 3441 3344 3345 3442 3345 3346 3443 3346 3398 3398 3347 3444 3347 3348 3444 3348 3349 3445 3446 3349 3350 3447 3350 3399 3352 3448 3351 3351 3449 3399 3450 3352 3353 3354 3451 3353 3409 3312 3400 3401 3355 3452 3453 3355 3402 3356 3454 3402 3357 3454 3356 3358 3455 3357 3403 3456 3358 3457 3403 3359 3360 3457 3359 3458 3360 3361 3361 3362 3459 3362 3404 3460 3363 3364 3461 3404 3363 3461 3364 3365 3462 3463 3365 3366 3367 3464 3366 3368 3465 3367 3369 3466 3368 3467 3369 3370 3468 3370 3371 3405 3469 3371 3470 3405 3372 3470 3372 3373 3471 3373 3374 3472 3374 3375 3473 3375 3406 3474 3376 3377 3474 3406 3376 3377 3378 3475 3476 3378 3379 3380 3477 3379 3380 3381 3478 3381 3382 3479 3480 3382 3407 3481 3407 3383 3384 3481 3383 3482 3384 3385 3385 3386 3483 3484 3386 3387 3485 3387 3388 3408 3486 3388 3389 3487 3408 3389 3390 3487 3409 3488 3390 3400 3313 3410 3391 3489 3410 3315 3412 3411 3391 3411 3489 3412 3316 3413 3413 3317 3414 3415 3414 3318 3490 3415 3392 3320 3417 3416 3490 3392 3416 3418 3417 3321 3418 3322 3419 3420 3419 3323 3324 3421 3420 3421 3393 3491 3393 3394 3491 3423 3422 3326 3422 3492 3394 3423 3327 3424 3425 3424 3328 3426 3425 3329 3426 3395 3493 3331 3428 3427 3493 3395 3427 3332 3429 3428 3429 3333 3430 3431 3430 3334 3432 3431 3335 3434 3432 3337 3494 3396 3433 3494 3434 3396 3433 3338 3435 3339 3436 3435 3436 3340 3437 3341 3438 3437 3342 3439 3438 3495 3439 3397 3440 3495 3397 3441 3440 3344 3441 3345 3442 3442 3346 3443 3443 3398 3496 3496 3398 3444 3348 3445 3444 3445 3349 3446 3447 3446 3350 3449 3447 3399 3450 3448 3352 3351 3448 3449 3451 3450 3353 3409 3400 3497 3498 3401 3452 3355 3453 3452 3454 3453 3402 3455 3454 3357 3358 3456 3455 3499 3456 3403 3499 3403 3457 3360 3458 3457 3458 3361 3459 3362 3460 3459 3404 3500 3460 3364 3462 3461 3404 3461 3500 3462 3365 3463 3464 3463 3366 3465 3464 3367 3368 3466 3465 3467 3466 3369 3468 3467 3370 3469 3468 3371 3501 3469 3405 3501 3405 3470 3470 3373 3471 3471 3374 3472 3472 3375 3473 3473 3406 3502 3474 3377 3475 3502 3406 3474 3378 3476 3475 3477 3476 3379 3477 3380 3478 3381 3479 3478 3479 3382 3480 3480 3407 3503 3503 3407 3481 3482 3481 3384 3482 3385 3483 3483 3386 3484 3485 3484 3387 3486 3485 3388 3486 3408 3504 3408 3487 3504 3390 3488 3487 3505 3488 3409 3497 3400 3410 3489 3506 3410 3412 3507 3411 3411 3507 3489 3412 3413 3508 3509 3413 3414 3415 3510 3414 3511 3415 3490 3417 3512 3416 3512 3490 3416 3418 3513 3417 3514 3418 3419 3420 3515 3419 3421 3516 3420 3517 3421 3491 3394 3492 3491 3518 3422 3423 3518 3492 3422 3423 3424 3519 3520 3424 3425 3426 3521 3425 3522 3426 3493 3428 3523 3427 3523 3493 3427 3429 3524 3428 3429 3430 3525 3526 3430 3431 3527 3431 3432 3528 3432 3434 3494 3433 3529 3530 3434 3494 3529 3433 3435 3435 3436 3531 3532 3436 3437 3438 3533 3437 3438 3439 3534 3495 3535 3439 3536 3495 3440 3536 3440 3441 3441 3442 3537 3442 3443 3538 3443 3496 3539 3540 3496 3444 3445 3540 3444 3445 3446 3541 3542 3446 3447 3543 3447 3449 3544 3448 3450 3448 3545 3449 3451 3546 3450 3505 3409 3497 3547 3498 3452 3453 3547 3452 3548 3453 3454 3548 3454 3455 3455 3456 3549 3499 3550 3456 3551 3499 3457 3458 3551 3457 3552 3458 3459 3460 3553 3459 3460 3500 3554 3461 3462 3555 3500 3461 3555 3462 3463 3556 3557 3463 3464 3558 3464 3465 3466 3559 3465 3467 3560 3466 3468 3561 3467 3469 3562 3468 3563 3469 3501 3501 3470 3564 3470 3471 3564 3471 3472 3565 3472 3473 3566 3473 3502 3567 3568 3474 3475 3502 3474 3568 3476 3569 3475 3477 3570 3476 3571 3477 3478 3479 3572 3478 3479 3480 3573 3480 3503 3574 3503 3481 3575 3575 3481 3482 3576 3482 3483 3577 3483 3484 3485 3578 3484 3579 3485 3486 3580 3486 3504 3487 3581 3504 3488 3581 3487 3505 3582 3488 3506 3497 3410 3489 3583 3506 3412 3508 3507 3489 3507 3583 3508 3413 3509 3510 3509 3414 3511 3510 3415 3584 3511 3490 3417 3513 3512 3584 3490 3512 3514 3513 3418 3515 3514 3419 3516 3515 3420 3517 3516 3421 3585 3517 3491 3492 3585 3491 3518 3423 3519 3586 3492 3518 3424 3520 3519 3521 3520 3425 3522 3521 3426 3587 3522 3493 3524 3523 3428 3523 3587 3493 3429 3525 3524 3525 3430 3526 3526 3431 3527 3527 3432 3528 3528 3434 3530 3494 3529 3588 3530 3494 3588 3529 3435 3531 3531 3436 3532 3533 3532 3437 3533 3438 3534 3439 3535 3534 3589 3535 3495 3589 3495 3536 3536 3441 3537 3442 3538 3537 3538 3443 3539 3539 3496 3590 3496 3540 3590 3445 3541 3540 3541 3446 3542 3542 3447 3543 3545 3543 3449 3544 3545 3448 3546 3544 3450 3591 3505 3497 3592 3547 3453 3592 3453 3548 3593 3548 3455 3456 3550 3549 3593 3455 3549 3499 3594 3550 3551 3594 3499 3552 3551 3458 3553 3552 3459 3553 3460 3554 3500 3595 3554 3462 3556 3555 3595 3500 3555 3556 3463 3557 3557 3464 3558 3559 3558 3465 3466 3560 3559 3467 3561 3560 3468 3562 3561 3563 3562 3469 3563 3501 3596 3501 3564 3596 3471 3565 3564 3565 3472 3566 3473 3567 3566 3567 3502 3597 3569 3568 3475 3502 3568 3597 3476 3570 3569 3571 3570 3477 3572 3571 3478 3479 3573 3572 3573 3480 3574 3503 3598 3574 3503 3575 3598 3575 3482 3576 3577 3576 3483 3578 3577 3484 3579 3578 3485 3579 3486 3580 3599 3580 3504 3581 3599 3504 3488 3582 3581 3600 3582 3505 3506 3591 3497 3506 3583 3601 3507 3508 3602 3583 3507 3602 3508 3509 3603 3604 3509 3510 3605 3510 3511 3511 3584 3606 3513 3607 3512 3607 3584 3512 3608 3513 3514 3609 3514 3515 3610 3515 3516 3611 3516 3517 3612 3517 3585 3586 3585 3492 3518 3519 3613 3586 3518 3613 3519 3520 3614 3521 3615 3520 3522 3616 3521 3587 3617 3522 3618 3523 3524 3618 3587 3523 3525 3619 3524 3525 3526 3620 3526 3527 3621 3527 3528 3622 3528 3530 3623 3588 3529 3624 3625 3530 3588 3624 3529 3531 3626 3531 3532 3533 3627 3532 3628 3533 3534 3535 3629 3534 3630 3535 3589 3589 3536 3631 3631 3536 3537 3537 3538 3632 3633 3538 3539 3634 3539 3590 3540 3635 3590 3540 3541 3635 3541 3542 3636 3637 3542 3543 3545 3638 3543 3544 3639 3545 3546 3640 3544 3600 3505 3591 3641 3592 3548 3593 3641 3548 3550 3642 3549 3642 3593 3549 3550 3594 3643 3551 3644 3594 3552 3644 3551 3553 3645 3552 3646 3553 3554 3595 3647 3554 3556 3648 3555 3648 3595 3555 3556 3557 3649 3557 3558 3650 3558 3559 3651 3559 3560 3652 3560 3561 3653 3561 3562 3654 3563 3655 3562 3656 3563 3596 3564 3657 3596 3565 3657 3564 3658 3565 3566 3566 3567 3659 3567 3597 3660 3568 3569 3661 3568 3661 3597 3569 3570 3662 3571 3663 3570 3572 3664 3571 3572 3573 3665 3666 3573 3574 3598 3667 3574 3575 3668 3598 3575 3576 3668 3669 3576 3577 3670 3577 3578 3671 3578 3579 3579 3580 3672 3580 3599 3673 3581 3674 3599 3581 3582 3674 3600 3675 3582 3591 3506 3601 3583 3676 3601 3508 3603 3602 3676 3583 3602 3603 3509 3604 3604 3510 3605 3605 3511 3606 3584 3677 3606 3608 3607 3513 3607 3677 3584 3608 3514 3609 3609 3515 3610 3610 3516 3611 3611 3517 3612 3612 3585 3678 3678 3585 3586 3613 3519 3614 3679 3586 3613 3520 3615 3614 3521 3616 3615 3522 3617 3616 3587 3680 3617 3619 3618 3524 3618 3680 3587 3525 3620 3619 3620 3526 3621 3527 3622 3621 3528 3623 3622 3623 3530 3625 3681 3588 3624 3681 3625 3588 3626 3624 3531 3627 3626 3532 3628 3627 3533 3629 3628 3534 3630 3629 3535 3630 3589 3682 3589 3631 3682 3631 3537 3632 3632 3538 3633 3634 3633 3539 3683 3634 3590 3635 3683 3590 3541 3636 3635 3636 3542 3637 3638 3637 3543 3639 3638 3545 3544 3640 3639 3600 3591 3684 3685 3641 3593 3550 3686 3642 3685 3593 3642 3594 3687 3643 3686 3550 3643 3594 3644 3687 3552 3645 3644 3646 3645 3553 3647 3646 3554 3595 3688 3647 3556 3649 3648 3648 3688 3595 3649 3557 3650 3558 3651 3650 3559 3652 3651 3652 3560 3653 3653 3561 3654 3562 3655 3654 3656 3655 3563 3689 3656 3596 3657 3689 3596 3565 3658 3657 3658 3566 3659 3567 3660 3659 3597 3690 3660 3569 3662 3661 3597 3661 3690 3570 3663 3662 3571 3664 3663 3572 3665 3664 3665 3573 3666 3667 3666 3574 3691 3667 3598 3668 3691 3598 3668 3576 3669 3669 3577 3670 3670 3578 3671 3671 3579 3672 3672 3580 3673 3599 3692 3673 3674 3692 3599 3582 3675 3674 3693 3675 3600 3684 3591 3601 3676 3694 3601 3603 3695 3602 3695 3676 3602 3603 3604 3696 3604 3605 3697 3698 3605 3606 3677 3699 3606 3700 3607 3608 3700 3677 3607 3608 3609 3701 3609 3610 3702 3610 3611 3703 3611 3612 3704 3612 3678 3705 3678 3586 3679 3706 3613 3614 3706 3679 3613 3615 3707 3614 3615 3616 3708 3616 3617 3709 3617 3680 3710 3619 3711 3618 3618 3711 3680 3619 3620 3712 3713 3620 3621 3621 3622 3714 3623 3715 3622 3623 3625 3716 3717 3681 3624 3718 3625 3681 3626 3717 3624 3627 3719 3626 3628 3720 3627 3629 3721 3628 3722 3629 3630 3723 3630 3682 3682 3631 3724 3724 3631 3632 3725 3632 3633 3634 3726 3633 3727 3634 3683 3683 3635 3728 3635 3636 3728 3636 3637 3729 3637 3638 3730 3731 3638 3639 3640 3732 3639 3693 3600 3684 3686 3733 3642 3733 3685 3642 3687 3734 3643 3734 3686 3643 3644 3735 3687 3644 3645 3735 3646 3736 3645 3647 3737 3646 3647 3688 3738 3648 3649 3739 3648 3739 3688 3740 3649 3650 3651 3741 3650 3651 3652 3742 3652 3653 3743 3744 3653 3654 3655 3745 3654 3746 3655 3656 3656 3689 3747 3657 3748 3689 3658 3748 3657 3749 3658 3659 3660 3750 3659 3660 3690 3751 3661 3662 3752 3690 3661 3752 3663 3753 3662 3663 3664 3754 3664 3665 3755 3665 3666 3756 3757 3666 3667 3691 3758 3667 3668 3759 3691 3668 3669 3759 3669 3670 3760 3670 3671 3761 3762 3671 3672 3763 3672 3673 3692 3764 3673 3674 3765 3692 3674 3675 3765 3693 3766 3675 3694 3684 3601 3676 3767 3694 3603 3696 3695 3695 3767 3676 3696 3604 3697 3605 3698 3697 3699 3698 3606 3768 3699 3677 3700 3608 3701 3768 3677 3700 3609 3702 3701 3610 3703 3702 3703 3611 3704 3612 3705 3704 3678 3769 3705 3678 3679 3769 3707 3706 3614 3770 3679 3706 3615 3708 3707 3708 3616 3709 3617 3710 3709 3680 3771 3710 3619 3712 3711 3680 3711 3771 3712 3620 3713 3713 3621 3714 3622 3715 3714 3623 3716 3715 3716 3625 3718 3772 3681 3717 3718 3681 3772 3626 3719 3717 3627 3720 3719 3628 3721 3720 3722 3721 3629 3722 3630 3723 3773 3723 3682 3773 3682 3724 3725 3724 3632 3726 3725 3633 3727 3726 3634 3727 3683 3774 3774 3683 3728 3728 3636 3729 3729 3637 3730 3638 3775 3730 3731 3775 3638 3732 3731 3639 3776 3693 3684 3777 3733 3686 3778 3734 3687 3734 3777 3686 3735 3778 3687 3645 3736 3735 3646 3737 3736 3647 3738 3737 3738 3688 3779 3739 3649 3740 3688 3739 3779 3741 3740 3650 3741 3651 3742 3742 3652 3743 3653 3744 3743 3745 3744 3654 3746 3745 3655 3746 3656 3747 3689 3780 3747 3748 3780 3689 3749 3748 3658 3750 3749 3659 3750 3660 3751 3690 3781 3751 3662 3753 3752 3781 3690 3752 3663 3754 3753 3754 3664 3755 3665 3756 3755 3756 3666 3757 3758 3757 3667 3691 3782 3758 3691 3759 3782 3759 3669 3760 3670 3761 3760 3761 3671 3762 3763 3762 3672 3764 3763 3673 3692 3783 3764 3692 3765 3783 3675 3766 3765 3784 3766 3693 3694 3776 3684 3694 3767 3785 3695 3696 3786 3695 3786 3767 3787 3696 3697 3697 3698 3788 3699 3789 3698 3790 3699 3768 3700 3701 3791 3768 3700 3791 3702 3792 3701 3703 3793 3702 3703 3704 3794 3705 3795 3704 3769 3796 3705 3769 3679 3770 3706 3707 3797 3770 3706 3797 3707 3708 3798 3799 3708 3709 3710 3800 3709 3710 3771 3801 3711 3712 3802 3771 3711 3802 3712 3713 3803 3804 3713 3714 3715 3805 3714 3715 3716 3806 3716 3718 3807 3808 3772 3717 3809 3718 3772 3719 3808 3717 3719 3720 3810 3720 3721 3811 3722 3812 3721 3813 3722 3723 3773 3814 3723 3815 3773 3724 3725 3815 3724 3726 3816 3725 3727 3817 3726 3818 3727 3774 3819 3774 3728 3819 3728 3729 3820 3729 3730 3775 3820 3730 3731 3821 3775 3732 3822 3731 3784 3693 3776 3823 3734 3778 3823 3777 3734 3778 3735 3824 3735 3736 3824 3736 3737 3825 3737 3738 3826 3827 3738 3779 3739 3740 3828 3739 3828 3779 3829 3740 3741 3741 3742 3830 3831 3742 3743 3744 3832 3743 3745 3833 3744 3746 3834 3745 3835 3746 3747 3747 3780 3836 3748 3837 3780 3749 3837 3748 3750 3838 3749 3839 3750 3751 3781 3840 3751 3753 3841 3752 3841 3781 3752 3753 3754 3842 3754 3755 3843 3755 3756 3844 3756 3757 3845 3757 3758 3846 3758 3782 3847 3782 3759 3848 3759 3760 3848 3761 3849 3760 3761 3762 3850 3851 3762 3763 3763 3764 3852 3783 3853 3764 3765 3854 3783 3766 3854 3765 3855 3766 3784 3694 3785 3776 3767 3856 3785 3786 3696 3787 3786 3856 3767 3787 3697 3788 3698 3789 3788 3790 3789 3699 3790 3768 3857 3701 3792 3791 3857 3768 3791 3793 3792 3702 3793 3703 3794 3704 3795 3794 3705 3796 3795 3769 3858 3796 3769 3770 3858 3797 3707 3798 3859 3770 3797 3798 3708 3799 3800 3799 3709 3800 3710 3801 3801 3771 3860 3712 3803 3802 3771 3802 3860 3803 3713 3804 3805 3804 3714 3715 3806 3805 3716 3807 3806 3807 3718 3809 3808 3861 3772 3861 3809 3772 3719 3810 3808 3810 3720 3811 3721 3812 3811 3813 3812 3722 3814 3813 3723 3773 3862 3814 3815 3862 3773 3725 3816 3815 3726 3817 3816 3818 3817 3727 3863 3818 3774 3819 3863 3774 3820 3819 3729 3820 3775 3864 3822 3821 3731 3775 3821 3864 3865 3784 3776 3866 3823 3778 3867 3778 3824 3736 3825 3824 3737 3826 3825 3826 3738 3827 3868 3827 3779 3828 3740 3829 3828 3868 3779 3829 3741 3830 3742 3831 3830 3832 3831 3743 3744 3833 3832 3745 3834 3833 3835 3834 3746 3835 3747 3836 3836 3780 3869 3780 3837 3869 3749 3838 3837 3839 3838 3750 3840 3839 3751 3781 3870 3840 3753 3842 3841 3841 3870 3781 3842 3754 3843 3843 3755 3844 3844 3756 3845 3757 3846 3845 3758 3847 3846 3847 3782 3871 3871 3782 3848 3760 3849 3848 3761 3850 3849 3850 3762 3851 3851 3763 3852 3764 3853 3852 3872 3853 3783 3854 3872 3783 3855 3854 3766 3855 3784 3873 3785 3865 3776 3856 3874 3785 3786 3787 3875 3856 3786 3875 3787 3788 3876 3789 3877 3788 3878 3789 3790 3790 3857 3879 3792 3880 3791 3880 3857 3791 3793 3881 3792 3882 3793 3794 3795 3883 3794 3795 3796 3884 3858 3885 3796 3858 3770 3859 3886 3797 3798 3886 3859 3797 3887 3798 3799 3800 3888 3799 3889 3800 3801 3890 3801 3860 3802 3803 3891 3860 3802 3891 3803 3804 3892 3804 3805 3893 3806 3894 3805 3807 3895 3806 3807 3809 3896 3861 3808 3897 3898 3809 3861 3808 3810 3897 3899 3810 3811 3812 3900 3811 3901 3812 3813 3813 3814 3902 3862 3903 3814 3815 3904 3862 3815 3816 3904 3816 3817 3905 3818 3906 3817 3907 3818 3863 3908 3863 3819 3908 3819 3820 3909 3820 3864 3822 3910 3821 3821 3911 3864 3873 3784 3865 3867 3866 3778 3867 3824 3912 3824 3825 3912 3826 3913 3825 3826 3827 3914 3915 3827 3868 3828 3829 3916 3828 3916 3868 3917 3829 3830 3831 3918 3830 3832 3919 3831 3832 3833 3920 3833 3834 3921 3835 3922 3834 3923 3835 3836 3924 3836 3869 3837 3925 3869 3837 3838 3925 3839 3926 3838 3840 3927 3839 3840 3870 3928 3841 3842 3929 3841 3929 3870 3930 3842 3843 3931 3843 3844 3932 3844 3845 3846 3933 3845 3846 3847 3934 3847 3871 3935 3936 3871 3848 3849 3936 3848 3849 3850 3937 3850 3851 3938 3939 3851 3852 3853 3940 3852 3872 3941 3853 3942 3872 3854 3942 3854 3855 3855 3873 3943 3874 3865 3785 3944 3874 3856 3787 3876 3875 3944 3856 3875 3788 3877 3876 3878 3877 3789 3878 3790 3879 3857 3945 3879 3792 3881 3880 3945 3857 3880 3882 3881 3793 3883 3882 3794 3883 3795 3884 3796 3885 3884 3858 3946 3885 3858 3859 3946 3887 3886 3798 3947 3859 3886 3888 3887 3799 3889 3888 3800 3890 3889 3801 3948 3890 3860 3891 3803 3892 3948 3860 3891 3804 3893 3892 3805 3894 3893 3806 3895 3894 3807 3896 3895 3896 3809 3898 3949 3861 3897 3898 3861 3949 3810 3899 3897 3900 3899 3811 3901 3900 3812 3901 3813 3902 3814 3903 3902 3862 3950 3903 3862 3904 3950 3904 3816 3905 3817 3906 3905 3907 3906 3818 3907 3863 3951 3951 3863 3908 3908 3820 3909 3911 3909 3864 3821 3910 3911 3873 3865 3952 3953 3866 3867 3954 3867 3912 3825 3913 3912 3826 3914 3913 3914 3827 3915 3955 3915 3868 3916 3829 3917 3916 3955 3868 3918 3917 3830 3919 3918 3831 3832 3920 3919 3920 3833 3921 3834 3922 3921 3923 3922 3835 3924 3923 3836 3956 3924 3869 3925 3956 3869 3838 3926 3925 3839 3927 3926 3840 3928 3927 3928 3870 3957 3929 3842 3930 3870 3929 3957 3930 3843 3931 3932 3931 3844 3933 3932 3845 3933 3846 3934 3847 3935 3934 3935 3871 3958 3871 3936 3958 3849 3937 3936 3937 3850 3938 3938 3851 3939 3940 3939 3852 3853 3941 3940 3959 3941 3872 3959 3872 3942 3942 3855 3943 3873 3960 3943 3952 3865 3874 3961 3874 3944 3876 3962 3875 3962 3944 3875 3877 3963 3876 3964 3877 3878 3878 3879 3965 3945 3966 3879 3881 3967 3880 3967 3945 3880 3882 3968 3881 3969 3882 3883 3883 3884 3970 3885 3971 3884 3885 3946 3972 3946 3859 3947 3973 3886 3887 3947 3886 3973 3888 3974 3887 3889 3975 3888 3976 3889 3890 3948 3977 3890 3978 3891 3892 3978 3948 3891 3893 3979 3892 3893 3894 3980 3894 3895 3981 3895 3896 3982 3896 3898 3983 3984 3949 3897 3898 3949 3985 3899 3984 3897 3900 3986 3899 3987 3900 3901 3988 3901 3902 3903 3989 3902 3903 3950 3990 3904 3991 3950 3991 3904 3905 3906 3992 3905 3993 3906 3907 3907 3951 3994 3951 3908 3995 3995 3908 3909 3996 3909 3911 3910 3997 3911 3873 3952 3960 3953 3867 3954 3913 3954 3912 3913 3914 3998 3914 3915 3999 3915 3955 4000 3916 3917 4001 3916 4001 3955 4002 3917 3918 3918 3919 4003 3919 3920 4004 3920 3921 4005 3922 4006 3921 3923 4007 3922 4008 3923 3924 3924 3956 4009 3925 4010 3956 3926 4010 3925 3926 3927 4011 3927 3928 4012 3928 3957 4013 3929 3930 4014 3929 4014 3957 4015 3930 3931 3932 4016 3931 3933 4017 3932 4018 3933 3934 3934 3935 4019 4020 3935 3958 3958 3936 4021 3936 3937 4021 3937 3938 4022 4023 3938 3939 3940 4024 3939 3941 4025 3940 4026 3941 3959 3959 3942 4027 3942 3943 4027 3960 4028 3943 3952 3874 3961 3961 3944 4029 3963 3962 3876 4029 3944 3962 3964 3963 3877 3964 3878 3965 3879 3966 3965 3945 4030 3966 3881 3968 3967 3967 4030 3945 3969 3968 3882 3969 3883 3970 3884 3971 3970 3885 3972 3971 3946 4031 3972 3946 3947 4031 3974 3973 3887 4032 3947 3973 3888 3975 3974 3976 3975 3889 3977 3976 3890 4033 3977 3948 3979 3978 3892 4033 3948 3978 3979 3893 3980 3980 3894 3981 3895 3982 3981 3982 3896 3983 3983 3898 3985 3949 3984 4034 3949 4034 3985 3899 3986 3984 3987 3986 3900 3987 3901 3988 3989 3988 3902 3903 3990 3989 3990 3950 4035 3950 3991 4035 3992 3991 3905 3993 3992 3906 3993 3907 3994 3951 4036 3994 3951 3995 4036 3996 3995 3909 3997 3996 3911 3952 4037 3960 4038 3953 3954 3913 4039 3954 3914 3999 3998 4039 3913 3998 3999 3915 4000 3955 4040 4000 4001 3917 4002 3955 4001 4041 4002 3918 4003 3919 4004 4003 4004 3920 4005 3921 4006 4005 3922 4007 4006 4008 4007 3923 4008 3924 4009 4009 3956 4042 3956 4010 4042 3926 4011 4010 4011 3927 4012 3928 4013 4012 4013 3957 4043 4014 3930 4015 3957 4014 4043 4016 4015 3931 3932 4017 4016 4018 4017 3933 4018 3934 4019 4019 3935 4020 4044 4020 3958 4044 3958 4021 4021 3937 4022 4022 3938 4023 4024 4023 3939 4025 4024 3940 4026 4025 3941 4026 3959 4045 4045 3959 4027 3943 4028 4027 4046 4028 3960 3952 3961 4037 3961 4029 4047 4048 3962 3963 4029 3962 4048 4049 3963 3964 4050 3964 3965 3965 3966 4051 3966 4030 4052 3967 3968 4053 3967 4053 4030 3969 4054 3968 4055 3969 3970 3971 4056 3970 3971 3972 4057 4031 4058 3972 4031 3947 4032 3974 4059 3973 4059 4032 3973 3974 3975 4060 3976 4061 3975 4062 3976 3977 4063 3977 4033 3979 4064 3978 4064 4033 3978 4065 3979 3980 4066 3980 3981 3981 3982 4067 4068 3982 3983 4069 3983 3985 3984 4070 4034 4034 4071 3985 3986 4070 3984 4072 3986 3987 3987 3988 4073 3988 3989 4074 3990 4075 3989 4076 3990 4035 3991 4077 4035 3992 4077 3991 4078 3992 3993 4079 3993 3994 3994 4036 4080 4036 3995 4081 3995 3996 4081 3997 4082 3996 4037 4046 3960 4039 4038 3954 3999 4083 3998 4083 4039 3998 4084 3999 4000 4040 3955 4041 4040 4084 4000 4001 4002 4085 4001 4085 4041 4086 4002 4003 4004 4087 4003 4088 4004 4005 4006 4089 4005 4006 4007 4090 4008 4091 4007 4092 4008 4009 4093 4009 4042 4042 4010 4094 4010 4011 4094 4011 4012 4095 4012 4013 4096 4013 4043 4097 4014 4015 4098 4043 4014 4098 4015 4016 4099 4017 4100 4016 4018 4101 4017 4102 4018 4019 4103 4019 4020 4044 4104 4020 4105 4044 4021 4105 4021 4022 4106 4022 4023 4024 4107 4023 4025 4108 4024 4109 4025 4026 4026 4045 4110 4111 4045 4027 4028 4111 4027 4046 4112 4028 4037 3961 4047 4029 4113 4047 4048 3963 4049 4029 4048 4113 4049 3964 4050 4050 3965 4051 4051 3966 4052 4030 4114 4052 3968 4054 4053 4030 4053 4114 4055 4054 3969 4056 4055 3970 4056 3971 4057 3972 4058 4057 4031 4115 4058 4031 4032 4115 3974 4060 4059 4116 4032 4059 3975 4061 4060 4062 4061 3976 4062 3977 4063 4063 4033 4117 4065 4064 3979 4117 4033 4064 4066 4065 3980 4066 3981 4067 4067 3982 4068 4069 4068 3983 4071 4069 3985 4070 4118 4034 4118 4071 4034 4072 4070 3986 4072 3987 4073 4073 3988 4074 3989 4075 4074 3990 4076 4075 4119 4076 4035 4077 4119 4035 4078 4077 3992 4078 3993 4079 4079 3994 4080 4080 4036 4120 4036 4081 4120 4081 3996 4121 3996 4082 4121 4046 4037 4122 4123 4038 4039 4084 4083 3999 4123 4039 4083 4124 4040 4041 4040 4125 4084 4085 4002 4086 4085 4124 4041 4087 4086 4003 4087 4004 4088 4089 4088 4005 4089 4006 4090 4007 4091 4090 4092 4091 4008 4093 4092 4009 4126 4093 4042 4126 4042 4094 4094 4011 4095 4095 4012 4096 4096 4013 4097 4097 4043 4127 4098 4015 4099 4127 4043 4098 4016 4100 4099 4017 4101 4100 4102 4101 4018 4103 4102 4019 4104 4103 4020 4128 4104 4044 4128 4044 4105 4106 4105 4022 4107 4106 4023 4024 4108 4107 4109 4108 4025 4109 4026 4110 4045 4129 4110 4129 4045 4111 4028 4112 4111 4130 4112 4046 4122 4037 4047 4047 4113 4131 4048 4049 4132 4113 4048 4132 4049 4050 4133 4134 4050 4051 4135 4051 4052 4114 4136 4052 4054 4137 4053 4053 4137 4114 4055 4138 4054 4139 4055 4056 4056 4057 4140 4058 4141 4057 4115 4142 4058 4115 4032 4116 4060 4143 4059 4143 4116 4059 4061 4144 4060 4145 4061 4062 4062 4063 4146 4063 4117 4147 4148 4064 4065 4117 4064 4148 4149 4065 4066 4150 4066 4067 4151 4067 4068 4069 4152 4068 4071 4153 4069 4154 4118 4070 4118 4155 4071 4154 4070 4072 4156 4072 4073 4157 4073 4074 4075 4158 4074 4076 4159 4075 4119 4160 4076 4161 4119 4077 4161 4077 4078 4078 4079 4162 4163 4079 4080 4164 4080 4120 4081 4165 4120 4165 4081 4121 4082 4166 4121 4130 4046 4122 4083 4084 4167 4168 4123 4083 4124 4125 4040 4084 4125 4167 4085 4086 4169 4085 4169 4124 4170 4086 4087 4171 4087 4088 4089 4172 4088 4173 4089 4090 4090 4091 4174 4092 4175 4091 4176 4092 4093 4126 4177 4093 4178 4126 4094 4178 4094 4095 4179 4095 4096 4180 4096 4097 4181 4097 4127 4182 4098 4099 4182 4127 4098 4100 4183 4099 4101 4184 4100 4185 4101 4102 4186 4102 4103 4187 4103 4104 4188 4104 4128 4189 4128 4105 4106 4189 4105 4190 4106 4107 4108 4191 4107 4192 4108 4109 4109 4110 4193 4129 4194 4110 4195 4129 4111 4112 4195 4111 4130 4196 4112 4122 4047 4131 4113 4197 4131 4049 4133 4132 4197 4113 4132 4133 4050 4134 4135 4134 4051 4136 4135 4052 4114 4198 4136 4054 4138 4137 4114 4137 4198 4139 4138 4055 4139 4056 4140 4057 4141 4140 4142 4141 4058 4115 4199 4142 4115 4116 4199 4144 4143 4060 4200 4116 4143 4145 4144 4061 4145 4062 4146 4063 4147 4146 4147 4117 4201 4148 4065 4149 4117 4148 4201 4149 4066 4150 4151 4150 4067 4152 4151 4068 4069 4153 4152 4071 4155 4153 4202 4118 4154 4202 4155 4118 4154 4072 4156 4157 4156 4073 4158 4157 4074 4075 4159 4158 4076 4160 4159 4119 4203 4160 4161 4203 4119 4161 4078 4162 4162 4079 4163 4164 4163 4080 4165 4164 4120 4166 4165 4121 4204 4130 4122 4168 4083 4167 4205 4125 4124 4125 4206 4167 4169 4086 4170 4169 4207 4124 4170 4087 4171 4172 4171 4088 4173 4172 4089 4173 4090 4174 4091 4175 4174 4176 4175 4092 4177 4176 4093 4208 4177 4126 4208 4126 4178 4179 4178 4095 4180 4179 4096 4181 4180 4097 4209 4181 4127 4183 4182 4099 4182 4209 4127 4184 4183 4100 4185 4184 4101 4185 4102 4186 4186 4103 4187 4187 4104 4188 4188 4128 4210 4210 4128 4189 4190 4189 4106 4191 4190 4107 4192 4191 4108 4192 4109 4193 4110 4194 4193 4129 4211 4194 4195 4211 4129 4112 4196 4195 4212 4196 4130 4204 4122 4131 4197 4213 4131 4133 4214 4132 4214 4197 4132 4133 4134 4215 4216 4134 4135 4135 4136 4217 4136 4198 4218 4137 4138 4219 4198 4137 4219 4139 4220 4138 4221 4139 4140 4141 4222 4140 4142 4223 4141 4142 4199 4224 4199 4116 4200 4225 4143 4144 4200 4143 4225 4226 4144 4145 4145 4146 4227 4146 4147 4228 4147 4201 4229 4148 4149 4230 4148 4230 4201 4231 4149 4150 4232 4150 4151 4152 4233 4151 4152 4153 4234 4155 4235 4153 4202 4154 4236 4237 4155 4202 4236 4154 4156 4157 4238 4156 4158 4239 4157 4158 4159 4240 4159 4160 4241 4203 4242 4160 4243 4203 4161 4243 4161 4162 4244 4162 4163 4163 4164 4245 4165 4246 4164 4166 4247 4165 4212 4130 4204 4248 4168 4167 4205 4206 4125 4207 4205 4124 4206 4248 4167 4169 4170 4249 4169 4249 4207 4250 4170 4171 4172 4251 4171 4252 4172 4173 4173 4174 4253 4175 4254 4174 4255 4175 4176 4256 4176 4177 4257 4177 4208 4258 4208 4178 4179 4258 4178 4259 4179 4180 4181 4260 4180 4261 4181 4209 4183 4262 4182 4182 4262 4209 4263 4183 4184 4264 4184 4185 4185 4186 4265 4186 4187 4266 4187 4188 4267 4188 4210 4268 4210 4189 4269 4269 4189 4190 4270 4190 4191 4271 4191 4192 4272 4192 4193 4193 4194 4273 4194 4211 4274 4195 4275 4211 4195 4196 4275 4212 4276 4196 4213 4204 4131 4197 4277 4213 4133 4215 4214 4214 4277 4197 4215 4134 4216 4216 4135 4217 4217 4136 4218 4198 4278 4218 4138 4220 4219 4198 4219 4278 4221 4220 4139 4222 4221 4140 4141 4223 4222 4142 4224 4223 4224 4199 4279 4199 4200 4279 4225 4144 4226 4200 4225 4280 4226 4145 4227 4227 4146 4228 4228 4147 4229 4201 4281 4229 4230 4149 4231 4230 4281 4201 4232 4231 4150 4233 4232 4151 4152 4234 4233 4153 4235 4234 4237 4235 4155 4202 4236 4282 4237 4202 4282 4238 4236 4156 4157 4239 4238 4158 4240 4239 4240 4159 4241 4160 4242 4241 4283 4242 4203 4283 4203 4243 4244 4243 4162 4284 4244 4163 4164 4246 4245 4284 4163 4245 4165 4247 4246 4212 4204 4285 4286 4206 4205 4205 4207 4287 4288 4248 4206 4249 4170 4250 4207 4249 4289 4251 4250 4171 4252 4251 4172 4252 4173 4253 4174 4254 4253 4255 4254 4175 4255 4176 4256 4256 4177 4257 4257 4208 4290 4290 4208 4258 4259 4258 4179 4260 4259 4180 4261 4260 4181 4291 4261 4209 4263 4262 4183 4262 4291 4209 4263 4184 4264 4264 4185 4265 4186 4266 4265 4266 4187 4267 4188 4268 4267 4268 4210 4292 4210 4269 4292 4269 4190 4270 4270 4191 4271 4271 4192 4272 4272 4193 4273 4273 4194 4274 4211 4293 4274 4275 4293 4211 4196 4276 4275 4294 4276 4212 4285 4204 4213 4277 4295 4213 4215 4296 4214 4296 4277 4214 4215 4216 4297 4298 4216 4217 4299 4217 4218 4218 4278 4300 4220 4301 4219 4219 4301 4278 4221 4302 4220 4303 4221 4222 4223 4304 4222 4223 4224 4305 4224 4279 4306 4200 4280 4279 4225 4226 4307 4225 4307 4280 4308 4226 4227 4309 4227 4228 4310 4228 4229 4229 4281 4311 4230 4231 4312 4230 4312 4281 4313 4231 4232 4232 4233 4314 4234 4315 4233 4235 4316 4234 4317 4235 4237 4282 4236 4318 4319 4237 4282 4236 4238 4318 4239 4320 4238 4239 4240 4321 4322 4240 4241 4242 4323 4241 4324 4242 4283 4283 4243 4325 4325 4243 4244 4326 4244 4284 4246 4327 4245 4327 4284 4245 4247 4328 4246 4294 4212 4285 4288 4206 4286 4286 4205 4287 4287 4207 4289 4249 4250 4329 4249 4329 4289 4330 4250 4251 4331 4251 4252 4332 4252 4253 4254 4333 4253 4334 4254 4255 4255 4256 4335 4256 4257 4336 4257 4290 4337 4290 4258 4338 4338 4258 4259 4339 4259 4260 4340 4260 4261 4341 4261 4291 4342 4262 4263 4342 4291 4262 4263 4264 4343 4264 4265 4344 4266 4345 4265 4266 4267 4346 4268 4347 4267 4348 4268 4292 4269 4349 4292 4269 4270 4349 4270 4271 4350 4271 4272 4351 4352 4272 4273 4353 4273 4274 4293 4354 4274 4355 4293 4275 4276 4355 4275 4294 4356 4276 4295 4285 4213 4277 4357 4295 4215 4297 4296 4296 4357 4277 4297 4216 4298 4299 4298 4217 4299 4218 4300 4300 4278 4358 4220 4302 4301 4278 4301 4358 4303 4302 4221 4304 4303 4222 4223 4305 4304 4305 4224 4306 4279 4359 4306 4280 4359 4279 4307 4226 4308 4307 4360 4280 4309 4308 4227 4310 4309 4228 4310 4229 4311 4311 4281 4361 4312 4231 4313 4281 4312 4361 4313 4232 4314 4233 4315 4314 4316 4315 4234 4317 4316 4235 4317 4237 4319 4362 4282 4318 4362 4319 4282 4238 4320 4318 4320 4239 4321 4240 4322 4321 4323 4322 4241 4324 4323 4242 4324 4283 4363 4283 4325 4363 4325 4244 4326 4326 4284 4364 4328 4327 4246 4284 4327 4364 4365 4294 4285 4366 4288 4286 4367 4286 4287 4287 4289 4368 4329 4250 4330 4329 4369 4289 4330 4251 4331 4332 4331 4252 4333 4332 4253 4334 4333 4254 4334 4255 4335 4256 4336 4335 4257 4337 4336 4337 4290 4370 4290 4338 4370 4338 4259 4339 4339 4260 4340 4340 4261 4341 4341 4291 4371 4342 4263 4343 4371 4291 4342 4343 4264 4344 4265 4345 4344 4266 4346 4345 4267 4347 4346 4268 4348 4347 4372 4348 4292 4349 4372 4292 4349 4270 4350 4271 4351 4350 4351 4272 4352 4353 4352 4273 4354 4353 4274 4293 4373 4354 4355 4373 4293 4276 4356 4355 4374 4356 4294 4295 4365 4285 4295 4357 4375 4296 4297 4376 4296 4376 4357 4297 4298 4377 4378 4298 4299 4379 4299 4300 4380 4300 4358 4301 4302 4381 4301 4381 4358 4303 4382 4302 4304 4383 4303 4304 4305 4384 4385 4305 4306 4306 4359 4386 4280 4360 4359 4307 4308 4387 4307 4387 4360 4388 4308 4309 4310 4389 4309 4390 4310 4311 4391 4311 4361 4312 4313 4392 4312 4392 4361 4393 4313 4314 4315 4394 4314 4316 4395 4315 4396 4316 4317 4397 4317 4319 4398 4362 4318 4319 4362 4399 4320 4398 4318 4400 4320 4321 4321 4322 4401 4323 4402 4322 4403 4323 4324 4404 4324 4363 4325 4405 4363 4325 4326 4405 4406 4326 4364 4328 4407 4327 4327 4408 4364 4374 4294 4365 4367 4366 4286 4367 4287 4368 4289 4369 4368 4329 4330 4409 4329 4409 4369 4330 4331 4410 4331 4332 4411 4333 4412 4332 4413 4333 4334 4414 4334 4335 4336 4415 4335 4337 4416 4336 4417 4337 4370 4338 4418 4370 4338 4339 4418 4339 4340 4419 4340 4341 4420 4341 4371 4421 4342 4343 4422 4371 4342 4422 4423 4343 4344 4344 4345 4424 4345 4346 4425 4346 4347 4426 4348 4427 4347 4372 4428 4348 4372 4349 4429 4429 4349 4350 4351 4430 4350 4351 4352 4431 4432 4352 4353 4353 4354 4433 4354 4373 4434 4355 4435 4373 4355 4356 4435 4374 4436 4356 4365 4295 4375 4357 4437 4375 4297 4377 4376 4376 4437 4357 4377 4298 4378 4378 4299 4379 4380 4379 4300 4380 4358 4438 4302 4382 4381 4358 4381 4438 4303 4383 4382 4304 4384 4383 4384 4305 4385 4385 4306 4386 4386 4359 4439 4359 4360 4439 4387 4308 4388 4360 4387 4440 4389 4388 4309 4390 4389 4310 4391 4390 4311 4391 4361 4441 4392 4313 4393 4361 4392 4441 4394 4393 4314 4315 4395 4394 4396 4395 4316 4396 4317 4397 4397 4319 4399 4398 4442 4362 4362 4442 4399 4400 4398 4320 4400 4321 4401 4322 4402 4401 4403 4402 4323 4403 4324 4404 4404 4363 4443 4363 4405 4443 4405 4326 4406 4408 4406 4364 4407 4408 4327 4374 4365 4444 4445 4366 4367 4446 4367 4368 4369 4446 4368 4409 4330 4410 4369 4409 4447 4331 4411 4410 4332 4412 4411 4413 4412 4333 4413 4334 4414 4415 4414 4335 4416 4415 4336 4416 4337 4417 4448 4417 4370 4418 4448 4370 4418 4339 4419 4340 4420 4419 4341 4421 4420 4421 4371 4449 4422 4343 4423 4449 4371 4422 4423 4344 4424 4345 4425 4424 4425 4346 4426 4347 4427 4426 4428 4427 4348 4450 4428 4372 4450 4372 4429 4430 4429 4350 4351 4431 4430 4431 4352 4432 4432 4353 4433 4433 4354 4434 4373 4451 4434 4435 4451 4373 4356 4436 4435 4452 4436 4374 4365 4375 4444 4437 4453 4375 4377 4454 4376 4454 4437 4376 4377 4378 4455 4456 4378 4379 4380 4457 4379 4458 4380 4438 4381 4382 4459 4438 4381 4459 4382 4383 4460 4383 4384 4461 4384 4385 4462 4385 4386 4463 4464 4386 4439 4360 4440 4439 4387 4388 4465 4387 4465 4440 4466 4388 4389 4467 4389 4390 4468 4390 4391 4469 4391 4441 4392 4393 4470 4441 4392 4470 4393 4394 4471 4395 4472 4394 4473 4395 4396 4396 4397 4474 4475 4397 4399 4476 4442 4398 4442 4477 4399 4476 4398 4400 4478 4400 4401 4402 4479 4401 4480 4402 4403 4403 4404 4481 4482 4404 4443 4405 4483 4443 4483 4405 4406 4408 4484 4406 4407 4485 4408 4452 4374 4444 4445 4367 4486 4367 4446 4486 4369 4447 4446 4487 4409 4410 4447 4409 4487 4411 4488 4410 4412 4489 4411 4490 4412 4413 4491 4413 4414 4415 4492 4414 4416 4493 4415 4494 4416 4417 4495 4417 4448 4448 4418 4496 4418 4419 4496 4420 4497 4419 4421 4498 4420 4421 4449 4499 4500 4422 4423 4449 4422 4500 4501 4423 4424 4425 4502 4424 4503 4425 4426 4427 4504 4426 4428 4505 4427 4450 4506 4428 4507 4450 4429 4430 4507 4429 4430 4431 4508 4431 4432 4509 4510 4432 4433 4511 4433 4434 4451 4512 4434 4513 4451 4435 4436 4513 4435 4452 4514 4436 4375 4453 4444 4437 4515 4453 4377 4455 4454 4454 4515 4437 4455 4378 4456 4457 4456 4379 4458 4457 4380 4516 4458 4438 4382 4460 4459 4516 4438 4459 4383 4461 4460 4461 4384 4462 4462 4385 4463 4386 4464 4463 4517 4464 4439 4440 4517 4439 4465 4388 4466 4465 4518 4440 4466 4389 4467 4467 4390 4468 4468 4391 4469 4469 4441 4519 4393 4471 4470 4519 4441 4470 4394 4472 4471 4473 4472 4395 4473 4396 4474 4474 4397 4475 4477 4475 4399 4476 4520 4442 4442 4520 4477 4476 4400 4478 4479 4478 4401 4480 4479 4402 4480 4403 4481 4481 4404 4521 4404 4482 4521 4483 4482 4443 4484 4483 4406 4408 4485 4484 4522 4452 4444 4523 4445 4486 4446 4524 4486 4446 4447 4524 4488 4487 4410 4525 4447 4487 4489 4488 4411 4490 4489 4412 4490 4413 4491 4492 4491 4414 4415 4493 4492 4494 4493 4416 4495 4494 4417 4495 4448 4526 4526 4448 4496 4419 4497 4496 4498 4497 4420 4421 4499 4498 4499 4449 4527 4501 4500 4423 4527 4449 4500 4502 4501 4424 4425 4503 4502 4504 4503 4426 4427 4505 4504 4428 4506 4505 4528 4506 4450 4528 4450 4507 4507 4430 4508 4431 4509 4508 4509 4432 4510 4511 4510 4433 4512 4511 4434 4451 4529 4512 4513 4529 4451 4436 4514 4513 4452 4530 4514 4453 4522 4444 4453 4515 4531 4455 4532 4454 4532 4515 4454 4455 4456 4533 4534 4456 4457 4535 4457 4458 4536 4458 4516 4460 4537 4459 4537 4516 4459 4460 4461 4538 4539 4461 4462 4540 4462 4463 4464 4541 4463 4542 4464 4517 4440 4518 4517 4465 4466 4543 4465 4543 4518 4466 4467 4544 4467 4468 4545 4468 4469 4546 4547 4469 4519 4471 4548 4470 4548 4519 4470 4472 4549 4471 4550 4472 4473 4551 4473 4474 4552 4474 4475 4477 4553 4475 4554 4520 4476 4520 4555 4477 4554 4476 4478 4479 4556 4478 4557 4479 4480 4558 4480 4481 4559 4481 4521 4482 4560 4521 4483 4561 4482 4562 4483 4484 4485 4563 4484 4522 4530 4452 4524 4523 4486 4447 4525 4524 4487 4488 4564 4525 4487 4564 4489 4565 4488 4566 4489 4490 4490 4491 4567 4568 4491 4492 4493 4569 4492 4494 4570 4493 4495 4571 4494 4572 4495 4526 4573 4526 4496 4497 4573 4496 4498 4574 4497 4499 4575 4498 4499 4527 4576 4501 4577 4500 4577 4527 4500 4578 4501 4502 4503 4579 4502 4580 4503 4504 4504 4505 4581 4505 4506 4582 4528 4583 4506 4528 4507 4584 4507 4508 4584 4509 4585 4508 4509 4510 4586 4587 4510 4511 4511 4512 4588 4529 4589 4512 4513 4590 4529 4513 4514 4590 4514 4530 4591 4522 4453 4531 4515 4592 4531 4455 4533 4532 4532 4592 4515 4533 4456 4534 4534 4457 4535 4535 4458 4536 4536 4516 4593 4537 4460 4538 4593 4516 4537 4538 4461 4539 4540 4539 4462 4541 4540 4463 4542 4541 4464 4594 4542 4517 4518 4594 4517 4543 4466 4544 4518 4543 4595 4467 4545 4544 4545 4468 4546 4469 4547 4546 4596 4547 4519 4549 4548 4471 4548 4596 4519 4550 4549 4472 4550 4473 4551 4551 4474 4552 4553 4552 4475 4555 4553 4477 4554 4597 4520 4520 4597 4555 4556 4554 4478 4557 4556 4479 4557 4480 4558 4558 4481 4559 4560 4559 4521 4482 4561 4560 4562 4561 4483 4563 4562 4484 4598 4530 4522 4599 4523 4524 4525 4600 4524 4488 4565 4564 4601 4525 4564 4566 4565 4489 4566 4490 4567 4491 4568 4567 4569 4568 4492 4493 4570 4569 4494 4571 4570 4572 4571 4495 4602 4572 4526 4573 4602 4526 4497 4574 4573 4498 4575 4574 4499 4576 4575 4576 4527 4603 4578 4577 4501 4603 4527 4577 4579 4578 4502 4580 4579 4503 4580 4504 4581 4505 4582 4581 4506 4583 4582 4604 4583 4528 4604 4528 4584 4508 4585 4584 4509 4586 4585 4586 4510 4587 4587 4511 4588 4512 4589 4588 4529 4605 4589 4529 4590 4605 4590 4514 4591 4530 4606 4591 4598 4522 4531 4592 4607 4531 4532 4533 4608 4532 4608 4592 4533 4534 4609 4534 4535 4610 4535 4536 4611 4536 4593 4612 4613 4537 4538 4593 4537 4613 4614 4538 4539 4540 4615 4539 4616 4540 4541 4541 4542 4617 4594 4618 4542 4518 4595 4594 4619 4543 4544 4595 4543 4619 4544 4545 4620 4621 4545 4546 4547 4622 4546 4596 4623 4547 4549 4624 4548 4548 4624 4596 4625 4549 4550 4550 4551 4626 4627 4551 4552 4553 4628 4552 4555 4629 4553 4554 4630 4597 4555 4597 4631 4556 4630 4554 4632 4556 4557 4557 4558 4633 4634 4558 4559 4559 4560 4635 4560 4561 4636 4562 4637 4561 4563 4638 4562 4598 4606 4530 4600 4599 4524 4601 4600 4525 4565 4639 4564 4639 4601 4564 4640 4565 4566 4641 4566 4567 4568 4642 4567 4569 4643 4568 4569 4570 4644 4570 4571 4645 4572 4646 4571 4602 4647 4572 4602 4573 4648 4573 4574 4648 4574 4575 4649 4575 4576 4650 4576 4603 4651 4652 4577 4578 4603 4577 4652 4653 4578 4579 4654 4579 4580 4655 4580 4581 4582 4656 4581 4582 4583 4657 4604 4658 4583 4604 4584 4659 4584 4585 4659 4585 4586 4660 4586 4587 4661 4662 4587 4588 4588 4589 4663 4589 4605 4664 4605 4590 4665 4665 4590 4591 4591 4606 4666 4607 4598 4531 4592 4667 4607 4608 4533 4609 4592 4608 4667 4534 4610 4609 4610 4535 4611 4611 4536 4612 4612 4593 4668 4614 4613 4538 4593 4613 4668 4615 4614 4539 4616 4615 4540 4616 4541 4617 4542 4618 4617 4594 4669 4618 4594 4595 4669 4619 4544 4620 4595 4619 4670 4620 4545 4621 4622 4621 4546 4623 4622 4547 4671 4623 4596 4625 4624 4549 4624 4671 4596 4625 4550 4626 4626 4551 4627 4628 4627 4552 4629 4628 4553 4555 4631 4629 4597 4630 4672 4631 4597 4672 4632 4630 4556 4632 4557 4633 4633 4558 4634 4673 4634 4559 4560 4636 4635 4673 4559 4635 4561 4637 4636 4562 4638 4637 4598 4674 4606 4675 4599 4600 4600 4601 4676 4640 4639 4565 4639 4677 4601 4640 4566 4641 4642 4641 4567 4568 4643 4642 4569 4644 4643 4644 4570 4645 4571 4646 4645 4572 4647 4646 4678 4647 4602 4678 4602 4648 4574 4649 4648 4649 4575 4650 4576 4651 4650 4651 4603 4679 4652 4578 4653 4603 4652 4679 4653 4579 4654 4654 4580 4655 4656 4655 4581 4582 4657 4656 4583 4658 4657 4680 4658 4604 4680 4604 4659 4585 4660 4659 4586 4661 4660 4661 4587 4662 4662 4588 4663 4663 4589 4664 4605 4681 4664 4605 4665 4681 4665 4591 4666 4666 4606 4682 4607 4674 4598 4607 4667 4683 4684 4608 4609 4667 4608 4684 4609 4610 4685 4686 4610 4611 4687 4611 4612 4688 4612 4668 4613 4614 4689 4668 4613 4689 4615 4690 4614 4691 4615 4616 4692 4616 4617 4618 4693 4617 4618 4669 4694 4669 4595 4670 4695 4619 4620 4670 4619 4695 4696 4620 4621 4622 4697 4621 4698 4622 4623 4671 4699 4623 4700 4624 4625 4700 4671 4624 4701 4625 4626 4702 4626 4627 4628 4703 4627 4704 4628 4629 4629 4631 4705 4630 4706 4672 4707 4631 4672 4632 4706 4630 4708 4632 4633 4709 4633 4634 4673 4710 4634 4636 4711 4635 4711 4673 4635 4637 4712 4636 4638 4713 4637 4606 4674 4682 4675 4600 4676 4601 4677 4676 4714 4639 4640 4714 4677 4639 4640 4641 4715 4641 4642 4716 4643 4717 4642 4643 4644 4718 4719 4644 4645 4645 4646 4720 4646 4647 4721 4678 4722 4647 4723 4678 4648 4649 4723 4648 4649 4650 4724 4650 4651 4725 4726 4651 4679 4652 4653 4727 4652 4727 4679 4653 4654 4728 4654 4655 4729 4730 4655 4656 4657 4731 4656 4658 4732 4657 4733 4658 4680 4734 4680 4659 4660 4734 4659 4661 4735 4660 4661 4662 4736 4737 4662 4663 4738 4663 4664 4681 4739 4664 4681 4665 4740 4740 4665 4666 4741 4666 4682 4607 4683 4674 4683 4667 4742 4684 4609 4685 4667 4684 4742 4685 4610 4686 4687 4686 4611 4688 4687 4612 4743 4688 4668 4614 4690 4689 4743 4668 4689 4691 4690 4615 4692 4691 4616 4693 4692 4617 4618 4694 4693 4694 4669 4744 4744 4669 4670 4696 4695 4620 4745 4670 4695 4697 4696 4621 4698 4697 4622 4699 4698 4623 4746 4699 4671 4700 4625 4701 4746 4671 4700 4701 4626 4702 4703 4702 4627 4704 4703 4628 4704 4629 4705 4631 4707 4705 4706 4747 4672 4747 4707 4672 4708 4706 4632 4709 4708 4633 4710 4709 4634 4748 4710 4673 4636 4712 4711 4748 4673 4711 4713 4712 4637 4674 4749 4682 4750 4675 4676 4677 4751 4676 4714 4640 4715 4752 4677 4714 4715 4641 4716 4642 4717 4716 4717 4643 4718 4718 4644 4719 4719 4645 4720 4646 4721 4720 4647 4722 4721 4753 4722 4678 4753 4678 4723 4723 4649 4724 4724 4650 4725 4651 4726 4725 4754 4726 4679 4727 4653 4728 4727 4754 4679 4654 4729 4728 4655 4730 4729 4731 4730 4656 4657 4732 4731 4733 4732 4658 4733 4680 4755 4755 4680 4734 4735 4734 4660 4661 4736 4735 4736 4662 4737 4738 4737 4663 4739 4738 4664 4681 4756 4739 4681 4740 4756 4741 4740 4666 4757 4741 4682 4674 4683 4749 4758 4683 4742 4759 4684 4685 4742 4684 4759 4760 4685 4686 4687 4761 4686 4688 4762 4687 4763 4688 4743 4690 4764 4689 4764 4743 4689 4765 4690 4691 4691 4692 4766 4693 4767 4692 4693 4694 4768 4694 4744 4769 4744 4670 4745 4696 4770 4695 4770 4745 4695 4771 4696 4697 4698 4772 4697 4699 4773 4698 4774 4699 4746 4700 4701 4775 4746 4700 4775 4776 4701 4702 4703 4777 4702 4778 4703 4704 4779 4704 4705 4707 4780 4705 4781 4747 4706 4747 4782 4707 4781 4706 4708 4783 4708 4709 4784 4709 4710 4785 4710 4748 4712 4786 4711 4786 4748 4711 4713 4787 4712 4749 4757 4682 4751 4750 4676 4752 4751 4677 4788 4714 4715 4752 4714 4788 4789 4715 4716 4717 4790 4716 4791 4717 4718 4718 4719 4792 4793 4719 4720 4721 4794 4720 4721 4722 4795 4753 4796 4722 4753 4723 4797 4723 4724 4797 4798 4724 4725 4726 4799 4725 4754 4800 4726 4801 4727 4728 4754 4727 4801 4729 4802 4728 4730 4803 4729 4804 4730 4731 4732 4805 4731 4806 4732 4733 4733 4755 4807 4755 4734 4808 4808 4734 4735 4736 4809 4735 4736 4737 4810 4811 4737 4738 4738 4739 4812 4739 4756 4813 4756 4740 4814 4814 4740 4741 4757 4815 4741 4749 4683 4758 4758 4742 4816 4760 4759 4685 4816 4742 4759 4761 4760 4686 4687 4762 4761 4763 4762 4688 4817 4763 4743 4765 4764 4690 4764 4817 4743 4765 4691 4766 4692 4767 4766 4693 4768 4767 4768 4694 4769 4769 4744 4818 4818 4744 4745 4771 4770 4696 4770 4819 4745 4772 4771 4697 4698 4773 4772 4774 4773 4699 4774 4746 4820 4775 4701 4776 4820 4746 4775 4777 4776 4702 4778 4777 4703 4778 4704 4779 4780 4779 4705 4782 4780 4707 4821 4747 4781 4821 4782 4747 4781 4708 4783 4783 4709 4784 4784 4710 4785 4785 4748 4822 4712 4787 4786 4822 4748 4786 4749 4823 4757 4824 4750 4751 4825 4751 4752 4789 4788 4715 4752 4788 4826 4790 4789 4716 4791 4790 4717 4791 4718 4792 4719 4793 4792 4794 4793 4720 4794 4721 4795 4722 4796 4795 4827 4796 4753 4827 4753 4797 4724 4798 4797 4799 4798 4725 4726 4800 4799 4828 4800 4754 4802 4801 4728 4828 4754 4801 4803 4802 4729 4804 4803 4730 4805 4804 4731 4806 4805 4732 4806 4733 4807 4807 4755 4829 4755 4808 4829 4809 4808 4735 4736 4810 4809 4810 4737 4811 4811 4738 4812 4739 4813 4812 4813 4756 4830 4756 4814 4830 4815 4814 4741 4815 4757 4831 4749 4758 4823 4832 4758 4816 4760 4833 4759 4833 4816 4759 4834 4760 4761 4762 4835 4761 4763 4836 4762 4837 4763 4817 4838 4764 4765 4838 4817 4764 4765 4766 4839 4766 4767 4840 4767 4768 4841 4842 4768 4769 4843 4769 4818 4819 4818 4745 4771 4844 4770 4770 4844 4819 4772 4845 4771 4773 4846 4772 4847 4773 4774 4774 4820 4848 4849 4775 4776 4820 4775 4849 4777 4850 4776 4851 4777 4778 4778 4779 4852 4779 4780 4853 4782 4854 4780 4821 4781 4855 4856 4782 4821 4781 4783 4855 4783 4784 4857 4784 4785 4858 4785 4822 4859 4787 4860 4786 4822 4786 4861 4757 4823 4831 4824 4751 4825 4825 4752 4826 4862 4788 4789 4826 4788 4862 4789 4790 4863 4791 4864 4790 4865 4791 4792 4793 4866 4792 4867 4793 4794 4794 4795 4868 4796 4869 4795 4827 4870 4796 4871 4827 4797 4798 4871 4797 4872 4798 4799 4799 4800 4873 4828 4874 4800 4802 4875 4801 4875 4828 4801 4803 4876 4802 4877 4803 4804 4878 4804 4805 4879 4805 4806 4880 4806 4807 4881 4807 4829 4829 4808 4882 4808 4809 4882 4809 4810 4883 4810 4811 4884 4885 4811 4812 4812 4813 4886 4813 4830 4887 4814 4888 4830 4888 4814 4815 4889 4815 4831 4823 4758 4832 4890 4832 4816 4834 4833 4760 4833 4890 4816 4835 4834 4761 4762 4836 4835 4837 4836 4763 4837 4817 4891 4838 4765 4839 4891 4817 4838 4839 4766 4840 4767 4841 4840 4841 4768 4842 4843 4842 4769 4892 4843 4818 4819 4892 4818 4771 4845 4844 4819 4844 4893 4846 4845 4772 4847 4846 4773 4847 4774 4848 4848 4820 4894 4850 4849 4776 4894 4820 4849 4851 4850 4777 4851 4778 4852 4852 4779 4853 4780 4854 4853 4856 4854 4782 4895 4821 4855 4856 4821 4895 4783 4857 4855 4857 4784 4858 4858 4785 4859 4859 4822 4861 4786 4860 4861 4823 4896 4831 4897 4824 4825 4898 4825 4826 4862 4789 4863 4826 4862 4899 4790 4864 4863 4865 4864 4791 4866 4865 4792 4867 4866 4793 4867 4794 4868 4795 4869 4868 4796 4870 4869 4900 4870 4827 4900 4827 4871 4872 4871 4798 4872 4799 4873 4800 4874 4873 4901 4874 4828 4802 4876 4875 4901 4828 4875 4877 4876 4803 4877 4804 4878 4878 4805 4879 4879 4806 4880 4881 4880 4807 4881 4829 4902 4829 4882 4902 4809 4883 4882 4810 4884 4883 4884 4811 4885 4885 4812 4886 4886 4813 4887 4830 4903 4887 4830 4888 4903 4889 4888 4815 4904 4889 4831 4823 4832 4896 4905 4832 4890 4906 4833 4834 4906 4890 4833 4834 4835 4907 4836 4908 4835 4909 4836 4837 4837 4891 4910 4911 4838 4839 4891 4838 4911 4912 4839 4840 4841 4913 4840 4841 4842 4914 4915 4842 4843 4916 4843 4892 4892 4819 4893 4844 4845 4917 4844 4917 4893 4846 4918 4845 4919 4846 4847 4920 4847 4848 4921 4848 4894 4850 4922 4849 4922 4894 4849 4851 4923 4850 4924 4851 4852 4925 4852 4853 4854 4926 4853 4927 4854 4856 4895 4855 4928 4856 4895 4929 4855 4857 4928 4930 4857 4858 4931 4858 4859 4932 4859 4861 4860 4933 4861 4896 4904 4831 4898 4897 4825 4898 4826 4899 4934 4862 4863 4862 4934 4899 4864 4935 4863 4865 4936 4864 4866 4937 4865 4867 4938 4866 4939 4867 4868 4869 4940 4868 4870 4941 4869 4942 4870 4900 4900 4871 4943 4943 4871 4872 4944 4872 4873 4874 4945 4873 4901 4946 4874 4876 4947 4875 4947 4901 4875 4948 4876 4877 4877 4878 4949 4878 4879 4950 4879 4880 4951 4952 4880 4881 4953 4881 4902 4882 4954 4902 4883 4954 4882 4884 4955 4883 4884 4885 4956 4957 4885 4886 4958 4886 4887 4903 4959 4887 4888 4960 4903 4889 4960 4888 4904 4961 4889 4896 4832 4905 4905 4890 4962 4906 4834 4907 4962 4890 4906 4835 4908 4907 4909 4908 4836 4909 4837 4910 4891 4963 4910 4912 4911 4839 4891 4911 4963 4913 4912 4840 4841 4914 4913 4914 4842 4915 4915 4843 4916 4916 4892 4964 4892 4893 4964 4845 4918 4917 4917 4965 4893 4919 4918 4846 4919 4847 4920 4920 4848 4921 4966 4921 4894 4850 4923 4922 4922 4966 4894 4924 4923 4851 4925 4924 4852 4926 4925 4853 4927 4926 4854 4927 4856 4929 4967 4895 4928 4929 4895 4967 4928 4857 4930 4931 4930 4858 4932 4931 4859 4933 4932 4861 4896 4968 4904 4969 4897 4898 4970 4898 4899 4935 4934 4863 4934 4971 4899 4864 4936 4935 4865 4937 4936 4866 4938 4937 4939 4938 4867 4940 4939 4868 4941 4940 4869 4942 4941 4870 4942 4900 4972 4900 4943 4972 4943 4872 4944 4945 4944 4873 4874 4946 4945 4901 4973 4946 4948 4947 4876 4947 4973 4901 4948 4877 4949 4949 4878 4950 4879 4951 4950 4951 4880 4952 4952 4881 4953 4974 4953 4902 4954 4974 4902 4955 4954 4883 4884 4956 4955 4956 4885 4957 4958 4957 4886 4959 4958 4887 4903 4975 4959 4960 4975 4903 4889 4961 4960 4904 4976 4961 4896 4905 4968 4905 4962 4977 4978 4906 4907 4962 4906 4978 4908 4979 4907 4909 4980 4908 4981 4909 4910 4910 4963 4982 4983 4911 4912 4963 4911 4983 4912 4913 4984 4913 4914 4985 4914 4915 4986 4915 4916 4987 4988 4916 4964 4893 4965 4964 4918 4989 4917 4917 4989 4965 4990 4918 4919 4919 4920 4991 4992 4920 4921 4966 4993 4921 4922 4923 4994 4922 4994 4966 4924 4995 4923 4996 4924 4925 4926 4997 4925 4998 4926 4927 4999 4927 4929 5000 4967 4928 5001 4929 4967 5000 4928 4930 4931 5002 4930 4932 5003 4931 4933 5004 4932 4904 4968 4976 4969 4898 4970 4971 4970 4899 4935 5005 4934 4934 5005 4971 4935 4936 5006 4936 4937 5007 4937 4938 5008 4939 5009 4938 4940 5010 4939 4941 5011 4940 4942 5012 4941 5013 4942 4972 4972 4943 5014 5014 4943 4944 4945 5015 4944 4945 4946 5016 4946 4973 5017 5018 4947 4948 5018 4973 4947 5019 4948 4949 5020 4949 4950 4950 4951 5021 4951 4952 5022 5023 4952 4953 4974 5024 4953 4954 5025 4974 4955 5025 4954 4955 4956 5026 4956 4957 5027 5028 4957 4958 4958 4959 5029 4959 4975 5030 4960 5031 4975 4960 4961 5031 4961 4976 5032 4968 4905 4977 4962 5033 4977 4979 4978 4907 4962 4978 5033 4908 4980 4979 4981 4980 4909 4981 4910 4982 4982 4963 5034 4983 4912 4984 4963 4983 5034 4984 4913 4985 4985 4914 4986 4986 4915 4987 4987 4916 4988 5035 4988 4964 4965 5035 4964 4990 4989 4918 4989 5036 4965 4990 4919 4991 4991 4920 4992 4993 4992 4921 4993 4966 5037 4923 4995 4994 4966 4994 5037 4996 4995 4924 4997 4996 4925 4998 4997 4926 4998 4927 4999 5001 4999 4929 5000 5038 4967 5038 5001 4967 5002 5000 4930 5002 4931 5039 4932 5004 5003 4931 5003 5039 4976 4968 5040 5041 4969 4970 4971 5042 4970 4935 5006 5005 4971 5005 5043 5006 4936 5007 4937 5008 5007 4938 5009 5008 4939 5010 5009 4940 5011 5010 4941 5012 5011 5013 5012 4942 5044 5013 4972 5044 4972 5014 5015 5014 4944 4945 5016 5015 5016 4946 5017 4973 5045 5017 5018 4948 5019 5018 5045 4973 5020 5019 4949 5020 4950 5021 4951 5022 5021 5022 4952 5023 5024 5023 4953 5024 4974 5046 4974 5025 5046 4955 5026 5025 4956 5027 5026 5027 4957 5028 5028 4958 5029 5029 4959 5030 5030 4975 5047 4975 5031 5047 5031 4961 5032 4976 5048 5032 5040 4968 4977 4977 5033 5049 5050 4978 4979 5033 4978 5050 4980 5051 4979 4981 5052 4980 5053 4981 4982 5054 4982 5034 5055 4983 4984 5034 4983 5055 5056 4984 4985 5057 4985 4986 5058 4986 4987 5059 4987 4988 5035 5060 4988 5036 5035 4965 5061 4989 4990 5061 5036 4989 5062 4990 4991 5063 4991 4992 4993 5064 4992 5065 4993 5037 4995 5066 4994 4994 5066 5037 4996 5067 4995 4997 5068 4996 5069 4997 4998 4998 4999 5070 4999 5001 5071 5072 5038 5000 5038 5073 5001 5072 5000 5002 5074 5002 5039 5004 5075 5003 5003 5076 5039 4976 5040 5048 5042 5041 4970 5042 4971 5043 5005 5006 5077 5005 5077 5043 5078 5006 5007 5008 5079 5007 5009 5080 5008 5009 5010 5081 5010 5011 5082 5011 5012 5083 5013 5084 5012 5085 5013 5044 5086 5044 5014 5015 5086 5014 5015 5016 5087 5088 5016 5017 5045 5089 5017 5090 5018 5019 5090 5045 5018 5020 5091 5019 5092 5020 5021 5022 5093 5021 5022 5023 5094 5095 5023 5024 5096 5024 5046 5025 5097 5046 5026 5097 5025 5027 5098 5026 5027 5028 5099 5100 5028 5029 5101 5029 5030 5102 5030 5047 5047 5031 5103 5031 5032 5103 5032 5048 5104 5040 4977 5049 5049 5033 5105 5051 5050 4979 5033 5050 5105 4980 5052 5051 5053 5052 4981 5054 5053 4982 5106 5054 5034 5056 5055 4984 5106 5034 5055 5057 5056 4985 5058 5057 4986 5059 5058 4987 5060 5059 4988 5035 5107 5060 5036 5107 5035 5061 4990 5062 5108 5036 5061 5062 4991 5063 5064 5063 4992 5065 5064 4993 5109 5065 5037 4995 5067 5066 5066 5109 5037 4996 5068 5067 5069 5068 4997 5069 4998 5070 5070 4999 5071 5001 5073 5071 5110 5038 5072 5110 5073 5038 5072 5002 5074 5076 5074 5039 5075 5076 5003 5048 5040 5111 5112 5041 5042 5113 5042 5043 5077 5006 5078 5043 5077 5114 5079 5078 5007 5080 5079 5008 5009 5081 5080 5081 5010 5082 5011 5083 5082 5012 5084 5083 5085 5084 5013 5085 5044 5115 5044 5086 5115 5015 5087 5086 5016 5088 5087 5089 5088 5017 5116 5089 5045 5091 5090 5019 5116 5045 5090 5092 5091 5020 5093 5092 5021 5022 5094 5093 5094 5023 5095 5095 5024 5096 5117 5096 5046 5097 5117 5046 5098 5097 5026 5027 5099 5098 5099 5028 5100 5101 5100 5029 5102 5101 5030 5118 5102 5047 5118 5047 5103 5103 5032 5104 5104 5048 5119 5111 5040 5049 5120 5049 5105 5050 5051 5121 5105 5050 5121 5052 5122 5051 5123 5052 5053 5124 5053 5054 5125 5054 5106 5056 5126 5055 5126 5106 5055 5127 5056 5057 5058 5128 5057 5129 5058 5059 5060 5130 5059 5107 5131 5060 5108 5107 5036 5061 5062 5132 5108 5061 5132 5133 5062 5063 5064 5134 5063 5135 5064 5065 5136 5065 5109 5066 5067 5137 5109 5066 5137 5067 5068 5138 5069 5139 5068 5140 5069 5070 5141 5070 5071 5073 5142 5071 5110 5072 5143 5144 5073 5110 5143 5072 5074 5076 5145 5074 5075 5146 5076 5048 5111 5119 5113 5112 5042 5113 5043 5147 5077 5078 5148 5077 5148 5114 5147 5043 5114 5149 5078 5079 5080 5150 5079 5080 5081 5151 5152 5081 5082 5082 5083 5153 5084 5154 5083 5085 5155 5084 5156 5085 5115 5086 5157 5115 5087 5157 5086 5087 5088 5158 5089 5159 5088 5160 5089 5116 5161 5090 5091 5116 5090 5161 5162 5091 5092 5092 5093 5163 5094 5164 5093 5094 5095 5165 5166 5095 5096 5117 5167 5096 5168 5117 5097 5098 5168 5097 5098 5099 5169 5099 5100 5170 5171 5100 5101 5102 5172 5101 5173 5102 5118 5174 5118 5103 5174 5103 5104 5175 5104 5119 5111 5049 5120 5176 5120 5105 5051 5122 5121 5176 5105 5121 5123 5122 5052 5123 5053 5124 5124 5054 5125 5125 5106 5177 5127 5126 5056 5177 5106 5126 5128 5127 5057 5129 5128 5058 5130 5129 5059 5131 5130 5060 5178 5131 5107 5178 5107 5108 5132 5062 5133 5108 5132 5179 5134 5133 5063 5135 5134 5064 5135 5065 5136 5136 5109 5180 5067 5138 5137 5109 5137 5180 5068 5139 5138 5140 5139 5069 5141 5140 5070 5142 5141 5071 5144 5142 5073 5110 5143 5181 5144 5110 5181 5145 5143 5074 5076 5146 5145 5119 5111 5182 5183 5112 5113 5113 5147 5184 5078 5149 5148 5148 5185 5114 5185 5147 5114 5150 5149 5079 5080 5151 5150 5151 5081 5152 5152 5082 5153 5083 5154 5153 5084 5155 5154 5156 5155 5085 5186 5156 5115 5157 5186 5115 5157 5087 5158 5088 5159 5158 5160 5159 5089 5160 5116 5187 5161 5091 5162 5116 5161 5187 5162 5092 5163 5093 5164 5163 5094 5165 5164 5165 5095 5166 5167 5166 5096 5188 5167 5117 5188 5117 5168 5168 5098 5169 5099 5170 5169 5170 5100 5171 5172 5171 5101 5173 5172 5102 5189 5173 5118 5174 5189 5118 5175 5174 5104 5190 5175 5119 5182 5111 5120 5176 5191 5120 5122 5192 5121 5192 5176 5121 5193 5122 5123 5123 5124 5194 5124 5125 5195 5125 5177 5196 5197 5126 5127 5177 5126 5197 5198 5127 5128 5199 5128 5129 5200 5129 5130 5201 5130 5131 5202 5131 5178 5178 5108 5179 5203 5132 5133 5179 5132 5203 5134 5204 5133 5205 5134 5135 5135 5136 5206 5207 5136 5180 5138 5208 5137 5137 5208 5180 5139 5209 5138 5210 5139 5140 5140 5141 5211 5142 5212 5141 5144 5213 5142 5143 5214 5181 5215 5144 5181 5214 5143 5145 5146 5216 5145 5190 5119 5182 5183 5113 5184 5184 5147 5217 5148 5149 5218 5148 5218 5185 5217 5147 5185 5150 5219 5149 5150 5151 5220 5151 5152 5221 5222 5152 5153 5154 5223 5153 5155 5224 5154 5156 5225 5155 5186 5226 5156 5227 5186 5157 5227 5157 5158 5159 5228 5158 5229 5159 5160 5230 5160 5187 5161 5162 5231 5161 5231 5187 5232 5162 5163 5163 5164 5233 5165 5234 5164 5165 5166 5235 5236 5166 5167 5237 5167 5188 5188 5168 5238 5168 5169 5238 5169 5170 5239 5170 5171 5240 5241 5171 5172 5242 5172 5173 5243 5173 5189 5244 5189 5174 5244 5174 5175 5190 5245 5175 5191 5182 5120 5176 5246 5191 5193 5192 5122 5192 5246 5176 5193 5123 5194 5124 5195 5194 5125 5196 5195 5196 5177 5247 5197 5127 5198 5177 5197 5247 5198 5128 5199 5199 5129 5200 5200 5130 5201 5201 5131 5202 5202 5178 5248 5248 5178 5179 5204 5203 5133 5249 5179 5203 5205 5204 5134 5205 5135 5206 5206 5136 5207 5250 5207 5180 5209 5208 5138 5208 5250 5180 5210 5209 5139 5210 5140 5211 5141 5212 5211 5142 5213 5212 5215 5213 5144 5181 5214 5251 5215 5181 5251 5216 5214 5145 5252 5190 5182 5253 5183 5184 5254 5184 5217 5149 5219 5218 5218 5255 5185 5255 5217 5185 5150 5220 5219 5220 5151 5221 5152 5222 5221 5223 5222 5153 5224 5223 5154 5155 5225 5224 5156 5226 5225 5186 5256 5226 5227 5256 5186 5228 5227 5158 5229 5228 5159 5229 5160 5230 5230 5187 5257 5231 5162 5232 5187 5231 5257 5232 5163 5233 5164 5234 5233 5165 5235 5234 5235 5166 5236 5236 5167 5237 5237 5188 5258 5258 5188 5238 5169 5239 5238 5170 5240 5239 5240 5171 5241 5241 5172 5242 5242 5173 5243 5243 5189 5259 5259 5189 5244 5245 5244 5175 5260 5245 5190 5191 5252 5182 5246 5261 5191 5262 5192 5193 5262 5246 5192 5263 5193 5194 5195 5264 5194 5196 5265 5195 5266 5196 5247 5197 5198 5267 5197 5267 5247 5198 5199 5268 5199 5200 5269 5200 5201 5270 5201 5202 5271 5202 5248 5272 5249 5248 5179 5204 5273 5203 5273 5249 5203 5205 5274 5204 5275 5205 5206 5276 5206 5207 5250 5277 5207 5209 5278 5208 5208 5278 5250 5279 5209 5210 5280 5210 5211 5212 5281 5211 5213 5282 5212 5283 5213 5215 5214 5284 5251 5285 5215 5251 5216 5286 5214 5260 5190 5252 5254 5253 5184 5254 5217 5287 5219 5288 5218 5288 5255 5218 5217 5255 5287 5219 5220 5289 5290 5220 5221 5222 5291 5221 5223 5292 5222 5224 5293 5223 5224 5225 5294 5225 5226 5295 5226 5256 5296 5227 5297 5256 5228 5297 5227 5298 5228 5229 5229 5230 5299 5230 5257 5300 5231 5232 5301 5231 5301 5257 5302 5232 5233 5233 5234 5303 5234 5235 5304 5235 5236 5305 5236 5237 5306 5237 5258 5307 5308 5258 5238 5239 5308 5238 5240 5309 5239 5240 5241 5310 5241 5242 5311 5242 5243 5312 5243 5259 5313 5259 5244 5314 5314 5244 5245 5315 5245 5260 5191 5261 5252 5316 5261 5246 5262 5193 5263 5316 5246 5262 5264 5263 5194 5265 5264 5195 5265 5196 5266 5266 5247 5317 5267 5198 5268 5247 5267 5317 5199 5269 5268 5269 5200 5270 5270 5201 5271 5202 5272 5271 5272 5248 5318 5318 5248 5249 5204 5274 5273 5249 5273 5319 5275 5274 5205 5276 5275 5206 5277 5276 5207 5320 5277 5250 5279 5278 5209 5278 5320 5250 5279 5210 5280 5281 5280 5211 5212 5282 5281 5283 5282 5213 5283 5215 5285 5214 5286 5284 5284 5285 5251 5321 5260 5252 5322 5253 5254 5323 5254 5287 5219 5289 5288 5288 5324 5255 5255 5323 5287 5289 5220 5290 5291 5290 5221 5222 5292 5291 5293 5292 5223 5293 5224 5294 5225 5295 5294 5295 5226 5296 5256 5325 5296 5256 5297 5325 5298 5297 5228 5298 5229 5299 5299 5230 5300 5257 5326 5300 5301 5232 5302 5301 5326 5257 5302 5233 5303 5234 5304 5303 5235 5305 5304 5305 5236 5306 5306 5237 5307 5258 5327 5307 5258 5308 5327 5309 5308 5239 5240 5310 5309 5310 5241 5311 5242 5312 5311 5312 5243 5313 5259 5328 5313 5259 5314 5328 5314 5245 5315 5315 5260 5329 5261 5321 5252 5330 5261 5316 5331 5262 5263 5316 5262 5331 5263 5264 5332 5265 5333 5264 5334 5265 5266 5335 5266 5317 5336 5267 5268 5267 5336 5317 5269 5337 5268 5338 5269 5270 5270 5271 5339 5272 5340 5271 5272 5318 5341 5318 5249 5319 5274 5342 5273 5273 5342 5319 5275 5343 5274 5344 5275 5276 5276 5277 5345 5320 5346 5277 5347 5278 5279 5347 5320 5278 5279 5280 5348 5280 5281 5349 5282 5350 5281 5351 5282 5283 5352 5283 5285 5286 5353 5284 5284 5354 5285 5329 5260 5321 5322 5254 5355 5355 5254 5323 5288 5289 5356 5288 5356 5324 5255 5324 5323 5289 5290 5357 5290 5291 5358 5292 5359 5291 5360 5292 5293 5293 5294 5361 5295 5362 5294 5363 5295 5296 5325 5364 5296 5297 5365 5325 5298 5365 5297 5366 5298 5299 5367 5299 5300 5300 5326 5368 5301 5302 5369 5301 5369 5326 5370 5302 5303 5303 5304 5371 5304 5305 5372 5373 5305 5306 5374 5306 5307 5327 5375 5307 5308 5376 5327 5309 5376 5308 5309 5310 5377 5378 5310 5311 5311 5312 5379 5312 5313 5380 5313 5328 5381 5328 5314 5382 5314 5315 5382 5315 5329 5383 5330 5321 5261 5330 5316 5384 5331 5263 5332 5316 5331 5384 5264 5333 5332 5334 5333 5265 5335 5334 5266 5385 5335 5317 5337 5336 5268 5336 5385 5317 5269 5338 5337 5338 5270 5339 5271 5340 5339 5272 5341 5340 5341 5318 5386 5386 5318 5319 5274 5343 5342 5342 5387 5319 5344 5343 5275 5344 5276 5345 5277 5346 5345 5388 5346 5320 5347 5279 5348 5388 5320 5347 5348 5280 5349 5281 5350 5349 5351 5350 5282 5351 5283 5352 5354 5352 5285 5353 5354 5284 5329 5321 5389 5390 5322 5355 5391 5355 5323 5356 5289 5357 5324 5356 5392 5324 5391 5323 5290 5358 5357 5291 5359 5358 5360 5359 5292 5360 5293 5361 5294 5362 5361 5362 5295 5363 5364 5363 5296 5393 5364 5325 5365 5393 5325 5366 5365 5298 5367 5366 5299 5367 5300 5368 5368 5326 5394 5369 5302 5370 5326 5369 5394 5370 5303 5371 5371 5304 5372 5305 5373 5372 5374 5373 5306 5375 5374 5307 5395 5375 5327 5376 5395 5327 5309 5377 5376 5377 5310 5378 5378 5311 5379 5379 5312 5380 5313 5381 5380 5328 5396 5381 5396 5328 5382 5315 5383 5382 5329 5397 5383 5389 5321 5330 5330 5384 5398 5399 5331 5332 5331 5399 5384 5333 5400 5332 5334 5401 5333 5402 5334 5335 5403 5335 5385 5337 5404 5336 5336 5404 5385 5338 5405 5337 5406 5338 5339 5340 5407 5339 5340 5341 5408 5341 5386 5409 5387 5386 5319 5343 5410 5342 5342 5410 5387 5411 5343 5344 5412 5344 5345 5346 5413 5345 5388 5414 5346 5415 5347 5348 5388 5347 5415 5416 5348 5349 5350 5417 5349 5418 5350 5351 5351 5352 5419 5352 5354 5420 5353 5421 5354 5329 5389 5397 5390 5355 5422 5355 5391 5422 5356 5357 5423 5392 5356 5423 5324 5392 5391 5358 5424 5357 5359 5425 5358 5426 5359 5360 5427 5360 5361 5362 5428 5361 5429 5362 5363 5364 5430 5363 5393 5431 5364 5365 5432 5393 5366 5432 5365 5433 5366 5367 5434 5367 5368 5435 5368 5394 5369 5370 5436 5394 5369 5436 5437 5370 5371 5438 5371 5372 5373 5439 5372 5374 5440 5373 5375 5441 5374 5395 5442 5375 5376 5443 5395 5376 5377 5443 5377 5378 5444 5445 5378 5379 5446 5379 5380 5381 5447 5380 5396 5448 5381 5449 5396 5382 5383 5449 5382 5397 5450 5383 5389 5330 5398 5384 5451 5398 5400 5399 5332 5399 5451 5384 5333 5401 5400 5402 5401 5334 5402 5335 5403 5452 5403 5385 5337 5405 5404 5404 5452 5385 5406 5405 5338 5407 5406 5339 5407 5340 5408 5341 5409 5408 5409 5386 5453 5453 5386 5387 5411 5410 5343 5410 5454 5387 5411 5344 5412 5413 5412 5345 5346 5414 5413 5455 5414 5388 5416 5415 5348 5455 5388 5415 5417 5416 5349 5418 5417 5350 5418 5351 5419 5419 5352 5456 5354 5421 5420 5352 5420 5456 5397 5389 5457 5458 5390 5422 5422 5391 5459 5357 5424 5423 5460 5392 5423 5391 5392 5461 5425 5424 5358 5426 5425 5359 5426 5360 5427 5428 5427 5361 5429 5428 5362 5430 5429 5363 5431 5430 5364 5431 5393 5462 5393 5432 5462 5433 5432 5366 5433 5367 5434 5435 5434 5368 5463 5435 5394 5370 5437 5436 5463 5394 5436 5438 5437 5371 5439 5438 5372 5440 5439 5373 5441 5440 5374 5375 5442 5441 5395 5464 5442 5395 5443 5464 5443 5377 5444 5444 5378 5445 5446 5445 5379 5447 5446 5380 5448 5447 5381 5396 5465 5448 5449 5465 5396 5450 5449 5383 5397 5466 5450 5457 5389 5398 5398 5451 5467 5400 5468 5399 5399 5468 5451 5400 5401 5469 5402 5470 5401 5471 5402 5403 5452 5472 5403 5404 5405 5473 5452 5404 5473 5406 5474 5405 5407 5475 5406 5476 5407 5408 5408 5409 5477 5409 5453 5478 5454 5453 5387 5479 5410 5411 5479 5454 5410 5480 5411 5412 5412 5413 5481 5413 5414 5482 5455 5483 5414 5416 5484 5415 5484 5455 5415 5417 5485 5416 5486 5417 5418 5487 5418 5419 5488 5419 5456 5421 5489 5420 5420 5490 5456 5397 5457 5466 5491 5458 5422 5391 5461 5459 5491 5422 5459 5423 5424 5492 5461 5392 5460 5460 5423 5492 5425 5493 5424 5494 5425 5426 5495 5426 5427 5428 5496 5427 5497 5428 5429 5498 5429 5430 5499 5430 5431 5431 5462 5500 5432 5501 5462 5433 5501 5432 5502 5433 5434 5435 5503 5434 5463 5504 5435 5437 5505 5436 5505 5463 5436 5438 5506 5437 5439 5507 5438 5440 5508 5439 5509 5440 5441 5442 5510 5441 5442 5464 5511 5464 5443 5512 5512 5443 5444 5513 5444 5445 5446 5514 5445 5515 5446 5447 5447 5448 5516 5448 5465 5517 5449 5518 5465 5450 5518 5449 5450 5466 5519 5457 5398 5467 5467 5451 5520 5400 5469 5468 5451 5468 5520 5401 5470 5469 5471 5470 5402 5472 5471 5403 5521 5472 5452 5405 5474 5473 5521 5452 5473 5406 5475 5474 5476 5475 5407 5476 5408 5477 5409 5478 5477 5478 5453 5522 5522 5453 5454 5479 5411 5480 5523 5454 5479 5480 5412 5481 5413 5482 5481 5414 5483 5482 5524 5483 5455 5485 5484 5416 5524 5455 5484 5486 5485 5417 5486 5418 5487 5487 5419 5488 5490 5488 5456 5489 5490 5420 5466 5457 5525 5526 5458 5491 5461 5527 5459 5527 5491 5459 5424 5493 5492 5461 5460 5528 5529 5460 5492 5494 5493 5425 5494 5426 5495 5496 5495 5427 5497 5496 5428 5497 5429 5498 5498 5430 5499 5499 5431 5500 5462 5530 5500 5462 5501 5530 5502 5501 5433 5503 5502 5434 5504 5503 5435 5531 5504 5463 5506 5505 5437 5531 5463 5505 5507 5506 5438 5439 5508 5507 5509 5508 5440 5510 5509 5441 5442 5511 5510 5511 5464 5532 5464 5512 5532 5512 5444 5513 5514 5513 5445 5515 5514 5446 5515 5447 5516 5516 5448 5517 5465 5533 5517 5465 5518 5533 5450 5519 5518 5466 5534 5519 5525 5457 5467 5535 5467 5520 5469 5536 5468 5468 5536 5520 5470 5537 5469 5471 5538 5470 5472 5539 5471 5521 5540 5472 5474 5541 5473 5541 5521 5473 5474 5475 5542 5476 5543 5475 5544 5476 5477 5478 5545 5477 5478 5522 5546 5522 5454 5523 5479 5480 5547 5523 5479 5547 5548 5480 5481 5482 5549 5481 5483 5550 5482 5551 5483 5524 5552 5484 5485 5524 5484 5552 5553 5485 5486 5486 5487 5554 5555 5487 5488 5490 5556 5488 5489 5557 5490 5466 5525 5534 5526 5491 5558 5461 5528 5527 5558 5491 5527 5493 5559 5492 5528 5460 5529 5559 5529 5492 5494 5560 5493 5561 5494 5495 5496 5562 5495 5563 5496 5497 5497 5498 5564 5498 5499 5565 5566 5499 5500 5530 5567 5500 5501 5568 5530 5502 5568 5501 5503 5569 5502 5504 5570 5503 5531 5571 5504 5506 5572 5505 5572 5531 5505 5573 5506 5507 5508 5574 5507 5575 5508 5509 5510 5576 5509 5510 5511 5577 5578 5511 5532 5532 5512 5579 5579 5512 5513 5514 5580 5513 5515 5581 5514 5582 5515 5516 5583 5516 5517 5533 5584 5517 5533 5518 5585 5518 5519 5585 5534 5586 5519 5535 5525 5467 5587 5535 5520 5537 5536 5469 5536 5587 5520 5470 5538 5537 5471 5539 5538 5472 5540 5539 5588 5540 5521 5541 5474 5542 5588 5521 5541 5475 5543 5542 5544 5543 5476 5545 5544 5477 5478 5546 5545 5546 5522 5589 5522 5523 5589 5547 5480 5548 5590 5523 5547 5549 5548 5481 5482 5550 5549 5551 5550 5483 5551 5524 5591 5552 5485 5553 5524 5552 5591 5553 5486 5554 5554 5487 5555 5556 5555 5488 5490 5557 5556 5534 5525 5592 5593 5526 5558 5528 5594 5527 5594 5558 5527 5493 5560 5559 5528 5529 5595 5596 5529 5559 5561 5560 5494 5562 5561 5495 5563 5562 5496 5563 5497 5564 5564 5498 5565 5565 5499 5566 5567 5566 5500 5597 5567 5530 5568 5597 5530 5502 5569 5568 5503 5570 5569 5504 5571 5570 5531 5598 5571 5573 5572 5506 5572 5598 5531 5574 5573 5507 5575 5574 5508 5576 5575 5509 5510 5577 5576 5577 5511 5578 5578 5532 5599 5599 5532 5579 5580 5579 5513 5514 5581 5580 5582 5581 5515 5583 5582 5516 5584 5583 5517 5533 5600 5584 5600 5533 5585 5519 5586 5585 5534 5601 5586 5592 5525 5535 5535 5587 5602 5537 5603 5536 5536 5603 5587 5537 5538 5604 5538 5539 5605 5539 5540 5606 5588 5607 5540 5541 5542 5608 5588 5541 5608 5543 5609 5542 5544 5610 5543 5545 5611 5544 5545 5546 5612 5613 5546 5589 5589 5523 5590 5614 5547 5548 5614 5590 5547 5549 5615 5548 5550 5616 5549 5617 5550 5551 5618 5551 5591 5552 5553 5619 5552 5619 5591 5620 5553 5554 5621 5554 5555 5556 5622 5555 5557 5623 5556 5534 5592 5601 5624 5593 5558 5528 5595 5594 5558 5594 5625 5560 5626 5559 5595 5529 5596 5626 5596 5559 5561 5627 5560 5562 5628 5561 5629 5562 5563 5630 5563 5564 5631 5564 5565 5632 5565 5566 5567 5633 5566 5597 5634 5567 5568 5635 5597 5568 5569 5635 5569 5570 5636 5570 5571 5637 5571 5598 5638 5573 5639 5572 5572 5639 5598 5574 5640 5573 5575 5641 5574 5576 5642 5575 5576 5577 5643 5577 5578 5644 5645 5578 5599 5646 5599 5579 5580 5646 5579 5580 5581 5647 5582 5648 5581 5649 5582 5583 5583 5584 5650 5584 5600 5651 5652 5600 5585 5586 5652 5585 5586 5601 5653 5592 5535 5602 5602 5587 5654 5537 5604 5603 5587 5603 5654 5604 5538 5605 5605 5539 5606 5540 5607 5606 5655 5607 5588 5542 5609 5608 5655 5588 5608 5543 5610 5609 5544 5611 5610 5545 5612 5611 5612 5546 5613 5613 5589 5656 5656 5589 5590 5615 5614 5548 5614 5657 5590 5616 5615 5549 5617 5616 5550 5617 5551 5618 5618 5591 5658 5619 5553 5620 5591 5619 5658 5621 5620 5554 5622 5621 5555 5623 5622 5556 5601 5592 5659 5660 5593 5624 5624 5558 5625 5595 5661 5594 5594 5661 5625 5560 5627 5626 5662 5595 5596 5596 5626 5663 5561 5628 5627 5629 5628 5562 5629 5563 5630 5631 5630 5564 5632 5631 5565 5633 5632 5566 5567 5634 5633 5597 5664 5634 5597 5635 5664 5635 5569 5636 5570 5637 5636 5637 5571 5638 5598 5665 5638 5573 5640 5639 5598 5639 5665 5574 5641 5640 5575 5642 5641 5576 5643 5642 5643 5577 5644 5644 5578 5645 5666 5645 5599 5646 5666 5599 5646 5580 5647 5581 5648 5647 5649 5648 5582 5649 5583 5650 5650 5584 5651 5600 5667 5651 5652 5667 5600 5652 5586 5653 5601 5668 5653 5659 5592 5602 5669 5602 5654 5603 5604 5670 5603 5670 5654 5671 5604 5605 5672 5605 5606 5607 5673 5606 5655 5674 5607 5609 5675 5608 5675 5655 5608 5609 5610 5676 5610 5611 5677 5611 5612 5678 5612 5613 5679 5680 5613 5656 5657 5656 5590 5615 5681 5614 5681 5657 5614 5616 5682 5615 5683 5616 5617 5617 5618 5684 5618 5658 5685 5619 5620 5686 5619 5686 5658 5687 5620 5621 5621 5622 5688 5623 5689 5622 5601 5659 5668 5660 5624 5690 5691 5624 5625 5662 5661 5595 5661 5691 5625 5626 5627 5692 5662 5596 5663 5626 5692 5663 5627 5628 5693 5629 5694 5628 5695 5629 5630 5631 5696 5630 5697 5631 5632 5633 5698 5632 5634 5699 5633 5634 5664 5700 5664 5635 5701 5635 5636 5701 5636 5637 5702 5637 5638 5703 5638 5665 5704 5639 5640 5705 5665 5639 5705 5640 5641 5706 5641 5642 5707 5642 5643 5708 5709 5643 5644 5710 5644 5645 5666 5711 5645 5712 5666 5646 5712 5646 5647 5648 5713 5647 5649 5714 5648 5715 5649 5650 5716 5650 5651 5667 5717 5651 5718 5667 5652 5718 5652 5653 5668 5719 5653 5669 5659 5602 5720 5669 5654 5670 5604 5671 5670 5720 5654 5672 5671 5605 5673 5672 5606 5607 5674 5673 5721 5674 5655 5609 5676 5675 5721 5655 5675 5610 5677 5676 5677 5611 5678 5612 5679 5678 5679 5613 5680 5722 5680 5656 5657 5722 5656 5615 5682 5681 5723 5657 5681 5683 5682 5616 5683 5617 5684 5684 5618 5685 5685 5658 5724 5686 5620 5687 5658 5686 5724 5687 5621 5725 5622 5689 5688 5621 5688 5725 5668 5659 5726 5727 5660 5690 5690 5624 5691 5662 5728 5661 5661 5728 5691 5692 5627 5693 5729 5662 5663 5692 5730 5663 5628 5694 5693 5695 5694 5629 5696 5695 5630 5697 5696 5631 5698 5697 5632 5699 5698 5633 5634 5700 5699 5700 5664 5731 5731 5664 5701 5701 5636 5702 5702 5637 5703 5703 5638 5704 5704 5665 5732 5640 5706 5705 5665 5705 5732 5706 5641 5707 5642 5708 5707 5708 5643 5709 5709 5644 5710 5711 5710 5645 5666 5733 5711 5712 5733 5666 5713 5712 5647 5648 5714 5713 5715 5714 5649 5716 5715 5650 5717 5716 5651 5667 5734 5717 5718 5734 5667 5719 5718 5653 5668 5735 5719 5726 5659 5669 5669 5720 5736 5670 5671 5737 5670 5737 5720 5738 5671 5672 5672 5673 5739 5673 5674 5740 5721 5741 5674 5676 5742 5675 5742 5721 5675 5676 5677 5743 5677 5678 5744 5679 5745 5678 5679 5680 5746 5747 5680 5722 5723 5722 5657 5682 5748 5681 5748 5723 5681 5749 5682 5683 5750 5683 5684 5751 5684 5685 5752 5685 5724 5686 5687 5753 5724 5686 5753 5754 5687 5725 5689 5755 5688 5688 5756 5725 5668 5726 5735 5757 5727 5690 5690 5691 5758 5729 5728 5662 5728 5759 5691 5760 5692 5693 5730 5729 5663 5730 5692 5760 5694 5761 5693 5695 5762 5694 5696 5763 5695 5697 5764 5696 5698 5765 5697 5699 5766 5698 5699 5700 5767 5700 5731 5768 5769 5731 5701 5769 5701 5702 5770 5702 5703 5771 5703 5704 5772 5704 5732 5705 5706 5773 5732 5705 5773 5706 5707 5774 5707 5708 5775 5708 5709 5776 5777 5709 5710 5711 5778 5710 5711 5733 5779 5780 5733 5712 5713 5780 5712 5713 5714 5781 5715 5782 5714 5783 5715 5716 5716 5717 5784 5717 5734 5785 5718 5786 5734 5719 5786 5718 5719 5735 5787 5726 5669 5736 5736 5720 5788 5737 5671 5738 5720 5737 5788 5738 5672 5739 5673 5740 5739 5674 5741 5740 5789 5741 5721 5742 5676 5743 5789 5721 5742 5677 5744 5743 5678 5745 5744 5679 5746 5745 5746 5680 5747 5747 5722 5790 5790 5722 5723 5749 5748 5682 5791 5723 5748 5749 5683 5750 5751 5750 5684 5752 5751 5685 5792 5752 5724 5753 5687 5754 5792 5724 5753 5756 5754 5725 5755 5756 5688 5735 5726 5793 5794 5727 5757 5757 5690 5758 5691 5759 5758 5729 5795 5728 5728 5795 5759 5761 5760 5693 5796 5729 5730 5730 5760 5797 5694 5762 5761 5695 5763 5762 5696 5764 5763 5697 5765 5764 5698 5766 5765 5699 5767 5766 5767 5700 5768 5768 5731 5798 5731 5769 5798 5770 5769 5702 5771 5770 5703 5772 5771 5704 5799 5772 5732 5773 5706 5774 5799 5732 5773 5707 5775 5774 5708 5776 5775 5776 5709 5777 5778 5777 5710 5778 5711 5779 5733 5800 5779 5780 5800 5733 5713 5781 5780 5714 5782 5781 5783 5782 5715 5783 5716 5784 5784 5717 5785 5734 5801 5785 5734 5786 5801 5719 5787 5786 5735 5802 5787 5793 5726 5736 5803 5736 5788 5737 5738 5804 5737 5804 5788 5805 5738 5739 5740 5806 5739 5740 5741 5807 5789 5808 5741 5742 5743 5809 5789 5742 5809 5744 5810 5743 5744 5745 5811 5746 5812 5745 5746 5747 5813 5747 5790 5814 5790 5723 5791 5815 5748 5749 5791 5748 5815 5816 5749 5750 5751 5817 5750 5752 5818 5751 5819 5752 5792 5820 5753 5754 5820 5792 5753 5756 5821 5754 5755 5822 5756 5735 5793 5802 5794 5757 5823 5824 5757 5758 5759 5824 5758 5796 5795 5729 5759 5795 5825 5761 5826 5760 5796 5730 5797 5760 5826 5797 5762 5827 5761 5762 5763 5828 5763 5764 5829 5764 5765 5830 5765 5766 5831 5766 5767 5832 5833 5767 5768 5834 5768 5798 5769 5835 5798 5770 5835 5769 5771 5836 5770 5837 5771 5772 5772 5799 5838 5839 5773 5774 5839 5799 5773 5775 5840 5774 5776 5841 5775 5776 5777 5842 5843 5777 5778 5844 5778 5779 5800 5845 5779 5846 5800 5780 5781 5846 5780 5782 5847 5781 5783 5848 5782 5849 5783 5784 5850 5784 5785 5801 5851 5785 5801 5786 5852 5786 5787 5852 5802 5853 5787 5803 5793 5736 5854 5803 5788 5804 5738 5805 5804 5854 5788 5806 5805 5739 5806 5740 5807 5741 5808 5807 5855 5808 5789 5743 5810 5809 5855 5789 5809 5810 5744 5811 5745 5812 5811 5746 5813 5812 5813 5747 5814 5790 5856 5814 5790 5791 5856 5815 5749 5816 5791 5815 5857 5817 5816 5750 5751 5818 5817 5819 5818 5752 5819 5792 5858 5821 5820 5754 5858 5792 5820 5756 5822 5821 5802 5793 5859 5860 5794 5823 5757 5861 5823 5861 5757 5824 5759 5825 5824 5796 5862 5795 5795 5862 5825 5827 5826 5761 5863 5796 5797 5826 5864 5797 5762 5828 5827 5828 5763 5829 5764 5830 5829 5830 5765 5831 5766 5832 5831 5832 5767 5833 5833 5768 5834 5865 5834 5798 5835 5865 5798 5770 5836 5835 5837 5836 5771 5837 5772 5838 5799 5866 5838 5840 5839 5774 5839 5866 5799 5841 5840 5775 5776 5842 5841 5842 5777 5843 5843 5778 5844 5845 5844 5779 5800 5867 5845 5846 5867 5800 5781 5847 5846 5782 5848 5847 5849 5848 5783 5850 5849 5784 5851 5850 5785 5801 5868 5851 5868 5801 5852 5787 5853 5852 5802 5869 5853 5859 5793 5803 5803 5854 5870 5804 5805 5871 5804 5871 5854 5806 5872 5805 5873 5806 5807 5808 5874 5807 5855 5875 5808 5810 5876 5809 5876 5855 5809 5877 5810 5811 5812 5878 5811 5812 5813 5879 5880 5813 5814 5814 5856 5881 5856 5791 5857 5815 5816 5882 5815 5882 5857 5883 5816 5817 5818 5884 5817 5885 5818 5819 5819 5858 5886 5887 5820 5821 5858 5820 5887 5822 5888 5821 5802 5859 5869 5889 5860 5823 5861 5889 5823 5890 5861 5824 5825 5890 5824 5863 5862 5796 5862 5891 5825 5827 5892 5826 5864 5863 5797 5892 5864 5826 5827 5828 5893 5894 5828 5829 5830 5895 5829 5830 5831 5896 5832 5897 5831 5832 5833 5898 5899 5833 5834 5865 5900 5834 5835 5901 5865 5835 5836 5901 5837 5902 5836 5903 5837 5838 5866 5904 5838 5905 5839 5840 5905 5866 5839 5840 5841 5906 5841 5842 5907 5842 5843 5908 5909 5843 5844 5845 5910 5844 5845 5867 5911 5846 5912 5867 5846 5847 5912 5847 5848 5913 5849 5914 5848 5915 5849 5850 5850 5851 5916 5851 5868 5917 5918 5868 5852 5853 5918 5852 5853 5869 5919 5859 5803 5870 5870 5854 5920 5805 5872 5871 5854 5871 5920 5873 5872 5806 5874 5873 5807 5808 5875 5874 5855 5921 5875 5877 5876 5810 5876 5921 5855 5878 5877 5811 5812 5879 5878 5879 5813 5880 5880 5814 5881 5881 5856 5922 5856 5857 5922 5882 5816 5883 5882 5923 5857 5884 5883 5817 5885 5884 5818 5885 5819 5886 5886 5858 5924 5888 5887 5821 5858 5887 5924 5869 5859 5925 5926 5860 5889 5861 5927 5889 5890 5927 5861 5891 5890 5825 5863 5928 5862 5862 5928 5891 5827 5893 5892 5864 5929 5863 5892 5930 5864 5893 5828 5894 5895 5894 5829 5830 5896 5895 5831 5897 5896 5832 5898 5897 5898 5833 5899 5900 5899 5834 5900 5865 5931 5865 5901 5931 5836 5902 5901 5903 5902 5837 5904 5903 5838 5932 5904 5866 5905 5840 5906 5932 5866 5905 5841 5907 5906 5842 5908 5907 5908 5843 5909 5910 5909 5844 5845 5911 5910 5867 5933 5911 5867 5912 5933 5912 5847 5913 5848 5914 5913 5915 5914 5849 5915 5850 5916 5916 5851 5917 5868 5934 5917 5918 5934 5868 5918 5853 5919 5869 5935 5919 5925 5859 5870 5936 5870 5920 5871 5872 5937 5871 5937 5920 5873 5938 5872 5874 5939 5873 5874 5875 5940 5875 5921 5941 5877 5942 5876 5876 5942 5921 5878 5943 5877 5878 5879 5944 5945 5879 5880 5946 5880 5881 5947 5881 5922 5857 5923 5922 5882 5883 5948 5882 5948 5923 5949 5883 5884 5950 5884 5885 5951 5885 5886 5952 5886 5924 5888 5953 5887 5887 5954 5924 5869 5925 5935 5955 5926 5889 5889 5927 5956 5890 5957 5927 5891 5957 5890 5863 5929 5928 5891 5928 5958 5892 5893 5959 5864 5930 5929 5892 5959 5930 5893 5894 5960 5894 5895 5961 5896 5962 5895 5896 5897 5963 5897 5898 5964 5898 5899 5965 5966 5899 5900 5967 5900 5931 5901 5968 5931 5901 5902 5968 5903 5969 5902 5970 5903 5904 5971 5904 5932 5972 5905 5906 5932 5905 5972 5907 5973 5906 5908 5974 5907 5908 5909 5975 5976 5909 5910 5911 5977 5910 5911 5933 5978 5933 5912 5979 5979 5912 5913 5914 5980 5913 5915 5981 5914 5982 5915 5916 5983 5916 5917 5934 5984 5917 5985 5934 5918 5985 5918 5919 5935 5986 5919 5936 5925 5870 5987 5936 5920 5872 5938 5937 5937 5987 5920 5873 5939 5938 5874 5940 5939 5940 5875 5941 5921 5988 5941 5877 5943 5942 5921 5942 5988 5878 5944 5943 5944 5879 5945 5945 5880 5946 5947 5946 5881 5947 5922 5989 5922 5923 5989 5948 5883 5949 5923 5948 5990 5949 5884 5950 5950 5885 5951 5952 5951 5886 5954 5952 5924 5953 5954 5887 5935 5925 5991 5992 5926 5955 5955 5889 5956 5927 5993 5956 5927 5957 5993 5891 5958 5957 5928 5929 5994 5958 5928 5994 5959 5893 5960 5929 5930 5995 5930 5959 5996 5960 5894 5961 5895 5962 5961 5896 5963 5962 5963 5897 5964 5898 5965 5964 5965 5899 5966 5966 5900 5967 5997 5967 5931 5968 5997 5931 5902 5969 5968 5970 5969 5903 5970 5904 5971 5971 5932 5998 5973 5972 5906 5932 5972 5998 5907 5974 5973 5908 5975 5974 5975 5909 5976 5977 5976 5910 5977 5911 5978 5933 5999 5978 5999 5933 5979 5980 5979 5913 5914 5981 5980 5982 5981 5915 5983 5982 5916 5984 5983 5917 5934 6000 5984 5985 6000 5934 5986 5985 5919 5935 6001 5986 5991 5925 5936 5936 5987 6002 5938 6003 5937 5937 6003 5987 5938 5939 6004 5939 5940 6005 6006 5940 5941 5988 6007 5941 5942 5943 6008 5988 5942 6008 5943 5944 6009 5944 5945 6010 6011 5945 5946 5947 6012 5946 6013 5947 5989 5989 5923 5990 5948 5949 6014 5948 6014 5990 5949 5950 6015 5950 5951 6016 6017 5951 5952 5952 5954 6018 5953 6019 5954 5935 5991 6001 5992 5955 6020 6021 5955 5956 5993 6021 5956 5957 6022 5993 5957 5958 6022 5929 5995 5994 6023 5958 5994 6024 5959 5960 5930 5996 5995 5996 5959 6024 6025 5960 5961 5961 5962 6026 5962 5963 6027 6028 5963 5964 5965 6029 5964 5965 5966 6030 6031 5966 5967 5997 6032 5967 5968 6033 5997 5969 6033 5968 6034 5969 5970 5970 5971 6035 6036 5971 5998 5972 5973 6037 5998 5972 6037 5973 5974 6038 5975 6039 5974 5975 5976 6040 6041 5976 5977 6042 5977 5978 5999 6043 5978 5999 5979 6044 5979 5980 6044 5980 5981 6045 5982 6046 5981 6047 5982 5983 5983 5984 6048 5984 6000 6049 5985 6050 6000 5986 6050 5985 5986 6001 6051 5991 5936 6002 6002 5987 6052 5938 6004 6003 5987 6003 6052 6004 5939 6005 5940 6006 6005 6007 6006 5941 6007 5988 6053 5943 6009 6008 5988 6008 6053 5944 6010 6009 6010 5945 6011 6012 6011 5946 6013 6012 5947 6054 6013 5989 6054 5989 5990 6014 5949 6015 5990 6014 6055 5950 6016 6015 6016 5951 6017 6017 5952 6018 5954 6019 6018 6001 5991 6056 6057 5992 6020 6020 5955 6021 6058 6021 5993 6022 6058 5993 6022 5958 6023 5994 5995 6059 6023 5994 6059 6025 6024 5960 5996 6060 5995 5996 6024 6061 6025 5961 6026 5962 6027 6026 6027 5963 6028 6029 6028 5964 5965 6030 6029 6030 5966 6031 6032 6031 5967 6062 6032 5997 6033 6062 5997 6034 6033 5969 6034 5970 6035 6035 5971 6036 6063 6036 5998 6037 5973 6038 6063 5998 6037 5974 6039 6038 5975 6040 6039 6040 5976 6041 6041 5977 6042 6043 6042 5978 6064 6043 5999 6064 5999 6044 5980 6045 6044 5981 6046 6045 6047 6046 5982 6047 5983 6048 6048 5984 6049 6049 6000 6065 6000 6050 6065 5986 6051 6050 6001 6066 6051 6056 5991 6002 6067 6002 6052 6003 6004 6068 6003 6068 6052 6069 6004 6005 6006 6070 6005 6071 6006 6007 6007 6053 6072 6009 6073 6008 6008 6073 6053 6010 6074 6009 6010 6011 6075 6076 6011 6012 6077 6012 6013 6078 6013 6054 6054 5990 6055 6014 6015 6079 6055 6014 6079 6015 6016 6080 6016 6017 6081 6082 6017 6018 6019 6083 6018 6001 6056 6066 6084 6057 6020 6085 6020 6021 6021 6058 6086 6022 6087 6058 6022 6023 6087 5995 6060 6059 6088 6023 6059 6089 6024 6025 5996 6061 6060 6061 6024 6089 6090 6025 6026 6026 6027 6091 6027 6028 6092 6028 6029 6093 6029 6030 6094 6030 6031 6095 6096 6031 6032 6097 6032 6062 6098 6062 6033 6098 6033 6034 6099 6034 6035 6100 6035 6036 6063 6101 6036 6102 6037 6038 6102 6063 6037 6038 6039 6103 6039 6040 6104 6040 6041 6105 6106 6041 6042 6043 6107 6042 6064 6108 6043 6109 6064 6044 6045 6109 6044 6045 6046 6110 6047 6111 6046 6112 6047 6048 6113 6048 6049 6114 6049 6065 6065 6050 6115 6050 6051 6115 6066 6116 6051 6067 6056 6002 6117 6067 6052 6068 6004 6069 6068 6117 6052 6070 6069 6005 6071 6070 6006 6071 6007 6072 6053 6118 6072 6009 6074 6073 6073 6118 6053 6010 6075 6074 6075 6011 6076 6076 6012 6077 6077 6013 6078 6078 6054 6119 6119 6054 6055 6079 6015 6080 6120 6055 6079 6080 6016 6081 6081 6017 6121 6017 6082 6121 6083 6082 6018 6066 6056 6122 6123 6057 6084 6084 6020 6085 6085 6021 6086 6058 6124 6086 6058 6087 6124 6087 6023 6088 6059 6060 6125 6088 6059 6125 6090 6089 6025 6060 6061 6126 6061 6089 6127 6090 6026 6091 6091 6027 6092 6028 6093 6092 6029 6094 6093 6030 6095 6094 6095 6031 6096 6096 6032 6097 6097 6062 6128 6128 6062 6098 6098 6034 6099 6099 6035 6100 6101 6100 6036 6129 6101 6063 6102 6038 6103 6129 6063 6102 6103 6039 6104 6040 6105 6104 6105 6041 6106 6107 6106 6042 6043 6108 6107 6130 6108 6064 6130 6064 6109 6109 6045 6110 6046 6111 6110 6112 6111 6047 6113 6112 6048 6114 6113 6049 6131 6114 6065 6131 6065 6115 6051 6116 6115 6066 6132 6116 6122 6056 6067 6067 6117 6133 6068 6069 6134 6068 6134 6117 6135 6069 6070 6071 6136 6070 6137 6071 6072 6118 6138 6072 6073 6074 6139 6118 6073 6139 6075 6140 6074 6075 6076 6141 6076 6077 6142 6077 6078 6143 6144 6078 6119 6120 6119 6055 6145 6079 6080 6145 6120 6079 6146 6080 6081 6147 6081 6121 6082 6148 6121 6083 6149 6082 6066 6122 6132 6123 6084 6150 6084 6085 6151 6085 6086 6152 6124 6153 6086 6124 6087 6154 6154 6087 6088 6060 6126 6125 6155 6088 6125 6156 6089 6090 6061 6127 6126 6127 6089 6156 6157 6090 6091 6158 6091 6092 6092 6093 6159 6093 6094 6160 6095 6161 6094 6095 6096 6162 6096 6097 6163 6097 6128 6164 6128 6098 6165 6098 6099 6165 6166 6099 6100 6101 6167 6100 6129 6168 6101 6169 6102 6103 6129 6102 6169 6170 6103 6104 6105 6171 6104 6105 6106 6172 6173 6106 6107 6108 6174 6107 6175 6108 6130 6130 6109 6176 6176 6109 6110 6111 6177 6110 6112 6178 6111 6179 6112 6113 6180 6113 6114 6131 6181 6114 6182 6131 6115 6116 6182 6115 6116 6132 6183 6122 6067 6133 6133 6117 6184 6069 6135 6134 6117 6134 6184 6136 6135 6070 6137 6136 6071 6138 6137 6072 6185 6138 6118 6074 6140 6139 6185 6118 6139 6075 6141 6140 6141 6076 6142 6077 6143 6142 6143 6078 6144 6186 6144 6119 6120 6186 6119 6146 6145 6080 6187 6120 6145 6146 6081 6147 6148 6147 6121 6149 6148 6082 6132 6122 6188 6189 6123 6150 6084 6151 6150 6151 6085 6152 6086 6153 6152 6124 6190 6153 6124 6154 6190 6155 6154 6088 6125 6126 6191 6155 6125 6191 6156 6090 6157 6127 6192 6126 6127 6156 6193 6158 6157 6091 6158 6092 6159 6159 6093 6160 6094 6161 6160 6095 6162 6161 6162 6096 6163 6097 6164 6163 6164 6128 6194 6194 6128 6165 6165 6099 6166 6167 6166 6100 6101 6168 6167 6195 6168 6129 6170 6169 6103 6195 6129 6169 6171 6170 6104 6105 6172 6171 6172 6106 6173 6174 6173 6107 6175 6174 6108 6175 6130 6196 6196 6130 6176 6177 6176 6110 6111 6178 6177 6179 6178 6112 6179 6113 6180 6181 6180 6114 6197 6181 6131 6197 6131 6182 6116 6183 6182 6132 6198 6183 6188 6122 6133 6199 6133 6184 6134 6135 6200 6134 6200 6184 6136 6201 6135 6137 6202 6136 6138 6203 6137 6185 6204 6138 6140 6205 6139 6205 6185 6139 6140 6141 6206 6207 6141 6142 6143 6208 6142 6143 6144 6209 6210 6144 6186 6187 6186 6120 6211 6145 6146 6187 6145 6211 6212 6146 6147 6148 6213 6147 6149 6214 6148 6132 6188 6198 6189 6150 6215 6150 6151 6216 6217 6151 6152 6153 6217 6152 6153 6190 6218 6190 6154 6219 6219 6154 6155 6126 6192 6191 6220 6155 6191 6221 6156 6157 6127 6193 6192 6193 6156 6221 6158 6222 6157 6223 6158 6159 6224 6159 6160 6160 6161 6225 6161 6162 6226 6227 6162 6163 6164 6228 6163 6164 6194 6229 6230 6194 6165 6230 6165 6166 6167 6231 6166 6168 6232 6167 6233 6168 6195 6170 6234 6169 6234 6195 6169 6235 6170 6171 6172 6236 6171 6172 6173 6237 6238 6173 6174 6239 6174 6175 6175 6196 6240 6241 6196 6176 6177 6241 6176 6178 6242 6177 6179 6243 6178 6244 6179 6180 6181 6245 6180 6246 6181 6197 6247 6197 6182 6183 6247 6182 6198 6248 6183 6199 6188 6133 6249 6199 6184 6135 6201 6200 6200 6249 6184 6136 6202 6201 6137 6203 6202 6138 6204 6203 6185 6250 6204 6140 6206 6205 6205 6250 6185 6206 6141 6207 6208 6207 6142 6143 6209 6208 6209 6144 6210 6210 6186 6251 6251 6186 6187 6211 6146 6212 6187 6211 6252 6213 6212 6147 6148 6214 6213 6198 6188 6253 6254 6189 6215 6150 6255 6215 6151 6217 6216 6255 6150 6216 6153 6218 6217 6218 6190 6256 6190 6219 6256 6219 6155 6220 6191 6192 6257 6220 6191 6257 6222 6221 6157 6192 6193 6258 6193 6221 6259 6223 6222 6158 6224 6223 6159 6224 6160 6225 6161 6226 6225 6226 6162 6227 6228 6227 6163 6164 6229 6228 6229 6194 6260 6260 6194 6230 6231 6230 6166 6167 6232 6231 6233 6232 6168 6233 6195 6261 6235 6234 6170 6261 6195 6234 6236 6235 6171 6172 6237 6236 6237 6173 6238 6238 6174 6239 6239 6175 6240 6240 6196 6262 6262 6196 6241 6177 6242 6241 6178 6243 6242 6244 6243 6179 6245 6244 6180 6246 6245 6181 6246 6197 6263 6197 6247 6263 6248 6247 6183 6198 6264 6248 6253 6188 6199 6199 6249 6265 6201 6266 6200 6200 6266 6249 6201 6202 6267 6202 6203 6268 6203 6204 6269 6204 6250 6270 6205 6206 6271 6205 6271 6250 6272 6206 6207 6207 6208 6273 6208 6209 6274 6209 6210 6275 6210 6251 6276 6251 6187 6252 6211 6212 6277 6252 6211 6277 6278 6212 6213 6214 6279 6213 6198 6253 6264 6280 6254 6215 6255 6280 6215 6217 6281 6216 6281 6255 6216 6218 6282 6217 6218 6256 6283 6219 6284 6256 6219 6220 6284 6257 6192 6258 6285 6220 6257 6286 6221 6222 6193 6259 6258 6259 6221 6286 6287 6222 6223 6288 6223 6224 6289 6224 6225 6226 6290 6225 6291 6226 6227 6292 6227 6228 6229 6293 6228 6229 6260 6294 6295 6260 6230 6231 6295 6230 6232 6296 6231 6297 6232 6233 6233 6261 6298 6299 6234 6235 6261 6234 6299 6236 6300 6235 6236 6237 6301 6237 6238 6302 6238 6239 6303 6304 6239 6240 6305 6240 6262 6306 6262 6241 6242 6306 6241 6242 6243 6307 6244 6308 6243 6309 6244 6245 6310 6245 6246 6311 6246 6263 6247 6312 6263 6248 6312 6247 6248 6264 6313 6253 6199 6265 6249 6314 6265 6201 6267 6266 6249 6266 6314 6267 6202 6268 6203 6269 6268 6269 6204 6270 6270 6250 6315 6271 6206 6272 6250 6271 6315 6272 6207 6273 6273 6208 6274 6209 6275 6274 6210 6276 6275 6276 6251 6316 6316 6251 6252 6212 6278 6277 6317 6252 6277 6279 6278 6213 6264 6253 6318 6319 6280 6255 6282 6281 6217 6281 6319 6255 6282 6218 6283 6256 6320 6283 6284 6320 6256 6284 6220 6285 6321 6257 6258 6321 6285 6257 6286 6222 6287 6258 6259 6322 6259 6286 6323 6287 6223 6288 6288 6224 6289 6290 6289 6225 6226 6291 6290 6291 6227 6292 6293 6292 6228 6229 6294 6293 6294 6260 6324 6324 6260 6295 6296 6295 6231 6297 6296 6232 6297 6233 6298 6298 6261 6325 6300 6299 6235 6261 6299 6325 6236 6301 6300 6301 6237 6302 6238 6303 6302 6303 6239 6304 6304 6240 6305 6326 6305 6262 6306 6326 6262 6242 6307 6306 6243 6308 6307 6309 6308 6244 6309 6245 6310 6310 6246 6311 6327 6311 6263 6312 6327 6263 6248 6313 6312 6264 6328 6313 6318 6253 6265 6314 6329 6265 6266 6267 6330 6266 6330 6314 6331 6267 6268 6269 6332 6268 6269 6270 6333 6334 6270 6315 6271 6272 6335 6271 6335 6315 6336 6272 6273 6337 6273 6274 6275 6338 6274 6276 6339 6275 6276 6316 6340 6317 6316 6252 6277 6278 6341 6317 6277 6341 6279 6342 6278 6264 6318 6328 6343 6281 6282 6343 6319 6281 6344 6282 6283 6320 6344 6283 6284 6345 6320 6284 6285 6345 6321 6258 6322 6346 6285 6321 6286 6287 6347 6259 6323 6322 6286 6347 6323 6287 6288 6348 6288 6289 6349 6289 6290 6350 6291 6351 6290 6352 6291 6292 6293 6353 6292 6293 6294 6354 6294 6324 6355 6324 6295 6356 6356 6295 6296 6357 6296 6297 6358 6297 6298 6359 6298 6325 6300 6360 6299 6299 6360 6325 6300 6301 6361 6362 6301 6302 6303 6363 6302 6303 6304 6364 6365 6304 6305 6326 6366 6305 6306 6367 6326 6307 6367 6306 6308 6368 6307 6369 6308 6309 6309 6310 6370 6310 6311 6371 6372 6311 6327 6327 6312 6373 6312 6313 6373 6328 6374 6313 6329 6318 6265 6375 6329 6314 6330 6267 6331 6330 6375 6314 6332 6331 6268 6332 6269 6333 6270 6334 6333 6334 6315 6376 6335 6272 6336 6315 6335 6376 6337 6336 6273 6338 6337 6274 6275 6339 6338 6276 6340 6339 6340 6316 6377 6377 6316 6317 6278 6378 6341 6379 6317 6341 6342 6378 6278 6328 6318 6380 6381 6343 6282 6344 6381 6282 6344 6320 6382 6320 6345 6382 6345 6285 6346 6383 6321 6322 6346 6321 6383 6347 6287 6348 6322 6323 6384 6347 6385 6323 6288 6349 6348 6349 6289 6350 6290 6351 6350 6352 6351 6291 6353 6352 6292 6293 6354 6353 6354 6294 6355 6324 6386 6355 6324 6356 6386 6356 6296 6357 6357 6297 6358 6359 6358 6298 6359 6325 6387 6300 6361 6360 6325 6360 6387 6361 6301 6362 6363 6362 6302 6303 6364 6363 6364 6304 6365 6366 6365 6305 6366 6326 6388 6326 6367 6388 6368 6367 6307 6369 6368 6308 6369 6309 6370 6310 6371 6370 6371 6311 6372 6389 6372 6327 6389 6327 6373 6313 6374 6373 6328 6390 6374 6380 6318 6329 6329 6375 6391 6330 6331 6392 6330 6392 6375 6393 6331 6332 6394 6332 6333 6334 6395 6333 6396 6334 6376 6335 6336 6397 6335 6397 6376 6398 6336 6337 6337 6338 6399 6339 6400 6338 6340 6401 6339 6340 6377 6402 6377 6317 6379 6378 6379 6341 6342 6403 6378 6328 6380 6390 6404 6381 6344 6404 6344 6382 6345 6405 6382 6345 6346 6406 6383 6322 6384 6346 6383 6407 6408 6347 6348 6323 6385 6384 6347 6408 6385 6349 6409 6348 6410 6349 6350 6351 6411 6350 6352 6412 6351 6353 6413 6352 6353 6354 6414 6354 6355 6415 6386 6416 6355 6356 6417 6386 6356 6357 6417 6418 6357 6358 6359 6419 6358 6420 6359 6387 6360 6361 6421 6360 6421 6387 6361 6362 6422 6362 6363 6423 6364 6424 6363 6364 6365 6425 6426 6365 6366 6427 6366 6388 6367 6428 6388 6368 6428 6367 6429 6368 6369 6369 6370 6430 6370 6371 6431 6432 6371 6372 6389 6433 6372 6434 6389 6373 6374 6434 6373 6374 6390 6435 6380 6329 6391 6391 6375 6436 6331 6393 6392 6375 6392 6436 6394 6393 6332 6395 6394 6333 6396 6395 6334 6437 6396 6376 6397 6336 6398 6397 6437 6376 6398 6337 6399 6338 6400 6399 6401 6400 6339 6340 6402 6401 6402 6377 6438 6377 6379 6438 6379 6378 6439 6378 6403 6439 6390 6380 6440 6441 6404 6382 6405 6345 6406 6405 6441 6382 6346 6407 6406 6383 6384 6442 6383 6442 6407 6409 6408 6348 6385 6443 6384 6408 6444 6385 6410 6409 6349 6411 6410 6350 6351 6412 6411 6352 6413 6412 6353 6414 6413 6414 6354 6415 6355 6416 6415 6445 6416 6386 6417 6445 6386 6417 6357 6418 6419 6418 6358 6420 6419 6359 6446 6420 6387 6421 6361 6422 6421 6446 6387 6362 6423 6422 6363 6424 6423 6364 6425 6424 6425 6365 6426 6426 6366 6427 6447 6427 6388 6428 6447 6388 6429 6428 6368 6429 6369 6430 6430 6370 6431 6431 6371 6432 6433 6432 6372 6448 6433 6389 6448 6389 6434 6434 6374 6435 6390 6449 6435 6440 6380 6391 6450 6391 6436 6392 6393 6451 6392 6451 6436 6394 6452 6393 6395 6453 6394 6396 6454 6395 6437 6455 6396 6397 6398 6456 6397 6456 6437 6457 6398 6399 6400 6458 6399 6401 6459 6400 6401 6402 6460 6461 6402 6438 6379 6462 6438 6462 6379 6439 6403 6463 6439 6390 6440 6449 6464 6405 6406 6465 6441 6405 6407 6464 6406 6384 6443 6442 6442 6466 6407 6409 6467 6408 6385 6444 6443 6408 6467 6444 6410 6468 6409 6411 6469 6410 6411 6412 6470 6412 6413 6471 6413 6414 6472 6473 6414 6415 6415 6416 6474 6445 6475 6416 6417 6476 6445 6417 6418 6476 6477 6418 6419 6478 6419 6420 6420 6446 6479 6421 6422 6480 6421 6480 6446 6423 6481 6422 6424 6482 6423 6424 6425 6483 6425 6426 6484 6426 6427 6485 6486 6427 6447 6487 6447 6428 6487 6428 6429 6488 6429 6430 6489 6430 6431 6490 6431 6432 6433 6491 6432 6492 6433 6448 6493 6448 6434 6493 6434 6435 6449 6494 6435 6450 6440 6391 6495 6450 6436 6393 6452 6451 6451 6495 6436 6394 6453 6452 6395 6454 6453 6396 6455 6454 6437 6496 6455 6456 6398 6457 6437 6456 6496 6458 6457 6399 6400 6459 6458 6401 6460 6459 6460 6402 6497 6402 6461 6497 6462 6461 6438 6463 6462 6439 6449 6440 6498 6464 6465 6405 6466 6464 6407 6443 6499 6442 6499 6466 6442 6409 6468 6467 6443 6444 6500 6444 6467 6501 6410 6469 6468 6411 6470 6469 6470 6412 6471 6413 6472 6471 6472 6414 6473 6473 6415 6474 6416 6475 6474 6445 6502 6475 6445 6476 6502 6476 6418 6477 6477 6419 6478 6478 6420 6479 6446 6503 6479 6422 6481 6480 6446 6480 6503 6482 6481 6423 6424 6483 6482 6483 6425 6484 6426 6485 6484 6485 6427 6486 6486 6447 6504 6504 6447 6487 6487 6429 6488 6488 6430 6489 6490 6489 6431 6491 6490 6432 6492 6491 6433 6492 6448 6505 6505 6448 6493 6494 6493 6435 6449 6506 6494 6498 6440 6450 6450 6495 6507 6452 6508 6451 6508 6495 6451 6452 6453 6509 6453 6454 6510 6454 6455 6511 6455 6496 6512 6456 6457 6513 6496 6456 6513 6457 6458 6514 6458 6459 6515 6459 6460 6516 6517 6460 6497 6461 6518 6497 6462 6519 6461 6463 6520 6462 6449 6498 6506 6521 6465 6464 6521 6464 6466 6499 6443 6500 6499 6522 6466 6467 6468 6523 6500 6444 6501 6467 6523 6501 6468 6469 6524 6469 6470 6525 6526 6470 6471 6472 6527 6471 6472 6473 6528 6529 6473 6474 6475 6530 6474 6475 6502 6531 6502 6476 6532 6476 6477 6532 6477 6478 6533 6534 6478 6479 6503 6535 6479 6480 6481 6536 6503 6480 6536 6482 6537 6481 6482 6483 6538 6483 6484 6539 6485 6540 6484 6485 6486 6541 6486 6504 6542 6504 6487 6543 6487 6488 6543 6544 6488 6489 6490 6545 6489 6491 6546 6490 6547 6491 6492 6492 6505 6548 6505 6493 6549 6493 6494 6549 6494 6506 6550 6498 6450 6507 6495 6551 6507 6452 6509 6508 6508 6551 6495 6509 6453 6510 6454 6511 6510 6455 6512 6511 6512 6496 6552 6513 6457 6514 6552 6496 6513 6514 6458 6515 6459 6516 6515 6516 6460 6517 6518 6517 6497 6461 6519 6518 6520 6519 6462 6506 6498 6553 6522 6521 6466 6554 6499 6500 6554 6522 6499 6523 6468 6524 6555 6500 6501 6523 6555 6501 6469 6525 6524 6525 6470 6526 6527 6526 6471 6472 6528 6527 6528 6473 6529 6530 6529 6474 6475 6531 6530 6531 6502 6556 6502 6532 6556 6477 6533 6532 6533 6478 6534 6535 6534 6479 6503 6557 6535 6481 6537 6536 6557 6503 6536 6482 6538 6537 6538 6483 6539 6484 6540 6539 6485 6541 6540 6486 6542 6541 6542 6504 6558 6558 6504 6543 6543 6488 6544 6545 6544 6489 6490 6546 6545 6547 6546 6491 6547 6492 6548 6505 6559 6548 6505 6549 6559 6494 6550 6549 6506 6560 6550 6553 6498 6507 6507 6551 6561 6508 6509 6562 6508 6562 6551 6563 6509 6510 6511 6564 6510 6512 6565 6511 6512 6552 6566 6567 6513 6514 6552 6513 6567 6568 6514 6515 6515 6516 6569 6516 6517 6570 6571 6517 6518 6519 6572 6518 6520 6573 6519 6506 6553 6560 6574 6554 6500 6575 6523 6524 6555 6574 6500 6555 6523 6576 6524 6525 6577 6525 6526 6578 6526 6527 6579 6528 6580 6527 6528 6529 6581 6530 6582 6529 6530 6531 6583 6584 6531 6556 6532 6585 6556 6533 6585 6532 6533 6534 6586 6534 6535 6587 6535 6557 6588 6537 6589 6536 6589 6557 6536 6537 6538 6590 6591 6538 6539 6540 6592 6539 6541 6593 6540 6542 6594 6541 6542 6558 6595 6558 6543 6596 6596 6543 6544 6545 6597 6544 6546 6598 6545 6599 6546 6547 6600 6547 6548 6559 6601 6548 6559 6549 6602 6549 6550 6602 6560 6603 6550 6553 6507 6561 6561 6551 6604 6562 6509 6563 6551 6562 6604 6564 6563 6510 6511 6565 6564 6512 6566 6565 6566 6552 6605 6568 6567 6514 6605 6552 6567 6568 6515 6569 6516 6570 6569 6570 6517 6571 6572 6571 6518 6519 6573 6572 6560 6553 6606 6523 6575 6576 6575 6524 6577 6607 6574 6555 6607 6555 6576 6525 6578 6577 6578 6526 6579 6527 6580 6579 6580 6528 6581 6529 6582 6581 6530 6583 6582 6583 6531 6584 6608 6584 6556 6585 6608 6556 6533 6586 6585 6586 6534 6587 6535 6588 6587 6557 6609 6588 6537 6590 6589 6589 6609 6557 6590 6538 6591 6592 6591 6539 6540 6593 6592 6541 6594 6593 6542 6595 6594 6595 6558 6610 6610 6558 6596 6597 6596 6544 6545 6598 6597 6599 6598 6546 6599 6547 6600 6601 6600 6548 6559 6611 6601 6611 6559 6602 6550 6603 6602 6560 6612 6603 6606 6553 6561 6613 6561 6604 6562 6563 6614 6562 6614 6604 6563 6564 6615 6564 6565 6616 6565 6566 6617 6566 6605 6618 6568 6619 6567 6619 6605 6567 6620 6568 6569 6570 6621 6569 6570 6571 6622 6571 6572 6623 6573 6624 6572 6560 6606 6612 6575 6625 6576 6626 6575 6577 6625 6607 6576 6578 6626 6577 6578 6579 6627 6580 6628 6579 6629 6580 6581 6582 6629 6581 6582 6583 6630 6583 6584 6631 6584 6608 6632 6585 6633 6608 6585 6586 6633 6634 6586 6587 6588 6635 6587 6609 6636 6588 6589 6590 6637 6589 6637 6609 6590 6591 6638 6591 6592 6639 6592 6593 6640 6593 6594 6641 6595 6642 6594 6595 6610 6643 6644 6610 6596 6597 6644 6596 6598 6645 6597 6646 6598 6599 6599 6600 6647 6600 6601 6648 6601 6611 6649 6650 6611 6602 6603 6650 6602 6603 6612 6651 6613 6606 6561 6652 6613 6604 6614 6563 6615 6614 6652 6604 6615 6564 6616 6565 6617 6616 6566 6618 6617 6618 6605 6653 6620 6619 6568 6653 6605 6619 6621 6620 6569 6570 6622 6621 6622 6571 6623 6572 6624 6623 6612 6606 6654 6655 6625 6575 6655 6575 6626 6626 6578 6627 6579 6628 6627 6656 6628 6580 6656 6580 6629 6629 6582 6657 6583 6631 6630 6582 6630 6657 6631 6584 6632 6608 6658 6632 6608 6633 6658 6633 6586 6634 6635 6634 6587 6636 6635 6588 6609 6659 6636 6637 6590 6638 6609 6637 6659 6638 6591 6639 6592 6640 6639 6640 6593 6641 6594 6642 6641 6595 6643 6642 6643 6610 6660 6660 6610 6644 6645 6644 6597 6646 6645 6598 6646 6599 6647 6647 6600 6648 6601 6649 6648 6611 6661 6649 6650 6661 6611 6650 6603 6651 6612 6662 6651 6654 6606 6613 6663 6613 6652 6664 6614 6615 6652 6614 6664 6665 6615 6616 6617 6666 6616 6618 6667 6617 6618 6653 6668 6669 6619 6620 6653 6619 6669 6620 6621 6670 6621 6622 6671 6672 6622 6623 6624 6673 6623 6612 6654 6662 6674 6655 6626 6674 6626 6627 6628 6675 6627 6676 6628 6656 6656 6629 6677 6677 6629 6657 6631 6678 6630 6630 6679 6657 6631 6632 6680 6632 6658 6681 6633 6682 6658 6633 6634 6682 6683 6634 6635 6635 6636 6684 6636 6659 6685 6686 6637 6638 6659 6637 6686 6687 6638 6639 6640 6688 6639 6689 6640 6641 6642 6690 6641 6642 6643 6691 6643 6660 6692 6660 6644 6693 6693 6644 6645 6694 6645 6646 6646 6647 6695 6696 6647 6648 6649 6697 6648 6661 6698 6649 6699 6661 6650 6699 6650 6651 6662 6700 6651 6654 6613 6663 6701 6663 6652 6665 6664 6615 6701 6652 6664 6666 6665 6616 6667 6666 6617 6618 6668 6667 6653 6702 6668 6669 6620 6670 6653 6669 6702 6670 6621 6671 6671 6622 6703 6622 6672 6703 6673 6672 6623 6662 6654 6704 6675 6674 6627 6676 6675 6628 6705 6676 6656 6705 6656 6677 6679 6677 6657 6631 6680 6678 6678 6679 6630 6680 6632 6681 6658 6706 6681 6682 6706 6658 6682 6634 6683 6683 6635 6684 6636 6685 6684 6659 6707 6685 6687 6686 6638 6659 6686 6707 6688 6687 6639 6640 6689 6688 6690 6689 6641 6642 6691 6690 6691 6643 6692 6660 6708 6692 6660 6693 6708 6693 6645 6694 6694 6646 6695 6695 6647 6696 6697 6696 6648 6698 6697 6649 6709 6698 6661 6709 6661 6699 6700 6699 6651 6662 6710 6700 6704 6654 6663 6701 6711 6663 6665 6712 6664 6712 6701 6664 6713 6665 6666 6666 6667 6714 6667 6668 6715 6702 6716 6668 6717 6669 6670 6702 6669 6717 6718 6670 6671 6719 6671 6703 6672 6720 6703 6673 6721 6672 6662 6704 6710 6722 6705 6677 6679 6722 6677 6678 6680 6723 6724 6679 6678 6725 6680 6681 6706 6725 6681 6682 6726 6706 6682 6683 6726 6727 6683 6684 6685 6728 6684 6707 6729 6685 6730 6686 6687 6707 6686 6730 6687 6688 6731 6688 6689 6732 6690 6733 6689 6690 6691 6734 6691 6692 6735 6692 6708 6736 6693 6737 6708 6693 6694 6737 6738 6694 6695 6739 6695 6696 6697 6740 6696 6698 6741 6697 6742 6698 6709 6709 6699 6743 6699 6700 6743 6710 6744 6700 6711 6704 6663 6701 6745 6711 6713 6712 6665 6712 6745 6701 6713 6666 6714 6714 6667 6715 6668 6716 6715 6702 6746 6716 6718 6717 6670 6702 6717 6746 6719 6718 6671 6720 6719 6703 6672 6721 6720 6710 6704 6747 6724 6722 6679 6680 6725 6723 6748 6678 6723 6748 6724 6678 6725 6706 6749 6706 6726 6750 6726 6683 6727 6728 6727 6684 6729 6728 6685 6707 6751 6729 6730 6687 6731 6707 6730 6751 6731 6688 6732 6689 6733 6732 6690 6734 6733 6734 6691 6735 6692 6736 6735 6708 6752 6736 6737 6752 6708 6737 6694 6738 6739 6738 6695 6740 6739 6696 6697 6741 6740 6742 6741 6698 6742 6709 6753 6753 6709 6743 6700 6744 6743 6710 6754 6744 6747 6704 6711 6745 6755 6711 6713 6756 6712 6712 6756 6745 6757 6713 6714 6758 6714 6715 6715 6716 6759 6716 6746 6760 6761 6717 6718 6746 6717 6761 6762 6718 6719 6763 6719 6720 6721 6764 6720 6710 6747 6754 6725 6765 6723 6765 6748 6723 6766 6725 6749 6706 6750 6749 6750 6726 6767 6726 6727 6767 6727 6728 6768 6729 6769 6728 6729 6751 6770 6771 6730 6731 6751 6730 6771 6772 6731 6732 6733 6773 6732 6733 6734 6774 6775 6734 6735 6736 6776 6735 6752 6777 6736 6737 6778 6752 6737 6738 6778 6779 6738 6739 6739 6740 6780 6741 6781 6740 6742 6782 6741 6783 6742 6753 6784 6753 6743 6744 6784 6743 6744 6754 6785 6755 6747 6711 6755 6745 6786 6757 6756 6713 6745 6756 6786 6758 6757 6714 6758 6715 6759 6716 6760 6759 6746 6787 6760 6761 6718 6762 6746 6761 6787 6762 6719 6763 6764 6763 6720 6754 6747 6788 6766 6765 6725 6789 6766 6749 6750 6789 6749 6750 6767 6790 6727 6768 6767 6728 6769 6768 6729 6770 6769 6751 6791 6770 6772 6771 6731 6751 6771 6791 6773 6772 6732 6733 6774 6773 6774 6734 6775 6776 6775 6735 6777 6776 6736 6752 6792 6777 6778 6792 6752 6778 6738 6779 6779 6739 6780 6740 6781 6780 6741 6782 6781 6783 6782 6742 6793 6783 6753 6784 6793 6753 6744 6785 6784 6754 6794 6785 6788 6747 6755 6795 6755 6786 6757 6796 6756 6756 6796 6786 6758 6797 6757 6798 6758 6759 6760 6799 6759 6787 6800 6760 6801 6761 6762 6787 6761 6801 6802 6762 6763 6764 6803 6763 6754 6788 6794 6789 6750 6790 6767 6804 6790 6768 6804 6767 6769 6805 6768 6770 6806 6769 6770 6791 6807 6808 6771 6772 6791 6771 6808 6772 6773 6809 6773 6774 6810 6774 6775 6811 6812 6775 6776 6776 6777 6813 6777 6792 6814 6778 6815 6792 6778 6779 6815 6816 6779 6780 6781 6817 6780 6781 6782 6818 6783 6819 6782 6820 6783 6793 6793 6784 6821 6784 6785 6821 6794 6822 6785 6788 6755 6795 6823 6795 6786 6757 6797 6796 6796 6823 6786 6798 6797 6758 6799 6798 6759 6800 6799 6760 6787 6824 6800 6802 6801 6762 6787 6801 6824 6803 6802 6763 6794 6788 6825 6826 6789 6790 6804 6826 6790 6805 6804 6768 6769 6806 6805 6806 6770 6807 6807 6791 6827 6808 6772 6809 6791 6808 6827 6773 6810 6809 6774 6811 6810 6811 6775 6812 6812 6776 6813 6813 6777 6814 6792 6828 6814 6792 6815 6828 6815 6779 6816 6817 6816 6780 6781 6818 6817 6782 6819 6818 6820 6819 6783 6820 6793 6829 6829 6793 6821 6785 6822 6821 6794 6830 6822 6825 6788 6795 6823 6831 6795 6796 6797 6832 6796 6832 6823 6798 6833 6797 6834 6798 6799 6799 6800 6835 6800 6824 6836 6801 6802 6837 6824 6801 6837 6803 6838 6802 6794 6825 6830 6839 6826 6804 6839 6804 6805 6806 6840 6805 6841 6806 6807 6842 6807 6827 6808 6809 6843 6808 6843 6827 6810 6844 6809 6811 6845 6810 6811 6812 6846 6847 6812 6813 6848 6813 6814 6828 6849 6814 6815 6850 6828 6815 6816 6850 6851 6816 6817 6818 6852 6817 6819 6853 6818 6820 6854 6819 6855 6820 6829 6856 6829 6821 6822 6856 6821 6830 6857 6822 6831 6825 6795 6823 6858 6831 6797 6833 6832 6823 6832 6858 6834 6833 6798 6834 6799 6835 6800 6836 6835 6836 6824 6859 6837 6802 6860 6824 6837 6859 6802 6838 6860 6830 6825 6861 6840 6839 6805 6841 6840 6806 6862 6841 6807 6842 6862 6807 6863 6842 6827 6809 6844 6843 6843 6863 6827 6810 6845 6844 6811 6846 6845 6846 6812 6847 6848 6847 6813 6849 6848 6814 6864 6849 6828 6850 6864 6828 6850 6816 6851 6852 6851 6817 6853 6852 6818 6819 6854 6853 6855 6854 6820 6865 6855 6829 6856 6865 6829 6822 6857 6856 6830 6866 6857 6861 6825 6831 6858 6867 6831 6833 6868 6832 6832 6868 6858 6869 6833 6834 6870 6834 6835 6835 6836 6871 6872 6836 6859 6873 6837 6860 6837 6873 6859 6838 6874 6860 6830 6861 6866 6875 6862 6842 6875 6842 6863 6843 6844 6876 6843 6876 6863 6844 6845 6877 6845 6846 6878 6846 6847 6879 6880 6847 6848 6881 6848 6849 6849 6864 6882 6850 6883 6864 6850 6851 6883 6884 6851 6852 6852 6853 6885 6854 6886 6853 6855 6887 6854 6865 6888 6855 6889 6865 6856 6857 6889 6856 6857 6866 6890 6867 6861 6831 6891 6867 6858 6869 6868 6833 6868 6891 6858 6869 6834 6870 6870 6835 6871 6836 6872 6871 6873 6872 6859 6874 6873 6860 6866 6861 6892 6893 6875 6863 6876 6844 6877 6876 6893 6863 6845 6878 6877 6846 6879 6878 6879 6847 6880 6880 6848 6881 6881 6849 6882 6864 6894 6882 6864 6883 6894 6883 6851 6884 6884 6852 6885 6853 6886 6885 6854 6887 6886 6855 6888 6887 6865 6895 6888 6889 6895 6865 6857 6890 6889 6890 6866 6896 6892 6861 6867 6897 6867 6891 6898 6868 6869 6898 6891 6868 6869 6870 6899 6900 6870 6871 6872 6901 6871 6873 6902 6872 6874 6903 6873 6866 6892 6896 6904 6876 6877 6905 6893 6876 6878 6904 6877 6879 6906 6878 6879 6880 6907 6880 6881 6908 6881 6882 6909 6882 6894 6910 6883 6911 6894 6883 6884 6911 6912 6884 6885 6886 6913 6885 6886 6887 6914 6887 6888 6915 6888 6895 6916 6889 6917 6895 6889 6890 6917 6890 6896 6918 6892 6867 6897 6897 6891 6919 6898 6869 6899 6919 6891 6898 6870 6900 6899 6900 6871 6920 6902 6901 6872 6871 6901 6920 6873 6903 6902 6892 6921 6896 6904 6905 6876 6906 6904 6878 6906 6879 6907 6880 6922 6907 6922 6880 6908 6881 6909 6908 6882 6910 6909 6894 6923 6910 6911 6923 6894 6911 6884 6912 6913 6912 6885 6886 6914 6913 6887 6915 6914 6915 6888 6916 6895 6924 6916 6895 6917 6924 6917 6890 6918 6918 6896 6925 6892 6897 6921 6897 6919 6926 6927 6898 6899 6919 6898 6927 6900 6928 6899 6929 6900 6920 6902 6930 6901 6901 6931 6920 6903 6932 6902 6896 6921 6925 6933 6905 6904 6933 6904 6906 6934 6906 6907 6922 6935 6907 6936 6922 6908 6909 6936 6908 6910 6937 6909 6923 6938 6910 6911 6939 6923 6911 6912 6939 6940 6912 6913 6914 6941 6913 6915 6942 6914 6915 6916 6943 6916 6924 6944 6924 6917 6945 6945 6917 6918 6946 6918 6925 6897 6926 6921 6926 6919 6947 6928 6927 6899 6947 6919 6927 6929 6928 6900 6931 6929 6920 6932 6930 6902 6901 6930 6931 6921 6948 6925 6934 6933 6906 6935 6934 6907 6949 6935 6922 6949 6922 6936 6937 6936 6909 6938 6937 6910 6923 6950 6938 6923 6939 6950 6939 6912 6940 6941 6940 6913 6942 6941 6914 6915 6943 6942 6943 6916 6944 6924 6951 6944 6924 6945 6951 6946 6945 6918 6946 6925 6952 6926 6948 6921 6926 6947 6953 6928 6954 6927 6954 6947 6927 6929 6955 6928 6956 6929 6931 6932 6957 6930 6930 6958 6931 6925 6948 6952 6959 6949 6936 6937 6959 6936 6960 6937 6938 6938 6950 6961 6950 6939 6962 6939 6940 6962 6940 6941 6963 6942 6964 6941 6942 6943 6965 6966 6943 6944 6951 6967 6944 6951 6945 6968 6968 6945 6946 6969 6946 6952 6926 6953 6948 6953 6947 6970 6955 6954 6928 6970 6947 6954 6956 6955 6929 6958 6956 6931 6930 6957 6958 6948 6971 6952 6960 6959 6937 6972 6960 6938 6950 6973 6961 6972 6938 6961 6973 6950 6962 6940 6963 6962 6941 6964 6963 6942 6965 6964 6943 6966 6965 6967 6966 6944 6951 6974 6967 6951 6968 6974 6968 6946 6969 6975 6969 6952 6948 6953 6971 6953 6970 6976 6954 6955 6977 6970 6954 6977 6956 6978 6955 6979 6956 6958 6957 6980 6958 6971 6975 6952 6973 6981 6961 6981 6972 6961 6963 6973 6962 6963 6964 6982 6964 6965 6983 6965 6966 6984 6967 6985 6966 6967 6974 6986 6974 6968 6987 6968 6969 6987 6988 6969 6975 6953 6976 6971 6976 6970 6989 6955 6978 6977 6989 6970 6977 6979 6978 6956 6980 6979 6958 6971 6990 6975 6991 6981 6973 6973 6963 6992 6964 6983 6982 6992 6963 6982 6965 6984 6983 6966 6985 6984 6967 6986 6985 6986 6974 6993 6993 6974 6987 6969 6988 6987 6994 6988 6975 6976 6990 6971 6976 6989 6995 6978 6996 6977 6996 6989 6977 6979 6997 6978 6980 6998 6979 6990 6994 6975 6991 6973 6992 6983 6999 6982 6999 6992 6982 6984 7000 6983 6985 7001 6984 6985 6986 7002 6986 6993 7003 7004 6993 6987 6988 7004 6987 6994 7005 6988 6976 6995 6990 6995 6989 7006 6997 6996 6978 7006 6989 6996 6997 6979 7007 6979 6998 7007 6990 7008 6994 7009 6991 6992 7000 6999 6983 6999 7009 6992 7001 7000 6984 7001 6985 7010 7002 6986 7003 6985 7002 7010 7003 6993 7011 6993 7004 7011 6988 7005 7004 6994 7012 7005 6990 6995 7008 6995 7006 7013 7014 6996 6997 7006 6996 7014 7015 6997 7007 6998 7016 7007 6994 7008 7012 7017 6999 7000 7017 7009 6999 7001 7018 7000 7019 7001 7010 7002 7003 7020 7002 7021 7010 7022 7003 7011 7004 7023 7011 7005 7023 7004 7005 7012 7024 7008 6995 7013 7013 7006 7025 7014 6997 7015 7006 7014 7025 7016 7015 7007 7012 7008 7026 7018 7017 7000 7019 7018 7001 7021 7019 7010 7021 7002 7020 7003 7022 7020 7027 7022 7011 7023 7027 7011 7005 7024 7023 7024 7012 7028 7026 7008 7013 7029 7013 7025 7030 7014 7015 7014 7030 7025 7016 7031 7015 7012 7026 7028 7032 7021 7020 7022 7032 7020 7033 7022 7027 7023 7034 7027 7023 7024 7034 7024 7028 7035 7026 7013 7036 7013 7029 7036 7030 7029 7025 7031 7030 7015 7028 7026 7037 7033 7032 7022 7038 7033 7027 7034 7038 7027 7034 7024 7035 7028 7039 7035 7037 7026 7036 7029 7040 7036 7030 7041 7029 7031 7042 7030 7039 7028 7037 7043 7038 7034 7044 7034 7035 7039 7044 7035 7040 7037 7036 7029 7041 7040 7030 7042 7041 7045 7039 7037 7044 7043 7034 7046 7044 7039 7040 7045 7037 7041 7047 7040 7042 7048 7041 7045 7046 7039 7049 7043 7044 7049 7044 7046 7040 7047 7045 7048 7047 7041 7045 7050 7046 7051 7049 7046 7045 7047 7052 7048 7053 7047 7050 7045 7052 7050 7051 7046 7047 7053 7052 7050 7052 7054 7055 7051 7050 7053 7056 7052 7055 7050 7054 7052 7056 7054 7057 7055 7054 7056 7057 7054 </DataArray>
        <DataArray type="Int32" Name="offsets" format="ascii">3 6 9 12 15 18 21 24 27 30 33 36 39 42 45 48 51 54 57 60 63 66 69 72 75 78 81 84 87 90 93 96 99 102 105 108 111 114 117 120 123 126 129 132 135 138 141 144 147 150 153 156 159 162 165 168 171 174 177 180 183 186 189 192 195 198 201 204 207 210 213 216 219 222 225 228 231 234 237 240 243 246 249 252 255 258 261 264 267 270 273 276 279 282 285 288 291 294 297 300 303 306 309 312 315 318 321 324 327 330 333 336 339 342 345 348 351 354 357 360 363 366 369 372 375 378 381 384 387 390 393 396 399 402 405 408 411 414 417 420 423 426 429 432 435 438 441 444 447 450 453 456 459 462 465 468 471 474 477 480 483 486 489 492 495 498 501 504 507 510 513 516 519 522 525 528 531 534 537 540 543 546 549 552 555 558 561 564 567 570 573 576 579 582 585 588 591 594 597 600 603 606 609 612 615 618 621 624 627 630 633 636 639 642 645 648 651 654 657 660 663 666 669 672 675 678 681 684 687 690 693 696 699 702 705 708 711 714 717 720 723 726 729 732 735 738 741 744 747 750 753 756 759 762 765 768 771 774 777 780 783 786 789 792 795 798 801 804 807 810 813 816 819 822 825 828 831 834 837 840 843 846 849 852 855 858 861 864 867 870 873 876 879 882 885 888 891 894 897 900 903 906 909 912 915 918 921 924 927 930 933 936 939 942 945 948 951 954 957 960 963 966 969 972 975 978 981 984 987 990 993 996 999 1002 1005 1008 1011 1014 1017 1020 1023 1026 1029 1032 1035 1038 1041 1044 1047 1050 1053 1056 1059 1062 1065 1068 1071 1074 1077 1080 1083 1086 1089 1092 1095 1098 1101 1104 1107 1110 1113 1116 1119 1122 1125 1128 1131 1134 1137 1140 1143 1146 1149 1152 1155 1158 1161 1164 1167 1170 1173 1176 1179 1182 1185 1188 1191 1194 1197 1200 1203 1206 1209 1212 1215 1218 1221 1224 1227 1230 1233 1236 1239 1242 1245 1248 1251 1254 1257 1260 1263 1266 1269 1272 1275 1278 1281 1284 1287 1290 1293 1296 1299 1302 1305 1308 1311 1314 1317 1320 1323 1326 1329 1332 1335 1338 1341 1344 1347 1350 1353 1356 1359 1362 1365 1368 1371 1374 1377 1380 1383 1386 1389 1392 1395 1398 1401 1404 1407 1410 1413 1416 1419 1422 1425 1428 1431 1434 1437 1440 1443 1446 1449 1452 1455 1458 1461 1464 1467 1470 1473 1476 1479 1482 1485 1488 1491 1494 1497 1500 1503 1506 1509 1512 1515 1518 1521 1524 1527 1530 1533 1536 1539 1542 1545 1548 1551 1554 1557 1560 1563 1566 1569 1572 1575 1578 1581 1584 1587 1590 1593 1596 1599 1602 1605 1608 1611 1614 1617 1620 1623 1626 1629 1632 1635 1638 1641 1644 1647 1650 1653 1656 1659 1662 1665 1668 1671 1674 1677 1680 1683 1686 1689 1692 1695 1698 1701 1704 1707 1710 1713 1716 1719 1722 1725 1728 1731 1734 1737 1740 1743 1746 1749 1752 1755 1758 1761 1764 1767 1770 1773 1776 1779 1782 1785 1788 1791 1794 1797 1800 1803 1806 1809 1812 1815 1818 1821 1824 1827 1830 1833 1836 1839 1842 1845 1848 1851 1854 1857 1860 1863 1866 1869 1872 1875 1878 1881 1884 1887 1890 1893 1896 1899 1902 1905 1908 1911 1914 1917 1920 1923 1926 1929 1932 1935 1938 1941 1944 1947 1950 1953 1956 1959 1962 1965 1968 1971 1974 1977 1980 1983 1986 1989 1992 1995 1998 2001 2004 2007 2010 2013 2016 2019 2022 2025 2028 2031 2034 2037 2040 2043 2046 2049 2052 2055 2058 2061 2064 2067 2070 2073 2076 2079 2082 2085 2088 2091 2094 2097 2100 2103 2106 2109 2112 2115 2118 2121 2124 2127 2130 2133 2136 2139 2142 2145 2148 2151 2154 2157 2160 2163 2166 2169 2172 2175 2178 2181 2184 2187 2190 2193 2196 2199 2202 2205 2208 2211 2214 2217 2220 2223 2226 2229 2232 2235 2238 2241 2244 2247 2250 2253 2256 2259 2262 2265 2268 2271 2274 2277 2280 2283 2286 2289 2292 2295 2298 2301 2304 2307 2310 2313 2316 2319 2322 2325 2328 2331 2334 2337 2340 2343 2346 2349 2352 2355 2358 2361 2364 2367 2370 2373 2376 2379 2382 2385 2388 2391 2394 2397 2400 2403 2406 2409 2412 2415 2418 2421 2424 2427 2430 2433 2436 2439 2442 2445 2448 2451 2454 2457 2460 2463 2466 2469 2472 2475 2478 2481 2484 2487 2490 2493 2496 2499 2502 2505 2508 2511 2514 2517 2520 2523 2526 2529 2532 2535 2538 2541 2544 2547 2550 2553 2556 2559 2562 2565 2568 2571 2574 2577 2580 2583 2586 2589 2592 2595 2598 2601 2604 2607 2610 2613 2616 2619 2622 2625 2628 2631 2634 2637 2640 2643 2646 2649 2652 2655 2658 2661 2664 2667 2670 2673 2676 2679 2682 2685 2688 2691 2694 2697 2700 2703 2706 2709 2712 2715 2718 2721 2724 2727 2730 2733 2736 2739 2742 2745 2748 2751 2754 2757 2760 2763 2766 2769 2772 2775 2778 2781 2784 2787 2790 2793 2796 2799 2802 2805 2808 2811 2814 2817 2820 2823 2826 2829 2832 2835 2838 2841 2844 2847 2850 2853 2856 2859 2862 2865 2868 2871 2874 2877 2880 2883 2886 2889 2892 2895 2898 2901 2904 2907 2910 2913 2916 2919 2922 2925 2928 2931 2934 2937 2940 2943 2946 2949 2952 2955 2958 2961 2964 2967 2970 2973 2976 2979 2982 2985 2988 2991 2994 2997 3000 3003 3006 3009 3012 3015 3018 3021 3024 3027 3030 3033 3036 3039 3042 3045 3048 3051 3054 3057 3060 3063 3066 3069 3072 3075 3078 3081 3084 3087 3090 3093 3096 3099 3102 3105 3108 3111 3114 3117 3120 3123 3126 3129 3132 3135 3138 3141 3144 3147 3150 3153 3156 3159 3162 3165 3168 3171 3174 3177 3180 3183 3186 3189 3192 3195 3198 3201 3204 3207 3210 3213 3216 3219 3222 3225 3228 3231 3234 3237 3240 3243 3246 3249 3252 3255 3258 3261 3264 3267 3270 3273 3276 3279 3282 3285 3288 3291 3294 3297 3300 3303 3306 3309 3312 3315 3318 3321 3324 3327 3330 3333 3336 3339 3342 3345 3348 3351 3354 3357 3360 3363 3366 3369 3372 3375 3378 3381 3384 3387 3390 3393 3396 3399 3402 3405 3408 3411 3414 3417 3420 3423 3426 3429 3432 3435 3438 3441 3444 3447 3450 3453 3456 3459 3462 3465 3468 3471 3474 3477 3480 3483 3486 3489 3492 3495 3498 3501 3504 3507 3510 3513 3516 3519 3522 3525 3528 3531 3534 3537 3540 3543 3546 3549 3552 3555 3558 3561 3564 3567 3570 3573 3576 3579 3582 3585 3588 3591 3594 3597 3600 3603 3606 3609 3612 3615 3618 3621 3624 3627 3630 3633 3636 3639 3642 3645 3648 3651 3654 3657 3660 3663 3666 3669 3672 3675 3678 3681 3684 3687 3690 3693 3696 3699 3702 3705 3708 3711 3714 3717 3720 3723 3726 3729 3732 3735 3738 3741 3744 3747 3750 3753 3756 3759 3762 3765 3768 3771 3774 3777 3780 3783 3786 3789 3792 3795 3798 3801 3804 3807 3810 3813 3816 3819 3822 3825 3828 3831 3834 3837 3840 3843 3846 3849 3852 3855 3858 3861 3864 3867 3870 3873 3876 3879 3882 3885 3888 3891 3894 3897 3900 3903 3906 3909 3912 3915 3918 3921 3924 3927 3930 3933 3936 3939 3942 3945 3948 3951 3954 3957 3960 3963 3966 3969 3972 3975 3978 3981 3984 3987 3990 3993 3996 3999 4002 4005 4008 4011 4014 4017 4020 4023 4026 4029 4032 4035 4038 4041 4044 4047 4050 4053 4056 4059 4062 4065 4068 4071 4074 4077 4080 4083 4086 4089 4092 4095 4098 4101 4104 4107 4110 4113 4116 4119 4122 4125 4128 4131 4134 4137 4140 4143 4146 4149 4152 4155 4158 4161 4164 4167 4170 4173 4176 4179 4182 4185 4188 4191 4194 4197 4200 4203 4206 4209 4212 4215 4218 4221 4224 4227 4230 4233 4236 4239 4242 4245 4248 4251 4254 4257 4260 4263 4266 4269 4272 4275 4278 4281 4284 4287 4290 4293 4296 4299 4302 4305 4308 4311 4314 4317 4320 4323 4326 4329 4332 4335 4338 4341 4344 4347 4350 4353 4356 4359 4362 4365 4368 4371 4374 4377 4380 4383 4386 4389 4392 4395 4398 4401 4404 4407 4410 4413 4416 4419 4422 4425 4428 4431 4434 4437 4440 4443 4446 4449 4452 4455 4458 4461 4464 4467 4470 4473 4476 4479 4482 4485 4488 4491 4494 4497 4500 4503 4506 4509 4512 4515 4518 4521 4524 4527 4530 4533 4536 4539 4542 4545 4548 4551 4554 4557 4560 4563 4566 4569 4572 4575 4578 4581 4584 4587 4590 4593 4596 4599 4602 4605 4608 4611 4614 4617 4620 4623 4626 4629 4632 4635 4638 4641 4644 4647 4650 4653 4656 4659 4662 4665 4668 4671 4674 4677 4680 4683 4686 4689 4692 4695 4698 4701 4704 4707 4710 4713 4716 4719 4722 4725 4728 4731 4734 4737 4740 4743 4746 4749 4752 4755 4758 4761 4764 4767 4770 4773 4776 4779 4782 4785 4788 4791 4794 4797 4800 4803 4806 4809 4812 4815 4818 4821 4824 4827 4830 4833 4836 4839 4842 4845 4848 4851 4854 4857 4860 4863 4866 4869 4872 4875 4878 4881 4884 4887 4890 4893 4896 4899 4902 4905 4908 4911 4914 4917 4920 4923 4926 4929 4932 4935 4938 4941 4944 4947 4950 4953 4956 4959 4962 4965 4968 4971 4974 4977 4980 4983 4986 4989 4992 4995 4998 5001 5004 5007 5010 5013 5016 5019 5022 5025 5028 5031 5034 5037 5040 5043 5046 5049 5052 5055 5058 5061 5064 5067 5070 5073 5076 5079 5082 5085 5088 5091 5094 5097 5100 5103 5106 5109 5112 5115 5118 5121 5124 5127 5130 5133 5136 5139 5142 5145 5148 5151 5154 5157 5160 5163 5166 5169 5172 5175 5178 5181 5184 5187 5190 5193 5196 5199 5202 5205 5208 5211 5214 5217 5220 5223 5226 5229 5232 5235 5238 5241 5244 5247 5250 5253 5256 5259 5262 5265 5268 5271 5274 5277 5280 5283 5286 5289 5292 5295 5298 5301 5304 5307 5310 5313 5316 5319 5322 5325 5328 5331 5334 5337 5340 5343 5346 5349 5352 5355 5358 5361 5364 5367 5370 5373 5376 5379 5382 5385 5388 5391 5394 5397 5400 5403 5406 5409 5412 5415 5418 5421 5424 5427 5430 5433 5436 5439 5442 5445 5448 5451 5454 5457 5460 5463 5466 5469 5472 5475 5478 5481 5484 5487 5490 5493 5496 5499 5502 5505 5508 5511 5514 5517 5520 5523 5526 5529 5532 5535 5538 5541 5544 5547 5550 5553 5556 5559 5562 5565 5568 5571 5574 5577 5580 5583 5586 5589 5592 5595 5598 5601 5604 5607 5610 5613 5616 5619 5622 5625 5628 5631 5634 5637 5640 5643 5646 5649 5652 5655 5658 5661 5664 5667 5670 5673 5676 5679 5682 5685 5688 5691 5694 5697 5700 5703 5706 5709 5712 5715 5718 5721 5724 5727 5730 5733 5736 5739 5742 5745 5748 5751 5754 5757 5760 5763 5766 5769 5772 5775 5778 5781 5784 5787 5790 5793 5796 5799 5802 5805 5808 5811 5814 5817 5820 5823 5826 5829 5832 5835 5838 5841 5844 5847 5850 5853 5856 5859 5862 5865 5868 5871 5874 5877 5880 5883 5886 5889 5892 5895 5898 5901 5904 5907 5910 5913 5916 5919 5922 5925 5928 5931 5934 5937 5940 5943 5946 5949 5952 5955 5958 5961 5964 5967 5970 5973 5976 5979 5982 5985 5988 5991 5994 5997 6000 6003 6006 6009 6012 6015 6018 6021 6024 6027 6030 6033 6036 6039 6042 6045 6048 6051 6054 6057 6060 6063 6066 6069 6072 6075 6078 6081 6084 6087 6090 6093 6096 6099 6102 6105 6108 6111 6114 6117 6120 6123 6126 6129 6132 6135 6138 6141 6144 6147 6150 6153 6156 6159 6162 6165 6168 6171 6174 6177 6180 6183 6186 6189 6192 6195 6198 6201 6204 6207 6210 6213 6216 6219 6222 6225 6228 6231 6234 6237 6240 6243 6246 6249 6252 6255 6258 6261 6264 6267 6270 6273 6276 6279 6282 6285 6288 6291 6294 6297 6300 6303 6306 6309 6312 6315 6318 6321 6324 6327 6330 6333 6336 6339 6342 6345 6348 6351 6354 6357 6360 6363 6366 6369 6372 6375 6378 6381 6384 6387 6390 6393 6396 6399 6402 6405 6408 6411 6414 6417 6420 6423 6426 6429 6432 6435 6438 6441 6444 6447 6450 6453 6456 6459 6462 6465 6468 6471 6474 6477 6480 6483 6486 6489 6492 6495 6498 6501 6504 6507 6510 6513 6516 6519 6522 6525 6528 6531 6534 6537 6540 6543 6546 6549 6552 6555 6558 6561 6564 6567 6570 6573 6576 6579 6582 6585 6588 6591 6594 6597 6600 6603 6606 6609 6612 6615 6618 6621 6624 6627 6630 6633 6636 6639 6642 6645 6648 6651 6654 6657 6660 6663 6666 6669 6672 6675 6678 6681 6684 6687 6690 6693 6696 6699 6702 6705 6708 6711 6714 6717 6720 6723 6726 6729 6732 6735 6738 6741 6744 6747 6750 6753 6756 6759 6762 6765 6768 6771 6774 6777 6780 6783 6786 6789 6792 6795 6798 6801 6804 6807 6810 6813 6816 6819 6822 6825 6828 6831 6834 6837 6840 6843 6846 6849 6852 6855 6858 6861 6864 6867 6870 6873 6876 6879 6882 6885 6888 6891 6894 6897 6900 6903 6906 6909 6912 6915 6918 6921 6924 6927 6930 6933 6936 6939 6942 6945 6948 6951 6954 6957 6960 6963 6966 6969 6972 6975 6978 6981 6984 6987 6990 6993 6996 6999 7002 7005 7008 7011 7014 7017 7020 7023 7026 7029 7032 7035 7038 7041 7044 7047 7050 7053 7056 7059 7062 7065 7068 7071 7074 7077 7080 7083 7086 7089 7092 7095 7098 7101 7104 7107 7110 7113 7116 7119 7122 7125 7128 7131 7134 7137 7140 7143 7146 7149 7152 7155 7158 7161 7164 7167 7170 7173 7176 7179 7182 7185 7188 7191 7194 7197 7200 7203 7206 7209 7212 7215 7218 7221 7224 7227 7230 7233 7236 7239 7242 7245 7248 7251 7254 7257 7260 7263 7266 7269 7272 7275 7278 7281 7284 7287 7290 7293 7296 7299 7302 7305 7308 7311 7314 7317 7320 7323 7326 7329 7332 7335 7338 7341 7344 7347 7350 7353 7356 7359 7362 7365 7368 7371 7374 7377 7380 7383 7386 7389 7392 7395 7398 7401 7404 7407 7410 7413 7416 7419 7422 7425 7428 7431 7434 7437 7440 7443 7446 7449 7452 7455 7458 7461 7464 7467 7470 7473 7476 7479 7482 7485 7488 7491 7494 7497 7500 7503 7506 7509 7512 7515 7518 7521 7524 7527 7530 7533 7536 7539 7542 7545 7548 7551 7554 7557 7560 7563 7566 7569 7572 7575 7578 7581 7584 7587 7590 7593 7596 7599 7602 7605 7608 7611 7614 7617 7620 7623 7626 7629 7632 7635 7638 7641 7644 7647 7650 7653 7656 7659 7662 7665 7668 7671 7674 7677 7680 7683 7686 7689 7692 7695 7698 7701 7704 7707 7710 7713 7716 7719 7722 7725 7728 7731 7734 7737 7740 7743 7746 7749 7752 7755 7758 7761 7764 7767 7770 7773 7776 7779 7782 7785 7788 7791 7794 7797 7800 7803 7806 7809 7812 7815 7818 7821 7824 7827 7830 7833 7836 7839 7842 7845 7848 7851 7854 7857 7860 7863 7866 7869 7872 7875 7878 7881 7884 7887 7890 7893 7896 7899 7902 7905 7908 7911 7914 7917 7920 7923 7926 7929 7932 7935 7938 7941 7944 7947 7950 7953 7956 7959 7962 7965 7968 7971 7974 7977 7980 7983 7986 7989 7992 7995 7998 8001 8004 8007 8010 8013 8016 8019 8022 8025 8028 8031 8034 8037 8040 8043 8046 8049 8052 8055 8058 8061 8064 8067 8070 8073 8076 8079 8082 8085 8088 8091 8094 8097 8100 8103 8106 8109 8112 8115 8118 8121 8124 8127 8130 8133 8136 8139 8142 8145 8148 8151 8154 8157 8160 8163 8166 8169 8172 8175 8178 8181 8184 8187 8190 8193 8196 8199 8202 8205 8208 8211 8214 8217 8220 8223 8226 8229 8232 8235 8238 8241 8244 8247 8250 8253 8256 8259 8262 8265 8268 8271 8274 8277 8280 8283 8286 8289 8292 8295 8298 8301 8304 8307 8310 8313 8316 8319 8322 8325 8328 8331 8334 8337 8340 8343 8346 8349 8352 8355 8358 8361 8364 8367 8370 8373 8376 8379 8382 8385 8388 8391 8394 8397 8400 8403 8406 8409 8412 8415 8418 8421 8424 8427 8430 8433 8436 8439 8442 8445 8448 8451 8454 8457 8460 8463 8466 8469 8472 8475 8478 8481 8484 8487 8490 8493 8496 8499 8502 8505 8508 8511 8514 8517 8520 8523 8526 8529 8532 8535 8538 8541 8544 8547 8550 8553 8556 8559 8562 8565 8568 8571 8574 8577 8580 8583 8586 8589 8592 8595 8598 8601 8604 8607 8610 8613 8616 8619 8622 8625 8628 8631 8634 8637 8640 8643 8646 8649 8652 8655 8658 8661 8664 8667 8670 8673 8676 8679 8682 8685 8688 8691 8694 8697 8700 8703 8706 8709 8712 8715 8718 8721 8724 8727 8730 8733 8736 8739 8742 8745 8748 8751 8754 8757 8760 8763 8766 8769 8772 8775 8778 8781 8784 8787 8790 8793 8796 8799 8802 8805 8808 8811 8814 8817 8820 8823 8826 8829 8832 8835 8838 8841 8844 8847 8850 8853 8856 8859 8862 8865 8868 8871 8874 8877 8880 8883 8886 8889 8892 8895 8898 8901 8904 8907 8910 8913 8916 8919 8922 8925 8928 8931 8934 8937 8940 8943 8946 8949 8952 8955 8958 8961 8964 8967 8970 8973 8976 8979 8982 8985 8988 8991 8994 8997 9000 9003 9006 9009 9012 9015 9018 9021 9024 9027 9030 9033 9036 9039 9042 9045 9048 9051 9054 9057 9060 9063 9066 9069 9072 9075 9078 9081 9084 9087 9090 9093 9096 9099 9102 9105 9108 9111 9114 9117 9120 9123 9126 9129 9132 9135 9138 9141 9144 9147 9150 9153 9156 9159 9162 9165 9168 9171 9174 9177 9180 9183 9186 9189 9192 9195 9198 9201 9204 9207 9210 9213 9216 9219 9222 9225 9228 9231 9234 9237 9240 9243 9246 9249 9252 9255 9258 9261 9264 9267 9270 9273 9276 9279 9282 9285 9288 9291 9294 9297 9300 9303 9306 9309 9312 9315 9318 9321 9324 9327 9330 9333 9336 9339 9342 9345 9348 9351 9354 9357 9360 9363 9366 9369 9372 9375 9378 9381 9384 9387 9390 9393 9396 9399 9402 9405 9408 9411 9414 9417 9420 9423 9426 9429 9432 9435 9438 9441 9444 9447 9450 9453 9456 9459 9462 9465 9468 9471 9474 9477 9480 9483 9486 9489 9492 9495 9498 9501 9504 9507 9510 9513 9516 9519 9522 9525 9528 9531 9534 9537 9540 9543 9546 9549 9552 9555 9558 9561 9564 9567 9570 9573 9576 9579 9582 9585 9588 9591 9594 9597 9600 9603 9606 9609 9612 9615 9618 9621 9624 9627 9630 9633 9636 9639 9642 9645 9648 9651 9654 9657 9660 9663 9666 9669 9672 9675 9678 9681 9684 9687 9690 9693 9696 9699 9702 9705 9708 9711 9714 9717 9720 9723 9726 9729 9732 9735 9738 9741 9744 9747 9750 9753 9756 9759 9762 9765 9768 9771 9774 9777 9780 9783 9786 9789 9792 9795 9798 9801 9804 9807 9810 9813 9816 9819 9822 9825 9828 9831 9834 9837 9840 9843 9846 9849 9852 9855 9858 9861 9864 9867 9870 9873 9876 9879 9882 9885 9888 9891 9894 9897 9900 9903 9906 9909 9912 9915 9918 9921 9924 9927 9930 9933 9936 9939 9942 9945 9948 9951 9954 9957 9960 9963 9966 9969 9972 9975 9978 9981 9984 9987 9990 9993 9996 9999 10002 10005 10008 10011 10014 10017 10020 10023 10026 10029 10032 10035 10038 10041 10044 10047 10050 10053 10056 10059 10062 10065 10068 10071 10074 10077 10080 10083 10086 10089 10092 10095 10098 10101 10104 10107 10110 10113 10116 10119 10122 10125 10128 10131 10134 10137 10140 10143 10146 10149 10152 10155 10158 10161 10164 10167 10170 10173 10176 10179 10182 10185 10188 10191 10194 10197 10200 10203 10206 10209 10212 10215 10218 10221 10224 10227 10230 10233 10236 10239 10242 10245 10248 10251 10254 10257 10260 10263 10266 10269 10272 10275 10278 10281 10284 10287 10290 10293 10296 10299 10302 10305 10308 10311 10314 10317 10320 10323 10326 10329 10332 10335 10338 10341 10344 10347 10350 10353 10356 10359 10362 10365 10368 10371 10374 10377 10380 10383 10386 10389 10392 10395 10398 10401 10404 10407 10410 10413 10416 10419 10422 10425 10428 10431 10434 10437 10440 10443 10446 10449 10452 10455 10458 10461 10464 10467 10470 10473 10476 10479 10482 10485 10488 10491 10494 10497 10500 10503 10506 10509 10512 10515 10518 10521 10524 10527 10530 10533 10536 10539 10542 10545 10548 10551 10554 10557 10560 10563 10566 10569 10572 10575 10578 10581 10584 10587 10590 10593 10596 10599 10602 10605 10608 10611 10614 10617 10620 10623 10626 10629 10632 10635 10638 10641 10644 10647 10650 10653 10656 10659 10662 10665 10668 10671 10674 10677 10680 10683 10686 10689 10692 10695 10698 10701 10704 10707 10710 10713 10716 10719 10722 10725 10728 10731 10734 10737 10740 10743 10746 10749 10752 10755 10758 10761 10764 10767 10770 10773 10776 10779 10782 10785 10788 10791 10794 10797 10800 10803 10806 10809 10812 10815 10818 10821 10824 10827 10830 10833 10836 10839 10842 10845 10848 10851 10854 10857 10860 10863 10866 10869 10872 10875 10878 10881 10884 10887 10890 10893 10896 10899 10902 10905 10908 10911 10914 10917 10920 10923 10926 10929 10932 10935 10938 10941 10944 10947 10950 10953 10956 10959 10962 10965 10968 10971 10974 10977 10980 10983 10986 10989 10992 10995 10998 11001 11004 11007 11010 11013 11016 11019 11022 11025 11028 11031 11034 11037 11040 11043 11046 11049 11052 11055 11058 11061 11064 11067 11070 11073 11076 11079 11082 11085 11088 11091 11094 11097 11100 11103 11106 11109 11112 11115 11118 11121 11124 11127 11130 11133 11136 11139 11142 11145 11148 11151 11154 11157 11160 11163 11166 11169 11172 11175 11178 11181 11184 11187 11190 11193 11196 11199 11202 11205 11208 11211 11214 11217 11220 11223 11226 11229 11232 11235 11238 11241 11244 11247 11250 11253 11256 11259 11262 11265 11268 11271 11274 11277 11280 11283 11286 11289 11292 11295 11298 11301 11304 11307 11310 11313 11316 11319 11322 11325 11328 11331 11334 11337 11340 11343 11346 11349 11352 11355 11358 11361 11364 11367 11370 11373 11376 11379 11382 11385 11388 11391 11394 11397 11400 11403 11406 11409 11412 11415 11418 11421 11424 11427 11430 11433 11436 11439 11442 11445 11448 11451 11454 11457 11460 11463 11466 11469 11472 11475 11478 11481 11484 11487 11490 11493 11496 11499 11502 11505 11508 11511 11514 11517 11520 11523 11526 11529 11532 11535 11538 11541 11544 11547 11550 11553 11556 11559 11562 11565 11568 11571 11574 11577 11580 11583 11586 11589 11592 11595 11598 11601 11604 11607 11610 11613 11616 11619 11622 11625 11628 11631 11634 11637 11640 11643 11646 11649 11652 11655 11658 11661 11664 11667 11670 11673 11676 11679 11682 11685 11688 11691 11694 11697 11700 11703 11706 11709 11712 11715 11718 11721 11724 11727 11730 11733 11736 11739 11742 11745 11748 11751 11754 11757 11760 11763 11766 11769 11772 11775 11778 11781 11784 11787 11790 11793 11796 11799 11802 11805 11808 11811 11814 11817 11820 11823 11826 11829 11832 11835 11838 11841 11844 11847 11850 11853 11856 11859 11862 11865 11868 11871 11874 11877 11880 11883 11886 11889 11892 11895 11898 11901 11904 11907 11910 11913 11916 11919 11922 11925 11928 11931 11934 11937 11940 11943 11946 11949 11952 11955 11958 11961 11964 11967 11970 11973 11976 11979 11982 11985 11988 11991 11994 11997 12000 12003 12006 12009 12012 12015 12018 12021 12024 12027 12030 12033 12036 12039 12042 12045 12048 12051 12054 12057 12060 12063 12066 12069 12072 12075 12078 12081 12084 12087 12090 12093 12096 12099 12102 12105 12108 12111 12114 12117 12120 12123 12126 12129 12132 12135 12138 12141 12144 12147 12150 12153 12156 12159 12162 12165 12168 12171 12174 12177 12180 12183 12186 12189 12192 12195 12198 12201 12204 12207 12210 12213 12216 12219 12222 12225 12228 12231 12234 12237 12240 12243 12246 12249 12252 12255 12258 12261 12264 12267 12270 12273 12276 12279 12282 12285 12288 12291 12294 12297 12300 12303 12306 12309 12312 12315 12318 12321 12324 12327 12330 12333 12336 12339 12342 12345 12348 12351 12354 12357 12360 12363 12366 12369 12372 12375 12378 12381 12384 12387 12390 12393 12396 12399 12402 12405 12408 12411 12414 12417 12420 12423 12426 12429 12432 12435 12438 12441 12444 12447 12450 12453 12456 12459 12462 12465 12468 12471 12474 12477 12480 12483 12486 12489 12492 12495 12498 12501 12504 12507 12510 12513 12516 12519 12522 12525 12528 12531 12534 12537 12540 12543 12546 12549 12552 12555 12558 12561 12564 12567 12570 12573 12576 12579 12582 12585 12588 12591 12594 12597 12600 12603 12606 12609 12612 12615 12618 12621 12624 12627 12630 12633 12636 12639 12642 12645 12648 12651 12654 12657 12660 12663 12666 12669 12672 12675 12678 12681 12684 12687 12690 12693 12696 12699 12702 12705 12708 12711 12714 12717 12720 12723 12726 12729 12732 12735 12738 12741 12744 12747 12750 12753 12756 12759 12762 12765 12768 12771 12774 12777 12780 12783 12786 12789 12792 12795 12798 12801 12804 12807 12810 12813 12816 12819 12822 12825 12828 12831 12834 12837 12840 12843 12846 12849 12852 12855 12858 12861 12864 12867 12870 12873 12876 12879 12882 12885 12888 12891 12894 12897 12900 12903 12906 12909 12912 12915 12918 12921 12924 12927 12930 12933 12936 12939 12942 12945 12948 12951 12954 12957 12960 12963 12966 12969 12972 12975 12978 12981 12984 12987 12990 12993 12996 12999 13002 13005 13008 13011 13014 13017 13020 13023 13026 13029 13032 13035 13038 13041 13044 13047 13050 13053 13056 13059 13062 13065 13068 13071 13074 13077 13080 13083 13086 13089 13092 13095 13098 13101 13104 13107 13110 13113 13116 13119 13122 13125 13128 13131 13134 13137 13140 13143 13146 13149 13152 13155 13158 13161 13164 13167 13170 13173 13176 13179 13182 13185 13188 13191 13194 13197 13200 13203 13206 13209 13212 13215 13218 13221 13224 13227 13230 13233 13236 13239 13242 13245 13248 13251 13254 13257 13260 13263 13266 13269 13272 13275 13278 13281 13284 13287 13290 13293 13296 13299 13302 13305 13308 13311 13314 13317 13320 13323 13326 13329 13332 13335 13338 13341 13344 13347 13350 13353 13356 13359 13362 13365 13368 13371 13374 13377 13380 13383 13386 13389 13392 13395 13398 13401 13404 13407 13410 13413 13416 13419 13422 13425 13428 13431 13434 13437 13440 13443 13446 13449 13452 13455 13458 13461 13464 13467 13470 13473 13476 13479 13482 13485 13488 13491 13494 13497 13500 13503 13506 13509 13512 13515 13518 13521 13524 13527 13530 13533 13536 13539 13542 13545 13548 13551 13554 13557 13560 13563 13566 13569 13572 13575 13578 13581 13584 13587 13590 13593 13596 13599 13602 13605 13608 13611 13614 13617 13620 13623 13626 13629 13632 13635 13638 13641 13644 13647 13650 13653 13656 13659 13662 13665 13668 13671 13674 13677 13680 13683 13686 13689 13692 13695 13698 13701 13704 13707 13710 13713 13716 13719 13722 13725 13728 13731 13734 13737 13740 13743 13746 13749 13752 13755 13758 13761 13764 13767 13770 13773 13776 13779 13782 13785 13788 13791 13794 13797 13800 13803 13806 13809 13812 13815 13818 13821 13824 13827 13830 13833 13836 13839 13842 13845 13848 13851 13854 13857 13860 13863 13866 13869 13872 13875 13878 13881 13884 13887 13890 13893 13896 13899 13902 13905 13908 13911 13914 13917 13920 13923 13926 13929 13932 13935 13938 13941 13944 13947 13950 13953 13956 13959 13962 13965 13968 13971 13974 13977 13980 13983 13986 13989 13992 13995 13998 14001 14004 14007 14010 14013 14016 14019 14022 14025 14028 14031 14034 14037 14040 14043 14046 14049 14052 14055 14058 14061 14064 14067 14070 14073 14076 14079 14082 14085 14088 14091 14094 14097 14100 14103 14106 14109 14112 14115 14118 14121 14124 14127 14130 14133 14136 14139 14142 14145 14148 14151 14154 14157 14160 14163 14166 14169 14172 14175 14178 14181 14184 14187 14190 14193 14196 14199 14202 14205 14208 14211 14214 14217 14220 14223 14226 14229 14232 14235 14238 14241 14244 14247 14250 14253 14256 14259 14262 14265 14268 14271 14274 14277 14280 14283 14286 14289 14292 14295 14298 14301 14304 14307 14310 14313 14316 14319 14322 14325 14328 14331 14334 14337 14340 14343 14346 14349 14352 14355 14358 14361 14364 14367 14370 14373 14376 14379 14382 14385 14388 14391 14394 14397 14400 14403 14406 14409 14412 14415 14418 14421 14424 14427 14430 14433 14436 14439 14442 14445 14448 14451 14454 14457 14460 14463 14466 14469 14472 14475 14478 14481 14484 14487 14490 14493 14496 14499 14502 14505 14508 14511 14514 14517 14520 14523 14526 14529 14532 14535 14538 14541 14544 14547 14550 14553 14556 14559 14562 14565 14568 14571 14574 14577 14580 14583 14586 14589 14592 14595 14598 14601 14604 14607 14610 14613 14616 14619 14622 14625 14628 14631 14634 14637 14640 14643 14646 14649 14652 14655 14658 14661 14664 14667 14670 14673 14676 14679 14682 14685 14688 14691 14694 14697 14700 14703 14706 14709 14712 14715 14718 14721 14724 14727 14730 14733 14736 14739 14742 14745 14748 14751 14754 14757 14760 14763 14766 14769 14772 14775 14778 14781 14784 14787 14790 14793 14796 14799 14802 14805 14808 14811 14814 14817 14820 14823 14826 14829 14832 14835 14838 14841 14844 14847 14850 14853 14856 14859 14862 14865 14868 14871 14874 14877 14880 14883 14886 14889 14892 14895 14898 14901 14904 14907 14910 14913 14916 14919 14922 14925 14928 14931 14934 14937 14940 14943 14946 14949 14952 14955 14958 14961 14964 14967 14970 14973 14976 14979 14982 14985 14988 14991 14994 14997 15000 15003 15006 15009 15012 15015 15018 15021 15024 15027 15030 15033 15036 15039 15042 15045 15048 15051 15054 15057 15060 15063 15066 15069 15072 15075 15078 15081 15084 15087 15090 15093 15096 15099 15102 15105 15108 15111 15114 15117 15120 15123 15126 15129 15132 15135 15138 15141 15144 15147 15150 15153 15156 15159 15162 15165 15168 15171 15174 15177 15180 15183 15186 15189 15192 15195 15198 15201 15204 15207 15210 15213 15216 15219 15222 15225 15228 15231 15234 15237 15240 15243 15246 15249 15252 15255 15258 15261 15264 15267 15270 15273 15276 15279 15282 15285 15288 15291 15294 15297 15300 15303 15306 15309 15312 15315 15318 15321 15324 15327 15330 15333 15336 15339 15342 15345 15348 15351 15354 15357 15360 15363 15366 15369 15372 15375 15378 15381 15384 15387 15390 15393 15396 15399 15402 15405 15408 15411 15414 15417 15420 15423 15426 15429 15432 15435 15438 15441 15444 15447 15450 15453 15456 15459 15462 15465 15468 15471 15474 15477 15480 15483 15486 15489 15492 15495 15498 15501 15504 15507 15510 15513 15516 15519 15522 15525 15528 15531 15534 15537 15540 15543 15546 15549 15552 15555 15558 15561 15564 15567 15570 15573 15576 15579 15582 15585 15588 15591 15594 15597 15600 15603 15606 15609 15612 15615 15618 15621 15624 15627 15630 15633 15636 15639 15642 15645 15648 15651 15654 15657 15660 15663 15666 15669 15672 15675 15678 15681 15684 15687 15690 15693 15696 15699 15702 15705 15708 15711 15714 15717 15720 15723 15726 15729 15732 15735 15738 15741 15744 15747 15750 15753 15756 15759 15762 15765 15768 15771 15774 15777 15780 15783 15786 15789 15792 15795 15798 15801 15804 15807 15810 15813 15816 15819 15822 15825 15828 15831 15834 15837 15840 15843 15846 15849 15852 15855 15858 15861 15864 15867 15870 15873 15876 15879 15882 15885 15888 15891 15894 15897 15900 15903 15906 15909 15912 15915 15918 15921 15924 15927 15930 15933 15936 15939 15942 15945 15948 15951 15954 15957 15960 15963 15966 15969 15972 15975 15978 15981 15984 15987 15990 15993 15996 15999 16002 16005 16008 16011 16014 16017 16020 16023 16026 16029 16032 16035 16038 16041 16044 16047 16050 16053 16056 16059 16062 16065 16068 16071 16074 16077 16080 16083 16086 16089 16092 16095 16098 16101 16104 16107 16110 16113 16116 16119 16122 16125 16128 16131 16134 16137 16140 16143 16146 16149 16152 16155 16158 16161 16164 16167 16170 16173 16176 16179 16182 16185 16188 16191 16194 16197 16200 16203 16206 16209 16212 16215 16218 16221 16224 16227 16230 16233 16236 16239 16242 16245 16248 16251 16254 16257 16260 16263 16266 16269 16272 16275 16278 16281 16284 16287 16290 16293 16296 16299 16302 16305 16308 16311 16314 16317 16320 16323 16326 16329 16332 16335 16338 16341 16344 16347 16350 16353 16356 16359 16362 16365 16368 16371 16374 16377 16380 16383 16386 16389 16392 16395 16398 16401 16404 16407 16410 16413 16416 16419 16422 16425 16428 16431 16434 16437 16440 16443 16446 16449 16452 16455 16458 16461 16464 16467 16470 16473 16476 16479 16482 16485 16488 16491 16494 16497 16500 16503 16506 16509 16512 16515 16518 16521 16524 16527 16530 16533 16536 16539 16542 16545 16548 16551 16554 16557 16560 16563 16566 16569 16572 16575 16578 16581 16584 16587 16590 16593 16596 16599 16602 16605 16608 16611 16614 16617 16620 16623 16626 16629 16632 16635 16638 16641 16644 16647 16650 16653 16656 16659 16662 16665 16668 16671 16674 16677 16680 16683 16686 16689 16692 16695 16698 16701 16704 16707 16710 16713 16716 16719 16722 16725 16728 16731 16734 16737 16740 16743 16746 16749 16752 16755 16758 16761 16764 16767 16770 16773 16776 16779 16782 16785 16788 16791 16794 16797 16800 16803 16806 16809 16812 16815 16818 16821 16824 16827 16830 16833 16836 16839 16842 16845 16848 16851 16854 16857 16860 16863 16866 16869 16872 16875 16878 16881 16884 16887 16890 16893 16896 16899 16902 16905 16908 16911 16914 16917 16920 16923 16926 16929 16932 16935 16938 16941 16944 16947 16950 16953 16956 16959 16962 16965 16968 16971 16974 16977 16980 16983 16986 16989 16992 16995 16998 17001 17004 17007 17010 17013 17016 17019 17022 17025 17028 17031 17034 17037 17040 17043 17046 17049 17052 17055 17058 17061 17064 17067 17070 17073 17076 17079 17082 17085 17088 17091 17094 17097 17100 17103 17106 17109 17112 17115 17118 17121 17124 17127 17130 17133 17136 17139 17142 17145 17148 17151 17154 17157 17160 17163 17166 17169 17172 17175 17178 17181 17184 17187 17190 17193 17196 17199 17202 17205 17208 17211 17214 17217 17220 17223 17226 17229 17232 17235 17238 17241 17244 17247 17250 17253 17256 17259 17262 17265 17268 17271 17274 17277 17280 17283 17286 17289 17292 17295 17298 17301 17304 17307 17310 17313 17316 17319 17322 17325 17328 17331 17334 17337 17340 17343 17346 17349 17352 17355 17358 17361 17364 17367 17370 17373 17376 17379 17382 17385 17388 17391 17394 17397 17400 17403 17406 17409 17412 17415 17418 17421 17424 17427 17430 17433 17436 17439 17442 17445 17448 17451 17454 17457 17460 17463 17466 17469 17472 17475 17478 17481 17484 17487 17490 17493 17496 17499 17502 17505 17508 17511 17514 17517 17520 17523 17526 17529 17532 17535 17538 17541 17544 17547 17550 17553 17556 17559 17562 17565 17568 17571 17574 17577 17580 17583 17586 17589 17592 17595 17598 17601 17604 17607 17610 17613 17616 17619 17622 17625 17628 17631 17634 17637 17640 17643 17646 17649 17652 17655 17658 17661 17664 17667 17670 17673 17676 17679 17682 17685 17688 17691 17694 17697 17700 17703 17706 17709 17712 17715 17718 17721 17724 17727 17730 17733 17736 17739 17742 17745 17748 17751 17754 17757 17760 17763 17766 17769 17772 17775 17778 17781 17784 17787 17790 17793 17796 17799 17802 17805 17808 17811 17814 17817 17820 17823 17826 17829 17832 17835 17838 17841 17844 17847 17850 17853 17856 17859 17862 17865 17868 17871 17874 17877 17880 17883 17886 17889 17892 17895 17898 17901 17904 17907 17910 17913 17916 17919 17922 17925 17928 17931 17934 17937 17940 17943 17946 17949 17952 17955 17958 17961 17964 17967 17970 17973 17976 17979 17982 17985 17988 17991 17994 17997 18000 18003 18006 18009 18012 18015 18018 18021 18024 18027 18030 18033 18036 18039 18042 18045 18048 18051 18054 18057 18060 18063 18066 18069 18072 18075 18078 18081 18084 18087 18090 18093 18096 18099 18102 18105 18108 18111 18114 18117 18120 18123 18126 18129 18132 18135 18138 18141 18144 18147 18150 18153 18156 18159 18162 18165 18168 18171 18174 18177 18180 18183 18186 18189 18192 18195 18198 18201 18204 18207 18210 18213 18216 18219 18222 18225 18228 18231 18234 18237 18240 18243 18246 18249 18252 18255 18258 18261 18264 18267 18270 18273 18276 18279 18282 18285 18288 18291 18294 18297 18300 18303 18306 18309 18312 18315 18318 18321 18324 18327 18330 18333 18336 18339 18342 18345 18348 18351 18354 18357 18360 18363 18366 18369 18372 18375 18378 18381 18384 18387 18390 18393 18396 18399 18402 18405 18408 18411 18414 18417 18420 18423 18426 18429 18432 18435 18438 18441 18444 18447 18450 18453 18456 18459 18462 18465 18468 18471 18474 18477 18480 18483 18486 18489 18492 18495 18498 18501 18504 18507 18510 18513 18516 18519 18522 18525 18528 18531 18534 18537 18540 18543 18546 18549 18552 18555 18558 18561 18564 18567 18570 18573 18576 18579 18582 18585 18588 18591 18594 18597 18600 18603 18606 18609 18612 18615 18618 18621 18624 18627 18630 18633 18636 18639 18642 18645 18648 18651 18654 18657 18660 18663 18666 18669 18672 18675 18678 18681 18684 18687 18690 18693 18696 18699 18702 18705 18708 18711 18714 18717 18720 18723 18726 18729 18732 18735 18738 18741 18744 18747 18750 18753 18756 18759 18762 18765 18768 18771 18774 18777 18780 18783 18786 18789 18792 18795 18798 18801 18804 18807 18810 18813 18816 18819 18822 18825 18828 18831 18834 18837 18840 18843 18846 18849 18852 18855 18858 18861 18864 18867 18870 18873 18876 18879 18882 18885 18888 18891 18894 18897 18900 18903 18906 18909 18912 18915 18918 18921 18924 18927 18930 18933 18936 18939 18942 18945 18948 18951 18954 18957 18960 18963 18966 18969 18972 18975 18978 18981 18984 18987 18990 18993 18996 18999 19002 19005 19008 19011 19014 19017 19020 19023 19026 19029 19032 19035 19038 19041 19044 19047 19050 19053 19056 19059 19062 19065 19068 19071 19074 19077 19080 19083 19086 19089 19092 19095 19098 19101 19104 19107 19110 19113 19116 19119 19122 19125 19128 19131 19134 19137 19140 19143 19146 19149 19152 19155 19158 19161 19164 19167 19170 19173 19176 19179 19182 19185 19188 19191 19194 19197 19200 19203 19206 19209 19212 19215 19218 19221 19224 19227 19230 19233 19236 19239 19242 19245 19248 19251 19254 19257 19260 19263 19266 19269 19272 19275 19278 19281 19284 19287 19290 19293 19296 19299 19302 19305 19308 19311 19314 19317 19320 19323 19326 19329 19332 19335 19338 19341 19344 19347 19350 19353 19356 19359 19362 19365 19368 19371 19374 19377 19380 19383 19386 19389 19392 19395 19398 19401 19404 19407 19410 19413 19416 19419 19422 19425 19428 19431 19434 19437 19440 19443 19446 19449 19452 19455 19458 19461 19464 19467 19470 19473 19476 19479 19482 19485 19488 19491 19494 19497 19500 19503 19506 19509 19512 19515 19518 19521 19524 19527 19530 19533 19536 19539 19542 19545 19548 19551 19554 19557 19560 19563 19566 19569 19572 19575 19578 19581 19584 19587 19590 19593 19596 19599 19602 19605 19608 19611 19614 19617 19620 19623 19626 19629 19632 19635 19638 19641 19644 19647 19650 19653 19656 19659 19662 19665 19668 19671 19674 19677 19680 19683 19686 19689 19692 19695 19698 19701 19704 19707 19710 19713 19716 19719 19722 19725 19728 19731 19734 19737 19740 19743 19746 19749 19752 19755 19758 19761 19764 19767 19770 19773 19776 19779 19782 19785 19788 19791 19794 19797 19800 19803 19806 19809 19812 19815 19818 19821 19824 19827 19830 19833 19836 19839 19842 19845 19848 19851 19854 19857 19860 19863 19866 19869 19872 19875 19878 19881 19884 19887 19890 19893 19896 19899 19902 19905 19908 19911 19914 19917 19920 19923 19926 19929 19932 19935 19938 19941 19944 19947 19950 19953 19956 19959 19962 19965 19968 19971 19974 19977 19980 19983 19986 19989 19992 19995 19998 20001 20004 20007 20010 20013 20016 20019 20022 20025 20028 20031 20034 20037 20040 20043 20046 20049 20052 20055 20058 20061 20064 20067 20070 20073 20076 20079 20082 20085 20088 20091 20094 20097 20100 20103 20106 20109 20112 20115 20118 20121 20124 20127 20130 20133 20136 20139 20142 20145 20148 20151 20154 20157 20160 20163 20166 20169 20172 20175 20178 20181 20184 20187 20190 20193 20196 20199 20202 20205 20208 20211 20214 20217 20220 20223 20226 20229 20232 20235 20238 20241 20244 20247 20250 20253 20256 20259 20262 20265 20268 20271 20274 20277 20280 20283 20286 20289 20292 20295 20298 20301 20304 20307 20310 20313 20316 20319 20322 20325 20328 20331 20334 20337 20340 20343 20346 20349 20352 20355 20358 20361 20364 20367 20370 20373 20376 20379 20382 20385 20388 20391 20394 20397 20400 20403 20406 20409 20412 20415 20418 20421 20424 20427 20430 20433 20436 20439 20442 20445 20448 20451 20454 20457 20460 20463 20466 20469 20472 20475 20478 20481 20484 20487 20490 20493 20496 20499 20502 20505 20508 20511 20514 20517 20520 20523 20526 20529 20532 20535 20538 20541 20544 20547 20550 20553 20556 20559 20562 20565 20568 20571 20574 20577 20580 20583 20586 20589 20592 20595 20598 20601 20604 20607 20610 20613 20616 20619 20622 20625 20628 20631 20634 20637 20640 20643 20646 20649 20652 20655 20658 20661 20664 20667 20670 20673 20676 20679 20682 20685 20688 20691 20694 20697 20700 20703 20706 20709 20712 20715 20718 20721 20724 20727 20730 20733 20736 20739 20742 20745 20748 20751 20754 20757 20760 20763 20766 20769 20772 20775 20778 20781 20784 20787 20790 20793 20796 20799 20802 20805 20808 20811 20814 20817 20820 20823 20826 20829 20832 20835 20838 20841 20844 20847 20850 20853 20856 20859 20862 20865 20868 20871 20874 20877 20880 20883 20886 20889 20892 20895 20898 20901 20904 20907 20910 20913 20916 20919 20922 20925 20928 20931 20934 20937 20940 20943 20946 20949 20952 20955 20958 20961 20964 20967 20970 20973 20976 20979 20982 20985 20988 20991 20994 20997 21000 21003 21006 21009 21012 21015 21018 21021 21024 21027 21030 21033 21036 21039 21042 21045 21048 21051 21054 21057 21060 21063 21066 21069 21072 21075 21078 21081 21084 21087 21090 21093 21096 21099 21102 21105 21108 21111 21114 21117 21120 21123 21126 21129 21132 21135 21138 21141 21144 21147 21150 21153 21156 21159 21162 21165 21168 21171 21174 21177 21180 21183 21186 21189 21192 21195 21198 21201 21204 21207 21210 21213 21216 21219 21222 21225 21228 21231 21234 21237 21240 21243 21246 21249 21252 21255 21258 21261 21264 21267 21270 21273 21276 21279 21282 21285 21288 21291 21294 21297 21300 21303 21306 21309 21312 21315 21318 21321 21324 21327 21330 21333 21336 21339 21342 21345 21348 21351 21354 21357 21360 21363 21366 21369 21372 21375 21378 21381 21384 21387 21390 21393 21396 21399 21402 21405 21408 21411 21414 21417 21420 21423 21426 21429 21432 21435 21438 21441 21444 21447 21450 21453 21456 21459 21462 21465 21468 21471 21474 21477 21480 21483 21486 21489 21492 21495 21498 21501 21504 21507 21510 21513 21516 21519 21522 21525 21528 21531 21534 21537 21540 21543 21546 21549 21552 21555 21558 21561 21564 21567 21570 21573 21576 21579 21582 21585 21588 21591 21594 21597 21600 21603 21606 21609 21612 21615 21618 21621 21624 21627 21630 21633 21636 21639 21642 21645 21648 21651 21654 21657 21660 21663 21666 21669 21672 21675 21678 21681 21684 21687 21690 21693 21696 21699 21702 21705 21708 21711 21714 21717 21720 21723 21726 21729 21732 21735 21738 21741 21744 21747 21750 21753 21756 21759 21762 21765 21768 21771 21774 21777 21780 21783 21786 21789 21792 21795 21798 21801 21804 21807 21810 21813 21816 21819 21822 21825 21828 21831 21834 21837 21840 21843 21846 21849 21852 21855 21858 21861 21864 21867 21870 21873 21876 21879 21882 21885 21888 21891 21894 21897 21900 21903 21906 21909 21912 21915 21918 21921 21924 21927 21930 21933 21936 21939 21942 21945 21948 21951 21954 21957 21960 21963 21966 21969 21972 21975 21978 21981 21984 21987 21990 21993 21996 21999 22002 22005 22008 22011 22014 22017 22020 22023 22026 22029 22032 22035 22038 22041 22044 22047 22050 22053 22056 22059 22062 22065 22068 22071 22074 22077 22080 22083 22086 22089 22092 22095 22098 22101 22104 22107 22110 22113 22116 22119 22122 22125 22128 22131 22134 22137 22140 22143 22146 22149 22152 22155 22158 22161 22164 22167 22170 22173 22176 22179 22182 22185 22188 22191 22194 22197 22200 22203 22206 22209 22212 22215 22218 22221 22224 22227 22230 22233 22236 22239 22242 22245 22248 22251 22254 22257 22260 22263 22266 22269 22272 22275 22278 22281 22284 22287 22290 22293 22296 22299 22302 22305 22308 22311 22314 22317 22320 22323 22326 22329 22332 22335 22338 22341 22344 22347 22350 22353 22356 22359 22362 22365 22368 22371 22374 22377 22380 22383 22386 22389 22392 22395 22398 22401 22404 22407 22410 22413 22416 22419 22422 22425 22428 22431 22434 22437 22440 22443 22446 22449 22452 22455 22458 22461 22464 22467 22470 22473 22476 22479 22482 22485 22488 22491 22494 22497 22500 22503 22506 22509 22512 22515 22518 22521 22524 22527 22530 22533 22536 22539 22542 22545 22548 22551 22554 22557 22560 22563 22566 22569 22572 22575 22578 22581 22584 22587 22590 22593 22596 22599 22602 22605 22608 22611 22614 22617 22620 22623 22626 22629 22632 22635 22638 22641 22644 22647 22650 22653 22656 22659 22662 22665 22668 22671 22674 22677 22680 22683 22686 22689 22692 22695 22698 22701 22704 22707 22710 22713 22716 22719 22722 22725 22728 22731 22734 22737 22740 22743 22746 22749 22752 22755 22758 22761 22764 22767 22770 22773 22776 22779 22782 22785 22788 22791 22794 22797 22800 22803 22806 22809 22812 22815 22818 22821 22824 22827 22830 22833 22836 22839 22842 22845 22848 22851 22854 22857 22860 22863 22866 22869 22872 22875 22878 22881 22884 22887 22890 22893 22896 22899 22902 22905 22908 22911 22914 22917 22920 22923 22926 22929 22932 22935 22938 22941 22944 22947 22950 22953 22956 22959 22962 22965 22968 22971 22974 22977 22980 22983 22986 22989 22992 22995 22998 23001 23004 23007 23010 23013 23016 23019 23022 23025 23028 23031 23034 23037 23040 23043 23046 23049 23052 23055 23058 23061 23064 23067 23070 23073 23076 23079 23082 23085 23088 23091 23094 23097 23100 23103 23106 23109 23112 23115 23118 23121 23124 23127 23130 23133 23136 23139 23142 23145 23148 23151 23154 23157 23160 23163 23166 23169 23172 23175 23178 23181 23184 23187 23190 23193 23196 23199 23202 23205 23208 23211 23214 23217 23220 23223 23226 23229 23232 23235 23238 23241 23244 23247 23250 23253 23256 23259 23262 23265 23268 23271 23274 23277 23280 23283 23286 23289 23292 23295 23298 23301 23304 23307 23310 23313 23316 23319 23322 23325 23328 23331 23334 23337 23340 23343 23346 23349 23352 23355 23358 23361 23364 23367 23370 23373 23376 23379 23382 23385 23388 23391 23394 23397 23400 23403 23406 23409 23412 23415 23418 23421 23424 23427 23430 23433 23436 23439 23442 23445 23448 23451 23454 23457 23460 23463 23466 23469 23472 23475 23478 23481 23484 23487 23490 23493 23496 23499 23502 23505 23508 23511 23514 23517 23520 23523 23526 23529 23532 23535 23538 23541 23544 23547 23550 23553 23556 23559 23562 23565 23568 23571 23574 23577 23580 23583 23586 23589 23592 23595 23598 23601 23604 23607 23610 23613 23616 23619 23622 23625 23628 23631 23634 23637 23640 23643 23646 23649 23652 23655 23658 23661 23664 23667 23670 23673 23676 23679 23682 23685 23688 23691 23694 23697 23700 23703 23706 23709 23712 23715 23718 23721 23724 23727 23730 23733 23736 23739 23742 23745 23748 23751 23754 23757 23760 23763 23766 23769 23772 23775 23778 23781 23784 23787 23790 23793 23796 23799 23802 23805 23808 23811 23814 23817 23820 23823 23826 23829 23832 23835 23838 23841 23844 23847 23850 23853 23856 23859 23862 23865 23868 23871 23874 23877 23880 23883 23886 23889 23892 23895 23898 23901 23904 23907 23910 23913 23916 23919 23922 23925 23928 23931 23934 23937 23940 23943 23946 23949 23952 23955 23958 23961 23964 23967 23970 23973 23976 23979 23982 23985 23988 23991 23994 23997 24000 24003 24006 24009 24012 24015 24018 24021 24024 24027 24030 24033 24036 24039 24042 24045 24048 24051 24054 24057 24060 24063 24066 24069 24072 24075 24078 24081 24084 24087 24090 24093 24096 24099 24102 24105 24108 24111 24114 24117 24120 24123 24126 24129 24132 24135 24138 24141 24144 24147 24150 24153 24156 24159 24162 24165 24168 24171 24174 24177 24180 24183 24186 24189 24192 24195 24198 24201 24204 24207 24210 24213 24216 24219 24222 24225 24228 24231 24234 24237 24240 24243 24246 24249 24252 24255 24258 24261 24264 24267 24270 24273 24276 24279 24282 24285 24288 24291 24294 24297 24300 24303 24306 24309 24312 24315 24318 24321 24324 24327 24330 24333 24336 24339 24342 24345 24348 24351 24354 24357 24360 24363 24366 24369 24372 24375 24378 24381 24384 24387 24390 24393 24396 24399 24402 24405 24408 24411 24414 24417 24420 24423 24426 24429 24432 24435 24438 24441 24444 24447 24450 24453 24456 24459 24462 24465 24468 24471 24474 24477 24480 24483 24486 24489 24492 24495 24498 24501 24504 24507 24510 24513 24516 24519 24522 24525 24528 24531 24534 24537 24540 24543 24546 24549 24552 24555 24558 24561 24564 24567 24570 24573 24576 24579 24582 24585 24588 24591 24594 24597 24600 24603 24606 24609 24612 24615 24618 24621 24624 24627 24630 24633 24636 24639 24642 24645 24648 24651 24654 24657 24660 24663 24666 24669 24672 24675 24678 24681 24684 24687 24690 24693 24696 24699 24702 24705 24708 24711 24714 24717 24720 24723 24726 24729 24732 24735 24738 24741 24744 24747 24750 24753 24756 24759 24762 24765 24768 24771 24774 24777 24780 24783 24786 24789 24792 24795 24798 24801 24804 24807 24810 24813 24816 24819 24822 24825 24828 24831 24834 24837 24840 24843 24846 24849 24852 24855 24858 24861 24864 24867 24870 24873 24876 24879 24882 24885 24888 24891 24894 24897 24900 24903 24906 24909 24912 24915 24918 24921 24924 24927 24930 24933 24936 24939 24942 24945 24948 24951 24954 24957 24960 24963 24966 24969 24972 24975 24978 24981 24984 24987 24990 24993 24996 24999 25002 25005 25008 25011 25014 25017 25020 25023 25026 25029 25032 25035 25038 25041 25044 25047 25050 25053 25056 25059 25062 25065 25068 25071 25074 25077 25080 25083 25086 25089 25092 25095 25098 25101 25104 25107 25110 25113 25116 25119 25122 25125 25128 25131 25134 25137 25140 25143 25146 25149 25152 25155 25158 25161 25164 25167 25170 25173 25176 25179 25182 25185 25188 25191 25194 25197 25200 25203 25206 25209 25212 25215 25218 25221 25224 25227 25230 25233 25236 25239 25242 25245 25248 25251 25254 25257 25260 25263 25266 25269 25272 25275 25278 25281 25284 25287 25290 25293 25296 25299 25302 25305 25308 25311 25314 25317 25320 25323 25326 25329 25332 25335 25338 25341 25344 25347 25350 25353 25356 25359 25362 25365 25368 25371 25374 25377 25380 25383 25386 25389 25392 25395 25398 25401 25404 25407 25410 25413 25416 25419 25422 25425 25428 25431 25434 25437 25440 25443 25446 25449 25452 25455 25458 25461 25464 25467 25470 25473 25476 25479 25482 25485 25488 25491 25494 25497 25500 25503 25506 25509 25512 25515 25518 25521 25524 25527 25530 25533 25536 25539 25542 25545 25548 25551 25554 25557 25560 25563 25566 25569 25572 25575 25578 25581 25584 25587 25590 25593 25596 25599 25602 25605 25608 25611 25614 25617 25620 25623 25626 25629 25632 25635 25638 25641 25644 25647 25650 25653 25656 25659 25662 25665 25668 25671 25674 25677 25680 25683 25686 25689 25692 25695 25698 25701 25704 25707 25710 25713 25716 25719 25722 25725 25728 25731 25734 25737 25740 25743 25746 25749 25752 25755 25758 25761 25764 25767 25770 25773 25776 25779 25782 25785 25788 25791 25794 25797 25800 25803 25806 25809 25812 25815 25818 25821 25824 25827 25830 25833 25836 25839 25842 25845 25848 25851 25854 25857 25860 25863 25866 25869 25872 25875 25878 25881 25884 25887 25890 25893 25896 25899 25902 25905 25908 25911 25914 25917 25920 25923 25926 25929 25932 25935 25938 25941 25944 25947 25950 25953 25956 25959 25962 25965 25968 25971 25974 25977 25980 25983 25986 25989 25992 25995 25998 26001 26004 26007 26010 26013 26016 26019 26022 26025 26028 26031 26034 26037 26040 26043 26046 26049 26052 26055 26058 26061 26064 26067 26070 26073 26076 26079 26082 26085 26088 26091 26094 26097 26100 26103 26106 26109 26112 26115 26118 26121 26124 26127 26130 26133 26136 26139 26142 26145 26148 26151 26154 26157 26160 26163 26166 26169 26172 26175 26178 26181 26184 26187 26190 26193 26196 26199 26202 26205 26208 26211 26214 26217 26220 26223 26226 26229 26232 26235 26238 26241 26244 26247 26250 26253 26256 26259 26262 26265 26268 26271 26274 26277 26280 26283 26286 26289 26292 26295 26298 26301 26304 26307 26310 26313 26316 26319 26322 26325 26328 26331 26334 26337 26340 26343 26346 26349 26352 26355 26358 26361 26364 26367 26370 26373 26376 26379 26382 26385 26388 26391 26394 26397 26400 26403 26406 26409 26412 26415 26418 26421 26424 26427 26430 26433 26436 26439 26442 26445 26448 26451 26454 26457 26460 26463 26466 26469 26472 26475 26478 26481 26484 26487 26490 26493 26496 26499 26502 26505 26508 26511 26514 26517 26520 26523 26526 26529 26532 26535 26538 26541 26544 26547 26550 26553 26556 26559 26562 26565 26568 26571 26574 26577 26580 26583 26586 26589 26592 26595 26598 26601 26604 26607 26610 26613 26616 26619 26622 26625 26628 26631 26634 26637 26640 26643 26646 26649 26652 26655 26658 26661 26664 26667 26670 26673 26676 26679 26682 26685 26688 26691 26694 26697 26700 26703 26706 26709 26712 26715 26718 26721 26724 26727 26730 26733 26736 26739 26742 26745 26748 26751 26754 26757 26760 26763 26766 26769 26772 26775 26778 26781 26784 26787 26790 26793 26796 26799 26802 26805 26808 26811 26814 26817 26820 26823 26826 26829 26832 26835 26838 26841 26844 26847 26850 26853 26856 26859 26862 26865 26868 26871 26874 26877 26880 26883 26886 26889 26892 26895 26898 26901 26904 26907 26910 26913 26916 26919 26922 26925 26928 26931 26934 26937 26940 26943 26946 26949 26952 26955 26958 26961 26964 26967 26970 26973 26976 26979 26982 26985 26988 26991 26994 26997 27000 27003 27006 27009 27012 27015 27018 27021 27024 27027 27030 27033 27036 27039 27042 27045 27048 27051 27054 27057 27060 27063 27066 27069 27072 27075 27078 27081 27084 27087 27090 27093 27096 27099 27102 27105 27108 27111 27114 27117 27120 27123 27126 27129 27132 27135 27138 27141 27144 27147 27150 27153 27156 27159 27162 27165 27168 27171 27174 27177 27180 27183 27186 27189 27192 27195 27198 27201 27204 27207 27210 27213 27216 27219 27222 27225 27228 27231 27234 27237 27240 27243 27246 27249 27252 27255 27258 27261 27264 27267 27270 27273 27276 27279 27282 27285 27288 27291 27294 27297 27300 27303 27306 27309 27312 27315 27318 27321 27324 27327 27330 27333 27336 27339 27342 27345 27348 27351 27354 27357 27360 27363 27366 27369 27372 27375 27378 27381 27384 27387 27390 27393 27396 27399 27402 27405 27408 27411 27414 27417 27420 27423 27426 27429 27432 27435 27438 27441 27444 27447 27450 27453 27456 27459 27462 27465 27468 27471 27474 27477 27480 27483 27486 27489 27492 27495 27498 27501 27504 27507 27510 27513 27516 27519 27522 27525 27528 27531 27534 27537 27540 27543 27546 27549 27552 27555 27558 27561 27564 27567 27570 27573 27576 27579 27582 27585 27588 27591 27594 27597 27600 27603 27606 27609 27612 27615 27618 27621 27624 27627 27630 27633 27636 27639 27642 27645 27648 27651 27654 27657 27660 27663 27666 27669 27672 27675 27678 27681 27684 27687 27690 27693 27696 27699 27702 27705 27708 27711 27714 27717 27720 27723 27726 27729 27732 27735 27738 27741 27744 27747 27750 27753 27756 27759 27762 27765 27768 27771 27774 27777 27780 27783 27786 27789 27792 27795 27798 27801 27804 27807 27810 27813 27816 27819 27822 27825 27828 27831 27834 27837 27840 27843 27846 27849 27852 27855 27858 27861 27864 27867 27870 27873 27876 27879 27882 27885 27888 27891 27894 27897 27900 27903 27906 27909 27912 27915 27918 27921 27924 27927 27930 27933 27936 27939 27942 27945 27948 27951 27954 27957 27960 27963 27966 27969 27972 27975 27978 27981 27984 27987 27990 27993 27996 27999 28002 28005 28008 28011 28014 28017 28020 28023 28026 28029 28032 28035 28038 28041 28044 28047 28050 28053 28056 28059 28062 28065 28068 28071 28074 28077 28080 28083 28086 28089 28092 28095 28098 28101 28104 28107 28110 28113 28116 28119 28122 28125 28128 28131 28134 28137 28140 28143 28146 28149 28152 28155 28158 28161 28164 28167 28170 28173 28176 28179 28182 28185 28188 28191 28194 28197 28200 28203 28206 28209 28212 28215 28218 28221 28224 28227 28230 28233 28236 28239 28242 28245 28248 28251 28254 28257 28260 28263 28266 28269 28272 28275 28278 28281 28284 28287 28290 28293 28296 28299 28302 28305 28308 28311 28314 28317 28320 28323 28326 28329 28332 28335 28338 28341 28344 28347 28350 28353 28356 28359 28362 28365 28368 28371 28374 28377 28380 28383 28386 28389 28392 28395 28398 28401 28404 28407 28410 28413 28416 28419 28422 28425 28428 28431 28434 28437 28440 28443 28446 28449 28452 28455 28458 28461 28464 28467 28470 28473 28476 28479 28482 28485 28488 28491 28494 28497 28500 28503 28506 28509 28512 28515 28518 28521 28524 28527 28530 28533 28536 28539 28542 28545 28548 28551 28554 28557 28560 28563 28566 28569 28572 28575 28578 28581 28584 28587 28590 28593 28596 28599 28602 28605 28608 28611 28614 28617 28620 28623 28626 28629 28632 28635 28638 28641 28644 28647 28650 28653 28656 28659 28662 28665 28668 28671 28674 28677 28680 28683 28686 28689 28692 28695 28698 28701 28704 28707 28710 28713 28716 28719 28722 28725 28728 28731 28734 28737 28740 28743 28746 28749 28752 28755 28758 28761 28764 28767 28770 28773 28776 28779 28782 28785 28788 28791 28794 28797 28800 28803 28806 28809 28812 28815 28818 28821 28824 28827 28830 28833 28836 28839 28842 28845 28848 28851 28854 28857 28860 28863 28866 28869 28872 28875 28878 28881 28884 28887 28890 28893 28896 28899 28902 28905 28908 28911 28914 28917 28920 28923 28926 28929 28932 28935 28938 28941 28944 28947 28950 28953 28956 28959 28962 28965 28968 28971 28974 28977 28980 28983 28986 28989 28992 28995 28998 29001 29004 29007 29010 29013 29016 29019 29022 29025 29028 29031 29034 29037 29040 29043 29046 29049 29052 29055 29058 29061 29064 29067 29070 29073 29076 29079 29082 29085 29088 29091 29094 29097 29100 29103 29106 29109 29112 29115 29118 29121 29124 29127 29130 29133 29136 29139 29142 29145 29148 29151 29154 29157 29160 29163 29166 29169 29172 29175 29178 29181 29184 29187 29190 29193 29196 29199 29202 29205 29208 29211 29214 29217 29220 29223 29226 29229 29232 29235 29238 29241 29244 29247 29250 29253 29256 29259 29262 29265 29268 29271 29274 29277 29280 29283 29286 29289 29292 29295 29298 29301 29304 29307 29310 29313 29316 29319 29322 29325 29328 29331 29334 29337 29340 29343 29346 29349 29352 29355 29358 29361 29364 29367 29370 29373 29376 29379 29382 29385 29388 29391 29394 29397 29400 29403 29406 29409 29412 29415 29418 29421 29424 29427 29430 29433 29436 29439 29442 29445 29448 29451 29454 29457 29460 29463 29466 29469 29472 29475 29478 29481 29484 29487 29490 29493 29496 29499 29502 29505 29508 29511 29514 29517 29520 29523 29526 29529 29532 29535 29538 29541 29544 29547 29550 29553 29556 29559 29562 29565 29568 29571 29574 29577 29580 29583 29586 29589 29592 29595 29598 29601 29604 29607 29610 29613 29616 29619 29622 29625 29628 29631 29634 29637 29640 29643 29646 29649 29652 29655 29658 29661 29664 29667 29670 29673 29676 29679 29682 29685 29688 29691 29694 29697 29700 29703 29706 29709 29712 29715 29718 29721 29724 29727 29730 29733 29736 29739 29742 29745 29748 29751 29754 29757 29760 29763 29766 29769 29772 29775 29778 29781 29784 29787 29790 29793 29796 29799 29802 29805 29808 29811 29814 29817 29820 29823 29826 29829 29832 29835 29838 29841 29844 29847 29850 29853 29856 29859 29862 29865 29868 29871 29874 29877 29880 29883 29886 29889 29892 29895 29898 29901 29904 29907 29910 29913 29916 29919 29922 29925 29928 29931 29934 29937 29940 29943 29946 29949 29952 29955 29958 29961 29964 29967 29970 29973 29976 29979 29982 29985 29988 29991 29994 29997 30000 30003 30006 30009 30012 30015 30018 30021 30024 30027 30030 30033 30036 30039 30042 30045 30048 30051 30054 30057 30060 30063 30066 30069 30072 30075 30078 30081 30084 30087 30090 30093 30096 30099 30102 30105 30108 30111 30114 30117 30120 30123 30126 30129 30132 30135 30138 30141 30144 30147 30150 30153 30156 30159 30162 30165 30168 30171 30174 30177 30180 30183 30186 30189 30192 30195 30198 30201 30204 30207 30210 30213 30216 30219 30222 30225 30228 30231 30234 30237 30240 30243 30246 30249 30252 30255 30258 30261 30264 30267 30270 30273 30276 30279 30282 30285 30288 30291 30294 30297 30300 30303 30306 30309 30312 30315 30318 30321 30324 30327 30330 30333 30336 30339 30342 30345 30348 30351 30354 30357 30360 30363 30366 30369 30372 30375 30378 30381 30384 30387 30390 30393 30396 30399 30402 30405 30408 30411 30414 30417 30420 30423 30426 30429 30432 30435 30438 30441 30444 30447 30450 30453 30456 30459 30462 30465 30468 30471 30474 30477 30480 30483 30486 30489 30492 30495 30498 30501 30504 30507 30510 30513 30516 30519 30522 30525 30528 30531 30534 30537 30540 30543 30546 30549 30552 30555 30558 30561 30564 30567 30570 30573 30576 30579 30582 30585 30588 30591 30594 30597 30600 30603 30606 30609 30612 30615 30618 30621 30624 30627 30630 30633 30636 30639 30642 30645 30648 30651 30654 30657 30660 30663 30666 30669 30672 30675 30678 30681 30684 30687 30690 30693 30696 30699 30702 30705 30708 30711 30714 30717 30720 30723 30726 30729 30732 30735 30738 30741 30744 30747 30750 30753 30756 30759 30762 30765 30768 30771 30774 30777 30780 30783 30786 30789 30792 30795 30798 30801 30804 30807 30810 30813 30816 30819 30822 30825 30828 30831 30834 30837 30840 30843 30846 30849 30852 30855 30858 30861 30864 30867 30870 30873 30876 30879 30882 30885 30888 30891 30894 30897 30900 30903 30906 30909 30912 30915 30918 30921 30924 30927 30930 30933 30936 30939 30942 30945 30948 30951 30954 30957 30960 30963 30966 30969 30972 30975 30978 30981 30984 30987 30990 30993 30996 30999 31002 31005 31008 31011 31014 31017 31020 31023 31026 31029 31032 31035 31038 31041 31044 31047 31050 31053 31056 31059 31062 31065 31068 31071 31074 31077 31080 31083 31086 31089 31092 31095 31098 31101 31104 31107 31110 31113 31116 31119 31122 31125 31128 31131 31134 31137 31140 31143 31146 31149 31152 31155 31158 31161 31164 31167 31170 31173 31176 31179 31182 31185 31188 31191 31194 31197 31200 31203 31206 31209 31212 31215 31218 31221 31224 31227 31230 31233 31236 31239 31242 31245 31248 31251 31254 31257 31260 31263 31266 31269 31272 31275 31278 31281 31284 31287 31290 31293 31296 31299 31302 31305 31308 31311 31314 31317 31320 31323 31326 31329 31332 31335 31338 31341 31344 31347 31350 31353 31356 31359 31362 31365 31368 31371 31374 31377 31380 31383 31386 31389 31392 31395 31398 31401 31404 31407 31410 31413 31416 31419 31422 31425 31428 31431 31434 31437 31440 31443 31446 31449 31452 31455 31458 31461 31464 31467 31470 31473 31476 31479 31482 31485 31488 31491 31494 31497 31500 31503 31506 31509 31512 31515 31518 31521 31524 31527 31530 31533 31536 31539 31542 31545 31548 31551 31554 31557 31560 31563 31566 31569 31572 31575 31578 31581 31584 31587 31590 31593 31596 31599 31602 31605 31608 31611 31614 31617 31620 31623 31626 31629 31632 31635 31638 31641 31644 31647 31650 31653 31656 31659 31662 31665 31668 31671 31674 31677 31680 31683 31686 31689 31692 31695 31698 31701 31704 31707 31710 31713 31716 31719 31722 31725 31728 31731 31734 31737 31740 31743 31746 31749 31752 31755 31758 31761 31764 31767 31770 31773 31776 31779 31782 31785 31788 31791 31794 31797 31800 31803 31806 31809 31812 31815 31818 31821 31824 31827 31830 31833 31836 31839 31842 31845 31848 31851 31854 31857 31860 31863 31866 31869 31872 31875 31878 31881 31884 31887 31890 31893 31896 31899 31902 31905 31908 31911 31914 31917 31920 31923 31926 31929 31932 31935 31938 31941 31944 31947 31950 31953 31956 31959 31962 31965 31968 31971 31974 31977 31980 31983 31986 31989 31992 31995 31998 32001 32004 32007 32010 32013 32016 32019 32022 32025 32028 32031 32034 32037 32040 32043 32046 32049 32052 32055 32058 32061 32064 32067 32070 32073 32076 32079 32082 32085 32088 32091 32094 32097 32100 32103 32106 32109 32112 32115 32118 32121 32124 32127 32130 32133 32136 32139 32142 32145 32148 32151 32154 32157 32160 32163 32166 32169 32172 32175 32178 32181 32184 32187 32190 32193 32196 32199 32202 32205 32208 32211 32214 32217 32220 32223 32226 32229 32232 32235 32238 32241 32244 32247 32250 32253 32256 32259 32262 32265 32268 32271 32274 32277 32280 32283 32286 32289 32292 32295 32298 32301 32304 32307 32310 32313 32316 32319 32322 32325 32328 32331 32334 32337 32340 32343 32346 32349 32352 32355 32358 32361 32364 32367 32370 32373 32376 32379 32382 32385 32388 32391 32394 32397 32400 32403 32406 32409 32412 32415 32418 32421 32424 32427 32430 32433 32436 32439 32442 32445 32448 32451 32454 32457 32460 32463 32466 32469 32472 32475 32478 32481 32484 32487 32490 32493 32496 32499 32502 32505 32508 32511 32514 32517 32520 32523 32526 32529 32532 32535 32538 32541 32544 32547 32550 32553 32556 32559 32562 32565 32568 32571 32574 32577 32580 32583 32586 32589 32592 32595 32598 32601 32604 32607 32610 32613 32616 32619 32622 32625 32628 32631 32634 32637 32640 32643 32646 32649 32652 32655 32658 32661 32664 32667 32670 32673 32676 32679 32682 32685 32688 32691 32694 32697 32700 32703 32706 32709 32712 32715 32718 32721 32724 32727 32730 32733 32736 32739 32742 32745 32748 32751 32754 32757 32760 32763 32766 32769 32772 32775 32778 32781 32784 32787 32790 32793 32796 32799 32802 32805 32808 32811 32814 32817 32820 32823 32826 32829 32832 32835 32838 32841 32844 32847 32850 32853 32856 32859 32862 32865 32868 32871 32874 32877 32880 32883 32886 32889 32892 32895 32898 32901 32904 32907 32910 32913 32916 32919 32922 32925 32928 32931 32934 32937 32940 32943 32946 32949 32952 32955 32958 32961 32964 32967 32970 32973 32976 32979 32982 32985 32988 32991 32994 32997 33000 33003 33006 33009 33012 33015 33018 33021 33024 33027 33030 33033 33036 33039 33042 33045 33048 33051 33054 33057 33060 33063 33066 33069 33072 33075 33078 33081 33084 33087 33090 33093 33096 33099 33102 33105 33108 33111 33114 33117 33120 33123 33126 33129 33132 33135 33138 33141 33144 33147 33150 33153 33156 33159 33162 33165 33168 33171 33174 33177 33180 33183 33186 33189 33192 33195 33198 33201 33204 33207 33210 33213 33216 33219 33222 33225 33228 33231 33234 33237 33240 33243 33246 33249 33252 33255 33258 33261 33264 33267 33270 33273 33276 33279 33282 33285 33288 33291 33294 33297 33300 33303 33306 33309 33312 33315 33318 33321 33324 33327 33330 33333 33336 33339 33342 33345 33348 33351 33354 33357 33360 33363 33366 33369 33372 33375 33378 33381 33384 33387 33390 33393 33396 33399 33402 33405 33408 33411 33414 33417 33420 33423 33426 33429 33432 33435 33438 33441 33444 33447 33450 33453 33456 33459 33462 33465 33468 33471 33474 33477 33480 33483 33486 33489 33492 33495 33498 33501 33504 33507 33510 33513 33516 33519 33522 33525 33528 33531 33534 33537 33540 33543 33546 33549 33552 33555 33558 33561 33564 33567 33570 33573 33576 33579 33582 33585 33588 33591 33594 33597 33600 33603 33606 33609 33612 33615 33618 33621 33624 33627 33630 33633 33636 33639 33642 33645 33648 33651 33654 33657 33660 33663 33666 33669 33672 33675 33678 33681 33684 33687 33690 33693 33696 33699 33702 33705 33708 33711 33714 33717 33720 33723 33726 33729 33732 33735 33738 33741 33744 33747 33750 33753 33756 33759 33762 33765 33768 33771 33774 33777 33780 33783 33786 33789 33792 33795 33798 33801 33804 33807 33810 33813 33816 33819 33822 33825 33828 33831 33834 33837 33840 33843 33846 33849 33852 33855 33858 33861 33864 33867 33870 33873 33876 33879 33882 33885 33888 33891 33894 33897 33900 33903 33906 33909 33912 33915 33918 33921 33924 33927 33930 33933 33936 33939 33942 33945 33948 33951 33954 33957 33960 33963 33966 33969 33972 33975 33978 33981 33984 33987 33990 33993 33996 33999 34002 34005 34008 34011 34014 34017 34020 34023 34026 34029 34032 34035 34038 34041 34044 34047 34050 34053 34056 34059 34062 34065 34068 34071 34074 34077 34080 34083 34086 34089 34092 34095 34098 34101 34104 34107 34110 34113 34116 34119 34122 34125 34128 34131 34134 34137 34140 34143 34146 34149 34152 34155 34158 34161 34164 34167 34170 34173 34176 34179 34182 34185 34188 34191 34194 34197 34200 34203 34206 34209 34212 34215 34218 34221 34224 34227 34230 34233 34236 34239 34242 34245 34248 34251 34254 34257 34260 34263 34266 34269 34272 34275 34278 34281 34284 34287 34290 34293 34296 34299 34302 34305 34308 34311 34314 34317 34320 34323 34326 34329 34332 34335 34338 34341 34344 34347 34350 34353 34356 34359 34362 34365 34368 34371 34374 34377 34380 34383 34386 34389 34392 34395 34398 34401 34404 34407 34410 34413 34416 34419 34422 34425 34428 34431 34434 34437 34440 34443 34446 34449 34452 34455 34458 34461 34464 34467 34470 34473 34476 34479 34482 34485 34488 34491 34494 34497 34500 34503 34506 34509 34512 34515 34518 34521 34524 34527 34530 34533 34536 34539 34542 34545 34548 34551 34554 34557 34560 34563 34566 34569 34572 34575 34578 34581 34584 34587 34590 34593 34596 34599 34602 34605 34608 34611 34614 34617 34620 34623 34626 34629 34632 34635 34638 34641 34644 34647 34650 34653 34656 34659 34662 34665 34668 34671 34674 34677 34680 34683 34686 34689 34692 34695 34698 34701 34704 34707 34710 34713 34716 34719 34722 34725 34728 34731 34734 34737 34740 34743 34746 34749 34752 34755 34758 34761 34764 34767 34770 34773 34776 34779 34782 34785 34788 34791 34794 34797 34800 34803 34806 34809 34812 34815 34818 34821 34824 34827 34830 34833 34836 34839 34842 34845 34848 34851 34854 34857 34860 34863 34866 34869 34872 34875 34878 34881 34884 34887 34890 34893 34896 34899 34902 34905 34908 34911 34914 34917 34920 34923 34926 34929 34932 34935 34938 34941 34944 34947 34950 34953 34956 34959 34962 34965 34968 34971 34974 34977 34980 34983 34986 34989 34992 34995 34998 35001 35004 35007 35010 35013 35016 35019 35022 35025 35028 35031 35034 35037 35040 35043 35046 35049 35052 35055 35058 35061 35064 35067 35070 35073 35076 35079 35082 35085 35088 35091 35094 35097 35100 35103 35106 35109 35112 35115 35118 35121 35124 35127 35130 35133 35136 35139 35142 35145 35148 35151 35154 35157 35160 35163 35166 35169 35172 35175 35178 35181 35184 35187 35190 35193 35196 35199 35202 35205 35208 35211 35214 35217 35220 35223 35226 35229 35232 35235 35238 35241 35244 35247 35250 35253 35256 35259 35262 35265 35268 35271 35274 35277 35280 35283 35286 35289 35292 35295 35298 35301 35304 35307 35310 35313 35316 35319 35322 35325 35328 35331 35334 35337 35340 35343 35346 35349 35352 35355 35358 35361 35364 35367 35370 35373 35376 35379 35382 35385 35388 35391 35394 35397 35400 35403 35406 35409 35412 35415 35418 35421 35424 35427 35430 35433 35436 35439 35442 35445 35448 35451 35454 35457 35460 35463 35466 35469 35472 35475 35478 35481 35484 35487 35490 35493 35496 35499 35502 35505 35508 35511 35514 35517 35520 35523 35526 35529 35532 35535 35538 35541 35544 35547 35550 35553 35556 35559 35562 35565 35568 35571 35574 35577 35580 35583 35586 35589 35592 35595 35598 35601 35604 35607 35610 35613 35616 35619 35622 35625 35628 35631 35634 35637 35640 35643 35646 35649 35652 35655 35658 35661 35664 35667 35670 35673 35676 35679 35682 35685 35688 35691 35694 35697 35700 35703 35706 35709 35712 35715 35718 35721 35724 35727 35730 35733 35736 35739 35742 35745 35748 35751 35754 35757 35760 35763 35766 35769 35772 35775 35778 35781 35784 35787 35790 35793 35796 35799 35802 35805 35808 35811 35814 35817 35820 35823 35826 35829 35832 35835 35838 35841 35844 35847 35850 35853 35856 35859 35862 35865 35868 35871 35874 35877 35880 35883 35886 35889 35892 35895 35898 35901 35904 35907 35910 35913 35916 35919 35922 35925 35928 35931 35934 35937 35940 35943 35946 35949 35952 35955 35958 35961 35964 35967 35970 35973 35976 35979 35982 35985 35988 35991 35994 35997 36000 36003 36006 36009 36012 36015 36018 36021 36024 36027 36030 36033 36036 36039 36042 36045 36048 36051 36054 36057 36060 36063 36066 36069 36072 36075 36078 36081 36084 36087 36090 36093 36096 36099 36102 36105 36108 36111 36114 36117 36120 36123 36126 36129 36132 36135 36138 36141 36144 36147 36150 36153 36156 36159 36162 36165 36168 36171 36174 36177 36180 36183 36186 36189 36192 36195 36198 36201 36204 36207 36210 36213 36216 36219 36222 36225 36228 36231 36234 36237 36240 36243 36246 36249 36252 36255 36258 36261 36264 36267 36270 36273 36276 36279 36282 36285 36288 36291 36294 36297 36300 36303 36306 36309 36312 36315 36318 36321 36324 36327 36330 36333 36336 36339 36342 36345 36348 36351 36354 36357 36360 36363 36366 36369 36372 36375 36378 36381 36384 36387 36390 36393 36396 36399 36402 36405 36408 36411 36414 36417 36420 36423 36426 36429 36432 36435 36438 36441 36444 36447 36450 36453 36456 36459 36462 36465 36468 36471 36474 36477 36480 36483 36486 36489 36492 36495 36498 36501 36504 36507 36510 36513 36516 36519 36522 36525 36528 36531 36534 36537 36540 36543 36546 36549 36552 36555 36558 36561 36564 36567 36570 36573 36576 36579 36582 36585 36588 36591 36594 36597 36600 36603 36606 36609 36612 36615 36618 36621 36624 36627 36630 36633 36636 36639 36642 36645 36648 36651 36654 36657 36660 36663 36666 36669 36672 36675 36678 36681 36684 36687 36690 36693 36696 36699 36702 36705 36708 36711 36714 36717 36720 36723 36726 36729 36732 36735 36738 36741 36744 36747 36750 36753 36756 36759 36762 36765 36768 36771 36774 36777 36780 36783 36786 36789 36792 36795 36798 36801 36804 36807 36810 36813 36816 36819 36822 36825 36828 36831 36834 36837 36840 36843 36846 36849 36852 36855 36858 36861 36864 36867 36870 36873 36876 36879 36882 36885 36888 36891 36894 36897 36900 36903 36906 36909 36912 36915 36918 36921 36924 36927 36930 36933 36936 36939 36942 36945 36948 36951 36954 36957 36960 36963 36966 36969 36972 36975 36978 36981 36984 36987 36990 36993 36996 36999 37002 37005 37008 37011 37014 37017 37020 37023 37026 37029 37032 37035 37038 37041 37044 37047 37050 37053 37056 37059 37062 37065 37068 37071 37074 37077 37080 37083 37086 37089 37092 37095 37098 37101 37104 37107 37110 37113 37116 37119 37122 37125 37128 37131 37134 37137 37140 37143 37146 37149 37152 37155 37158 37161 37164 37167 37170 37173 37176 37179 37182 37185 37188 37191 37194 37197 37200 37203 37206 37209 37212 37215 37218 37221 37224 37227 37230 37233 37236 37239 37242 37245 37248 37251 37254 37257 37260 37263 37266 37269 37272 37275 37278 37281 37284 37287 37290 37293 37296 37299 37302 37305 37308 37311 37314 37317 37320 37323 37326 37329 37332 37335 37338 37341 37344 37347 37350 37353 37356 37359 37362 37365 37368 37371 37374 37377 37380 37383 37386 37389 37392 37395 37398 37401 37404 37407 37410 37413 37416 37419 37422 37425 37428 37431 37434 37437 37440 37443 37446 37449 37452 37455 37458 37461 37464 37467 37470 37473 37476 37479 37482 37485 37488 37491 37494 37497 37500 37503 37506 37509 37512 37515 37518 37521 37524 37527 37530 37533 37536 37539 37542 37545 37548 37551 37554 37557 37560 37563 37566 37569 37572 37575 37578 37581 37584 37587 37590 37593 37596 37599 37602 37605 37608 37611 37614 37617 37620 37623 37626 37629 37632 37635 37638 37641 37644 37647 37650 37653 37656 37659 37662 37665 37668 37671 37674 37677 37680 37683 37686 37689 37692 37695 37698 37701 37704 37707 37710 37713 37716 37719 37722 37725 37728 37731 37734 37737 37740 37743 37746 37749 37752 37755 37758 37761 37764 37767 37770 37773 37776 37779 37782 37785 37788 37791 37794 37797 37800 37803 37806 37809 37812 37815 37818 37821 37824 37827 37830 37833 37836 37839 37842 37845 37848 37851 37854 37857 37860 37863 37866 37869 37872 37875 37878 37881 37884 37887 37890 37893 37896 37899 37902 37905 37908 37911 37914 37917 37920 37923 37926 37929 37932 37935 37938 37941 37944 37947 37950 37953 37956 37959 37962 37965 37968 37971 37974 37977 37980 37983 37986 37989 37992 37995 37998 38001 38004 38007 38010 38013 38016 38019 38022 38025 38028 38031 38034 38037 38040 38043 38046 38049 38052 38055 38058 38061 38064 38067 38070 38073 38076 38079 38082 38085 38088 38091 38094 38097 38100 38103 38106 38109 38112 38115 38118 38121 38124 38127 38130 38133 38136 38139 38142 38145 38148 38151 38154 38157 38160 38163 38166 38169 38172 38175 38178 38181 38184 38187 38190 38193 38196 38199 38202 38205 38208 38211 38214 38217 38220 38223 38226 38229 38232 38235 38238 38241 38244 38247 38250 38253 38256 38259 38262 38265 38268 38271 38274 38277 38280 38283 38286 38289 38292 38295 38298 38301 38304 38307 38310 38313 38316 38319 38322 38325 38328 38331 38334 38337 38340 38343 38346 38349 38352 38355 38358 38361 38364 38367 38370 38373 38376 38379 38382 38385 38388 38391 38394 38397 38400 38403 38406 38409 38412 38415 38418 38421 38424 38427 38430 38433 38436 38439 38442 38445 38448 38451 38454 38457 38460 38463 38466 38469 38472 38475 38478 38481 38484 38487 38490 38493 38496 38499 38502 38505 38508 38511 38514 38517 38520 38523 38526 38529 38532 38535 38538 38541 38544 38547 38550 38553 38556 38559 38562 38565 38568 38571 38574 38577 38580 38583 38586 38589 38592 38595 38598 38601 38604 38607 38610 38613 38616 38619 38622 38625 38628 38631 38634 38637 38640 38643 38646 38649 38652 38655 38658 38661 38664 38667 38670 38673 38676 38679 38682 38685 38688 38691 38694 38697 38700 38703 38706 38709 38712 38715 38718 38721 38724 38727 38730 38733 38736 38739 38742 38745 38748 38751 38754 38757 38760 38763 38766 38769 38772 38775 38778 38781 38784 38787 38790 38793 38796 38799 38802 38805 38808 38811 38814 38817 38820 38823 38826 38829 38832 38835 38838 38841 38844 38847 38850 38853 38856 38859 38862 38865 38868 38871 38874 38877 38880 38883 38886 38889 38892 38895 38898 38901 38904 38907 38910 38913 38916 38919 38922 38925 38928 38931 38934 38937 38940 38943 38946 38949 38952 38955 38958 38961 38964 38967 38970 38973 38976 38979 38982 38985 38988 38991 38994 38997 39000 39003 39006 39009 39012 39015 39018 39021 39024 39027 39030 39033 39036 39039 39042 39045 39048 39051 39054 39057 39060 39063 39066 39069 39072 39075 39078 39081 39084 39087 39090 39093 39096 39099 39102 39105 39108 39111 39114 39117 39120 39123 39126 39129 39132 39135 39138 39141 39144 39147 39150 39153 39156 39159 39162 39165 39168 39171 39174 39177 39180 39183 39186 39189 39192 39195 39198 39201 39204 39207 39210 39213 39216 39219 39222 39225 39228 39231 39234 39237 39240 39243 39246 39249 39252 39255 39258 39261 39264 39267 39270 39273 39276 39279 39282 39285 39288 39291 39294 39297 39300 39303 39306 39309 39312 39315 39318 39321 39324 39327 39330 39333 39336 39339 39342 39345 39348 39351 39354 39357 39360 39363 39366 39369 39372 39375 39378 39381 39384 39387 39390 39393 39396 39399 39402 39405 39408 39411 39414 39417 39420 39423 39426 39429 39432 39435 39438 39441 39444 39447 39450 39453 39456 39459 39462 39465 39468 39471 39474 39477 39480 39483 39486 39489 39492 39495 39498 39501 39504 39507 39510 39513 39516 39519 39522 39525 39528 39531 39534 39537 39540 39543 39546 39549 39552 39555 39558 39561 39564 39567 39570 39573 39576 39579 39582 39585 39588 39591 39594 39597 39600 39603 39606 39609 39612 39615 39618 39621 39624 39627 39630 39633 39636 39639 39642 39645 39648 39651 39654 39657 39660 39663 39666 39669 39672 39675 39678 39681 39684 39687 39690 39693 39696 39699 39702 39705 39708 39711 39714 39717 39720 39723 39726 39729 39732 39735 39738 39741 39744 39747 39750 39753 39756 39759 39762 39765 39768 39771 39774 39777 39780 39783 39786 39789 39792 39795 39798 39801 39804 39807 39810 39813 39816 39819 39822 39825 39828 39831 39834 39837 39840 39843 39846 39849 39852 39855 39858 39861 39864 39867 39870 39873 39876 39879 39882 39885 39888 39891 39894 39897 39900 39903 39906 39909 39912 39915 39918 39921 39924 39927 39930 39933 39936 39939 39942 39945 39948 39951 39954 39957 39960 39963 39966 39969 39972 39975 39978 39981 39984 39987 39990 39993 39996 39999 40002 40005 40008 40011 40014 40017 40020 40023 40026 40029 40032 40035 40038 40041 40044 40047 40050 40053 40056 40059 40062 40065 40068 40071 40074 40077 40080 40083 40086 40089 40092 40095 40098 40101 40104 40107 40110 40113 40116 40119 40122 40125 40128 40131 40134 40137 40140 40143 40146 40149 40152 40155 40158 40161 40164 40167 40170 40173 40176 40179 40182 40185 40188 40191 40194 40197 40200 40203 40206 40209 40212 40215 40218 40221 40224 40227 40230 40233 40236 40239 40242 40245 40248 40251 40254 40257 40260 40263 40266 40269 40272 40275 40278 40281 40284 40287 40290 40293 40296 40299 40302 40305 40308 40311 40314 40317 40320 40323 40326 40329 40332 40335 40338 40341 40344 40347 40350 40353 40356 40359 40362 40365 40368 40371 40374 40377 40380 40383 40386 40389 40392 40395 40398 40401 40404 40407 40410 40413 40416 40419 40422 40425 40428 40431 40434 40437 40440 40443 40446 40449 40452 40455 40458 40461 40464 40467 40470 40473 40476 40479 40482 40485 40488 40491 40494 40497 40500 40503 40506 40509 40512 40515 40518 40521 40524 40527 40530 40533 40536 40539 40542 40545 40548 40551 40554 40557 40560 40563 40566 40569 40572 40575 40578 40581 40584 40587 40590 40593 40596 40599 40602 40605 40608 40611 40614 40617 40620 40623 40626 40629 40632 40635 40638 40641 40644 40647 40650 40653 40656 40659 40662 40665 40668 40671 40674 40677 40680 40683 40686 40689 40692 40695 40698 40701 40704 40707 40710 40713 40716 40719 40722 40725 40728 40731 40734 40737 40740 40743 40746 40749 40752 40755 40758 40761 40764 40767 40770 40773 40776 40779 40782 40785 40788 40791 40794 40797 40800 40803 40806 40809 40812 40815 40818 40821 40824 40827 40830 40833 40836 40839 40842 40845 40848 40851 40854 40857 40860 40863 40866 40869 40872 40875 40878 40881 40884 40887 40890 40893 40896 40899 40902 40905 40908 40911 40914 40917 40920 40923 40926 40929 40932 40935 40938 40941 40944 40947 40950 40953 40956 40959 40962 40965 40968 40971 40974 40977 40980 40983 40986 40989 40992 40995 40998 41001 41004 41007 41010 41013 41016 41019 41022 41025 41028 41031 41034 41037 41040 41043 41046 41049 41052 41055 41058 41061 41064 41067 41070 41073 41076 41079 41082 41085 41088 41091 41094 41097 41100 41103 41106 41109 41112 41115 41118 41121 41124 41127 41130 41133 41136 41139 41142 41145 41148 41151 41154 41157 41160 41163 41166 41169 41172 41175 41178 41181 41184 41187 41190 41193 41196 41199 41202 41205 41208 41211 41214 41217 41220 41223 41226 41229 41232 41235 41238 41241 41244 41247 41250 41253 41256 41259 41262 41265 41268 41271 41274 41277 41280 41283 41286 41289 41292 41295 41298 41301 41304 41307 41310 41313 41316 41319 41322 41325 41328 41331 41334 41337 41340 41343 41346 41349 41352 41355 41358 41361 41364 41367 41370 41373 41376 41379 41382 41385 41388 41391 41394 41397 41400 41403 41406 41409 41412 </DataArray>
        <DataArray type="Int8" Name="types" format="ascii">69 69 69 69 69 69 69 69 69 69 69 69 69 69 69 69 69 69 69 69 69 69 69 69 69 69 69 69 69 69 69 69 69 69 69 69 69 69 69 69 69 69 69 69 69 69 69 69 69 69 69 69 69 69 69 69 69 69 69 69 69 69 69 69 69 69 69 69 69 69 69 69 69 69 69 69 69 69 69 69 69 69 69 69 69 69 69 69 69 69 69 69 69 69 69 69 69 69 69 69 69 69 69 69 69 69 69 69 69 69 69 69 69 69 69 69 69 69 69 69 69 69 69 69 69 69 69 69 69 69 69 69 69 69 69 69 69 69 69 69 69 69 69 69 69 69 69 69 69 69 69 69 69 69 69 69 69 69 69 69 69 69 69 69 69 69 69 69 69 69 69 69 69 69 69 69 69 69 69 69 69 69 69 69 69 69 69 69 69 69 69 69 69 69 69 69 69 69 69 69 69 69 69 69 69 69 69 69 69 69 69 69 69 69 69 69 69 69 69 69 69 69 69 69 69 69 69 69 69 69 69 69 69 69 69 69 69 69 69 69 69 69 69 69 69 69 69 69 69 69 69 69 69 69 69 69 69 69 69 69 69 69 69 69 69 69 69 69 69 69 69 69 69 69 69 69 69 69 69 69 69 69 69 69 69 69 69 69 69 69 69 69 69 69 69 69 69 69 69 69 69 69 69 69 69 69 69 69 69 69 69 69 69 69 69 69 69 69 69 69 69 69 69 69 69 69 69 69 69 69 69 69 69 69 69 69 69 69 69 69 69 69 69 69 69 69 69 69 69 69 69 69 69 69 69 69 69 69 69 69 69 69 69 69 69 69 69 69 69 69 69 69 69 69 69 69 69 69 69 69 69 69 69 69 69 69 69 69 69 69 69 69 69 69 69 69 69 69 69 69 69 69 69 69 69 69 69 69 69 69 69 69 69 69 69 69 69 69 69 69 69 69 69 69 69 69 69 69 69 69 69 69 69 69 69 69 69 69 69 69 69 69 69 69 69 69 69 69 69 69 69 69 69 69 69 69 69 69 69 69 69 69 69 69 69 69 69 69 69 69 69 69 69 69 69 69 69 69 69 69 69 69 69 69 69 69 69 69 69 69 69 69 69 69 69 69 69 69 69 69 69 69 69 69 69 69 69 69 69 69 69 69 69 69 69 69 69 69 69 69 69 69 69 69 69 69 69 69 69 69 69 69 69 69 69 69 69 69 69 69 69 69 69 69 69 69 69 69 69 69 69 69 69 69 69 69 69 69 69 69 69 69 69 69 69 69 69 69 69 69 69 69 69 69 69 69 69 69 69 69 69 69 69 69 69 69 69 69 69 69 69 69 69 69 69 69 69 69 69 69 69 69 69 69 69 69 69 69 69 69 69 69 69 69 69 69 69 69 69 69 69 69 69 69 69 69 69 69 69 69 69 69 69 69 69 69 69 69 69 69 69 69 69 69 69 69 69 69 69 69 69 69 69 69 69 69 69 69 69 69 69 69 69 69 69 69 69 69 69 69 69 69 69 69 69 69 69 69 69 69 69 69 69 69 69 69 69 69 69 69 69 69 69 69 69 69 69 69 69 69 69 69 69 69 69 69 69 69 69 69 69 69 69 69 69 69 69 69 69 69 69 69 69 69 69 69 69 69 69 69 69 69 69 69 69 69 69 69 69 69 69 69 69 69 69 69 69 69 69 69 69 69 69 69 69 69 69 69 69 69 69 69 69 69 69 69 69 69 69 69 69 69 69 69 69 69 69 69 69 69 69 69 69 69 69 69 69 69 69 69 69 69 69 69 69 69 69 69 69 69 69 69 69 69 69 69 69 69 69 69 69 69 69 69 69 69 69 69 69 69 69 69 69 69 69 69 69 69 69 69 69 69 69 69 69 69 69 69 69 69 69 69 69 69 69 69 69 69 69 69 69 69 69 69 69 69 69 69 69 69 69 69 69 69 69 69 69 69 69 69 69 69 69 69 69 69 69 69 69 69 69 69 69 69 69 69 69 69 69 69 69 69 69 69 69 69 69 69 69 69 69 69 69 69 69 69 69 69 69 69 69 69 69 69 69 69 69 69 69 69 69 69 69 69 69 69 69 69 69 69 69 69 69 69 69 69 69 69 69 69 69 69 69 69 69 69 69 69 69 69 69 69 69 69 69 69 69 69 69 69 69 69 69 69 69 69 69 69 69 69 69 69 69 69 69 69 69 69 69 69 69 69 69 69 69 69 69 69 69 69 69 69 69 69 69 69 69 69 69 69 69 69 69 69 69 69 69 69 69 69 69 69 69 69 69 69 69 69 69 69 69 69 69 69 69 69 69 69 69 69 69 69 69 69 69 69 69 69 69 69 69 69 69 69 69 69 69 69 69 69 69 69 69 69 69 69 69 69 69 69 69 69 69 69 69 69 69 69 69 69 69 69 69 69 69 69 69 69 69 69 69 69 69 69 69 69 69 69 69 69 69 69 69 69 69 69 69 69 69 69 69 69 69 69 69 69 69 69 69 69 69 69 69 69 69 69 69 69 69 69 69 69 69 69 69 69 69 69 69 69 69 69 69 69 69 69 69 69 69 69 69 69 69 69 69 69 69 69 69 69 69 69 69 69 69 69 69 69 69 69 69 69 69 69 69 69 69 69 69 69 69 69 69 69 69 69 69 69 69 69 69 69 69 69 69 69 69 69 69 69 69 69 69 69 69 69 69 69 69 69 69 69 69 69 69 69 69 69 69 69 69 69 69 69 69 69 69 69 69 69 69 69 69 69 69 69 69 69 69 69 69 69 69 69 69 69 69 69 69 69 69 69 69 69 69 69 69 69 69 69 69 69 69 69 69 69 69 69 69 69 69 69 69 69 69 69 69 69 69 69 69 69 69 69 69 69 69 69 69 69 69 69 69 69 69 69 69 69 69 69 69 69 69 69 69 69 69 69 69 69 69 69 69 69 69 69 69 69 69 69 69 69 69 69 69 69 69 69 69 69 69 69 69 69 69 69 69 69 69 69 69 69 69 69 69 69 69 69 69 69 69 69 69 69 69 69 69 69 69 69 69 69 69 69 69 69 69 69 69 69 69 69 69 69 69 69 69 69 69 69 69 69 69 69 69 69 69 69 69 69 69 69 69 69 69 69 69 69 69 69 69 69 69 69 69 69 69 69 69 69 69 69 69 69 69 69 69 69 69 69 69 69 69 69 69 69 69 69 69 69 69 69 69 69 69 69 69 69 69 69 69 69 69 69 69 69 69 69 69 69 69 69 69 69 69 69 69 69 69 69 69 69 69 69 69 69 69 69 69 69 69 69 69 69 69 69 69 69 69 69 69 69 69 69 69 69 69 69 69 69 69 69 69 69 69 69 69 69 69 69 69 69 69 69 69 69 69 69 69 69 69 69 69 69 69 69 69 69 69 69 69 69 69 69 69 69 69 69 69 69 69 69 69 69 69 69 69 69 69 69 69 69 69 69 69 69 69 69 69 69 69 69 69 69 69 69 69 69 69 69 69 69 69 69 69 69 69 69 69 69 69 69 69 69 69 69 69 69 69 69 69 69 69 69 69 69 69 69 69 69 69 69 69 69 69 69 69 69 69 69 69 69 69 69 69 69 69 69 69 69 69 69 69 69 69 69 69 69 69 69 69 69 69 69 69 69 69 69 69 69 69 69 69 69 69 69 69 69 69 69 69 69 69 69 69 69 69 69 69 69 69 69 69 69 69 69 69 69 69 69 69 69 69 69 69 69 69 69 69 69 69 69 69 69 69 69 69 69 69 69 69 69 69 69 69 69 69 69 69 69 69 69 69 69 69 69 69 69 69 69 69 69 69 69 69 69 69 69 69 69 69 69 69 69 69 69 69 69 69 69 69 69 69 69 69 69 69 69 69 69 69 69 69 69 69 69 69 69 69 69 69 69 69 69 69 69 69 69 69 69 69 69 69 69 69 69 69 69 69 69 69 69 69 69 69 69 69 69 69 69 69 69 69 69 69 69 69 69 69 69 69 69 69 69 69 69 69 69 69 69 69 69 69 69 69 69 69 69 69 69 69 69 69 69 69 69 69 69 69 69 69 69 69 69 69 69 69 69 69 69 69 69 69 69 69 69 69 69 69 69 69 69 69 69 69 69 69 69 69 69 69 69 69 69 69 69 69 69 69 69 69 69 69 69 69 69 69 69 69 69 69 69 69 69 69 69 69 69 69 69 69 69 69 69 69 69 69 69 69 69 69 69 69 69 69 69 69 69 69 69 69 69 69 69 69 69 69 69 69 69 69 69 69 69 69 69 69 69 69 69 69 69 69 69 69 69 69 69 69 69 69 69 69 69 69 69 69 69 69 69 69 69 69 69 69 69 69 69 69 69 69 69 69 69 69 69 69 69 69 69 69 69 69 69 69 69 69 69 69 69 69 69 69 69 69 69 69 69 69 69 69 69 69 69 69 69 69 69 69 69 69 69 69 69 69 69 69 69 69 69 69 69 69 69 69 69 69 69 69 69 69 69 69 69 69 69 69 69 69 69 69 69 69 69 69 69 69 69 69 69 69 69 69 69 69 69 69 69 69 69 69 69 69 69 69 69 69 69 69 69 69 69 69 69 69 69 69 69 69 69 69 69 69 69 69 69 69 69 69 69 69 69 69 69 69 69 69 69 69 69 69 69 69 69 69 69 69 69 69 69 69 69 69 69 69 69 69 69 69 69 69 69 69 69 69 69 69 69 69 69 69 69 69 69 69 69 69 69 69 69 69 69 69 69 69 69 69 69 69 69 69 69 69 69 69 69 69 69 69 69 69 69 69 69 69 69 69 69 69 69 69 69 69 69 69 69 69 69 69 69 69 69 69 69 69 69 69 69 69 69 69 69 69 69 69 69 69 69 69 69 69 69 69 69 69 69 69 69 69 69 69 69 69 69 69 69 69 69 69 69 69 69 69 69 69 69 69 69 69 69 69 69 69 69 69 69 69 69 69 69 69 69 69 69 69 69 69 69 69 69 69 69 69 69 69 69 69 69 69 69 69 69 69 69 69 69 69 69 69 69 69 69 69 69 69 69 69 69 69 69 69 69 69 69 69 69 69 69 69 69 69 69 69 69 69 69 69 69 69 69 69 69 69 69 69 69 69 69 69 69 69 69 69 69 69 69 69 69 69 69 69 69 69 69 69 69 69 69 69 69 69 69 69 69 69 69 69 69 69 69 69 69 69 69 69 69 69 69 69 69 69 69 69 69 69 69 69 69 69 69 69 69 69 69 69 69 69 69 69 69 69 69 69 69 69 69 69 69 69 69 69 69 69 69 69 69 69 69 69 69 69 69 69 69 69 69 69 69 69 69 69 69 69 69 69 69 69 69 69 69 69 69 69 69 69 69 69 69 69 69 69 69 69 69 69 69 69 69 69 69 69 69 69 69 69 69 69 69 69 69 69 69 69 69 69 69 69 69 69 69 69 69 69 69 69 69 69 69 69 69 69 69 69 69 69 69 69 69 69 69 69 69 69 69 69 69 69 69 69 69 69 69 69 69 69 69 69 69 69 69 69 69 69 69 69 69 69 69 69 69 69 69 69 69 69 69 69 69 69 69 69 69 69 69 69 69 69 69 69 69 69 69 69 69 69 69 69 69 69 69 69 69 69 69 69 69 69 69 69 69 69 69 69 69 69 69 69 69 69 69 69 69 69 69 69 69 69 69 69 69 69 69 69 69 69 69 69 69 69 69 69 69 69 69 69 69 69 69 69 69 69 69 69 69 69 69 69 69 69 69 69 69 69 69 69 69 69 69 69 69 69 69 69 69 69 69 69 69 69 69 69 69 69 69 69 69 69 69 69 69 69 69 69 69 69 69 69 69 69 69 69 69 69 69 69 69 69 69 69 69 69 69 69 69 69 69 69 69 69 69 69 69 69 69 69 69 69 69 69 69 69 69 69 69 69 69 69 69 69 69 69 69 69 69 69 69 69 69 69 69 69 69 69 69 69 69 69 69 69 69 69 69 69 69 69 69 69 69 69 69 69 69 69 69 69 69 69 69 69 69 69 69 69 69 69 69 69 69 69 69 69 69 69 69 69 69 69 69 69 69 69 69 69 69 69 69 69 69 69 69 69 69 69 69 69 69 69 69 69 69 69 69 69 69 69 69 69 69 69 69 69 69 69 69 69 69 69 69 69 69 69 69 69 69 69 69 69 69 69 69 69 69 69 69 69 69 69 69 69 69 69 69 69 69 69 69 69 69 69 69 69 69 69 69 69 69 69 69 69 69 69 69 69 69 69 69 69 69 69 69 69 69 69 69 69 69 69 69 69 69 69 69 69 69 69 69 69 69 69 69 69 69 69 69 69 69 69 69 69 69 69 69 69 69 69 69 69 69 69 69 69 69 69 69 69 69 69 69 69 69 69 69 69 69 69 69 69 69 69 69 69 69 69 69 69 69 69 69 69 69 69 69 69 69 69 69 69 69 69 69 69 69 69 69 69 69 69 69 69 69 69 69 69 69 69 69 69 69 69 69 69 69 69 69 69 69 69 69 69 69 69 69 69 69 69 69 69 69 69 69 69 69 69 69 69 69 69 69 69 69 69 69 69 69 69 69 69 69 69 69 69 69 69 69 69 69 69 69 69 69 69 69 69 69 69 69 69 69 69 69 69 69 69 69 69 69 69 69 69 69 69 69 69 69 69 69 69 69 69 69 69 69 69 69 69 69 69 69 69 69 69 69 69 69 69 69 69 69 69 69 69 69 69 69 69 69 69 69 69 69 69 69 69 69 69 69 69 69 69 69 69 69 69 69 69 69 69 69 69 69 69 69 69 69 69 69 69 69 69 69 69 69 69 69 69 69 69 69 69 69 69 69 69 69 69 69 69 69 69 69 69 69 69 69 69 69 69 69 69 69 69 69 69 69 69 69 69 69 69 69 69 69 69 69 69 69 69 69 69 69 69 69 69 69 69 69 69 69 69 69 69 69 69 69 69 69 69 69 69 69 69 69 69 69 69 69 69 69 69 69 69 69 69 69 69 69 69 69 69 69 69 69 69 69 69 69 69 69 69 69 69 69 69 69 69 69 69 69 69 69 69 69 69 69 69 69 69 69 69 69 69 69 69 69 69 69 69 69 69 69 69 69 69 69 69 69 69 69 69 69 69 69 69 69 69 69 69 69 69 69 69 69 69 69 69 69 69 69 69 69 69 69 69 69 69 69 69 69 69 69 69 69 69 69 69 69 69 69 69 69 69 69 69 69 69 69 69 69 69 69 69 69 69 69 69 69 69 69 69 69 69 69 69 69 69 69 69 69 69 69 69 69 69 69 69 69 69 69 69 69 69 69 69 69 69 69 69 69 69 69 69 69 69 69 69 69 69 69 69 69 69 69 69 69 69 69 69 69 69 69 69 69 69 69 69 69 69 69 69 69 69 69 69 69 69 69 69 69 69 69 69 69 69 69 69 69 69 69 69 69 69 69 69 69 69 69 69 69 69 69 69 69 69 69 69 69 69 69 69 69 69 69 69 69 69 69 69 69 69 69 69 69 69 69 69 69 69 69 69 69 69 69 69 69 69 69 69 69 69 69 69 69 69 69 69 69 69 69 69 69 69 69 69 69 69 69 69 69 69 69 69 69 69 69 69 69 69 69 69 69 69 69 69 69 69 69 69 69 69 69 69 69 69 69 69 69 69 69 69 69 69 69 69 69 69 69 69 69 69 69 69 69 69 69 69 69 69 69 69 69 69 69 69 69 69 69 69 69 69 69 69 69 69 69 69 69 69 69 69 69 69 69 69 69 69 69 69 69 69 69 69 69 69 69 69 69 69 69 69 69 69 69 69 69 69 69 69 69 69 69 69 69 69 69 69 69 69 69 69 69 69 69 69 69 69 69 69 69 69 69 69 69 69 69 69 69 69 69 69 69 69 69 69 69 69 69 69 69 69 69 69 69 69 69 69 69 69 69 69 69 69 69 69 69 69 69 69 69 69 69 69 69 69 69 69 69 69 69 69 69 69 69 69 69 69 69 69 69 69 69 69 69 69 69 69 69 69 69 69 69 69 69 69 69 69 69 69 69 69 69 69 69 69 69 69 69 69 69 69 69 69 69 69 69 69 69 69 69 69 69 69 69 69 69 69 69 69 69 69 69 69 69 69 69 69 69 69 69 69 69 69 69 69 69 69 69 69 69 69 69 69 69 69 69 69 69 69 69 69 69 69 69 69 69 69 69 69 69 69 69 69 69 69 69 69 69 69 69 69 69 69 69 69 69 69 69 69 69 69 69 69 69 69 69 69 69 69 69 69 69 69 69 69 69 69 69 69 69 69 69 69 69 69 69 69 69 69 69 69 69 69 69 69 69 69 69 69 69 69 69 69 69 69 69 69 69 69 69 69 69 69 69 69 69 69 69 69 69 69 69 69 69 69 69 69 69 69 69 69 69 69 69 69 69 69 69 69 69 69 69 69 69 69 69 69 69 69 69 69 69 69 69 69 69 69 69 69 69 69 69 69 69 69 69 69 69 69 69 69 69 69 69 69 69 69 69 69 69 69 69 69 69 69 69 69 69 69 69 69 69 69 69 69 69 69 69 69 69 69 69 69 69 69 69 69 69 69 69 69 69 69 69 69 69 69 69 69 69 69 69 69 69 69 69 69 69 69 69 69 69 69 69 69 69 69 69 69 69 69 69 69 69 69 69 69 69 69 69 69 69 69 69 69 69 69 69 69 69 69 69 69 69 69 69 69 69 69 69 69 69 69 69 69 69 69 69 69 69 69 69 69 69 69 69 69 69 69 69 69 69 69 69 69 69 69 69 69 69 69 69 69 69 69 69 69 69 69 69 69 69 69 69 69 69 69 69 69 69 69 69 69 69 69 69 69 69 69 69 69 69 69 69 69 69 69 69 69 69 69 69 69 69 69 69 69 69 69 69 69 69 69 69 69 69 69 69 69 69 69 69 69 69 69 69 69 69 69 69 69 69 69 69 69 69 69 69 69 69 69 69 69 69 69 69 69 69 69 69 69 69 69 69 69 69 69 69 69 69 69 69 69 69 69 69 69 69 69 69 69 69 69 69 69 69 69 69 69 69 69 69 69 69 69 69 69 69 69 69 69 69 69 69 69 69 69 69 69 69 69 69 69 69 69 69 69 69 69 69 69 69 69 69 69 69 69 69 69 69 69 69 69 69 69 69 69 69 69 69 69 69 69 69 69 69 69 69 69 69 69 69 69 69 69 69 69 69 69 69 69 69 69 69 69 69 69 69 69 69 69 69 69 69 69 69 69 69 69 69 69 69 69 69 69 69 69 69 69 69 69 69 69 69 69 69 69 69 69 69 69 69 69 69 69 69 69 69 69 69 69 69 69 69 69 69 69 69 69 69 69 69 69 69 69 69 69 69 69 69 69 69 69 69 69 69 69 69 69 69 69 69 69 69 69 69 69 69 69 69 69 69 69 69 69 69 69 69 69 69 69 69 69 69 69 69 69 69 69 69 69 69 69 69 69 69 69 69 69 69 69 69 69 69 69 69 69 69 69 69 69 69 69 69 69 69 69 69 69 69 69 69 69 69 69 69 69 69 69 69 69 69 69 69 69 69 69 69 69 69 69 69 69 69 69 69 69 69 69 69 69 69 69 69 69 69 69 69 69 69 69 69 69 69 69 69 69 69 69 69 69 69 69 69 69 69 69 69 69 69 69 69 69 69 69 69 69 69 69 69 69 69 69 69 69 69 69 69 69 69 69 69 69 69 69 69 69 69 69 69 69 69 69 69 69 69 69 69 69 69 69 69 69 69 69 69 69 69 69 69 69 69 69 69 69 69 69 69 69 69 69 69 69 69 69 69 69 69 69 69 69 69 69 69 69 69 69 69 69 69 69 69 69 69 69 69 69 69 69 69 69 69 69 69 69 69 69 69 69 69 69 69 69 69 69 69 69 69 69 69 69 69 69 69 69 69 69 69 69 69 69 69 69 69 69 69 69 69 69 69 69 69 69 69 69 69 69 69 69 69 69 69 69 69 69 69 69 69 69 69 69 69 69 69 69 69 69 69 69 69 69 69 69 69 69 69 69 69 69 69 69 69 69 69 69 69 69 69 69 69 69 69 69 69 69 69 69 69 69 69 69 69 69 69 69 69 69 69 69 69 69 69 69 69 69 69 69 69 69 69 69 69 69 69 69 69 69 69 69 69 69 69 69 69 69 69 69 69 69 69 69 69 69 69 69 69 69 69 69 69 69 69 69 69 69 69 69 69 69 69 69 69 69 69 69 69 69 69 69 69 69 69 69 69 69 69 69 69 69 69 69 69 69 69 69 69 69 69 69 69 69 69 69 69 69 69 69 69 69 69 69 69 69 69 69 69 69 69 69 69 69 69 69 69 69 69 69 69 69 69 69 69 69 69 69 69 69 69 69 69 69 69 69 69 69 69 69 69 69 69 69 69 69 69 69 69 69 69 69 69 69 69 69 69 69 69 69 69 69 69 69 69 69 69 69 69 69 69 69 69 69 69 69 69 69 69 69 69 69 69 69 69 69 69 69 69 69 69 69 69 69 69 69 69 69 69 69 69 69 69 69 69 69 69 69 69 69 69 69 69 69 69 69 69 69 69 69 69 69 69 69 69 69 69 69 69 69 69 69 69 69 69 69 69 69 69 69 69 69 69 69 69 69 69 69 69 69 69 69 69 69 69 69 69 69 69 69 69 69 69 69 69 69 69 69 69 69 69 69 69 69 69 69 69 69 69 69 69 69 69 69 69 69 69 69 69 69 69 69 69 69 69 69 69 69 69 69 69 69 69 69 69 69 69 69 69 69 69 69 69 69 69 69 69 69 69 69 69 69 69 69 69 69 69 69 69 69 69 69 69 69 69 69 69 69 69 69 69 69 69 69 69 69 69 69 69 69 69 69 69 69 69 69 69 69 69 69 69 69 69 69 69 69 69 69 69 69 69 69 69 69 69 69 69 69 69 69 69 69 69 69 69 69 69 69 69 69 69 69 69 69 69 69 69 69 69 69 69 69 69 69 69 69 69 69 69 69 69 69 69 69 69 69 69 69 69 69 69 69 69 69 69 69 69 69 69 69 69 69 69 69 69 69 69 69 69 69 69 69 69 69 69 69 69 69 69 69 69 69 69 69 69 69 69 69 69 69 69 69 69 69 69 69 69 69 69 69 69 69 69 69 69 69 69 69 69 69 69 69 69 69 69 69 69 69 69 69 69 69 69 69 69 69 69 69 69 69 69 69 69 69 69 69 69 69 69 69 69 69 69 69 69 69 69 69 69 69 69 69 69 69 69 69 69 69 69 69 69 69 69 69 69 69 69 69 69 69 69 69 69 69 69 69 69 69 69 69 69 69 69 69 69 69 69 69 69 69 69 69 69 69 69 69 69 69 69 69 69 69 69 69 69 69 69 69 69 69 69 69 69 69 69 69 69 69 69 69 69 69 69 69 69 69 69 69 69 69 69 69 69 69 69 69 69 69 69 69 69 69 69 69 69 69 69 69 69 69 69 69 69 69 69 69 69 69 69 69 69 69 69 69 69 69 69 69 69 69 69 69 69 69 69 69 69 69 69 69 69 69 69 69 69 69 69 69 69 69 69 69 69 69 69 69 69 69 69 69 69 69 69 69 69 69 69 69 69 69 69 69 69 69 69 69 69 69 69 69 69 69 69 69 69 69 69 69 69 69 69 69 69 69 69 69 69 69 69 69 69 69 69 69 69 69 69 69 69 69 69 69 69 69 69 69 69 69 69 69 69 69 69 69 69 69 69 69 69 69 69 69 69 69 69 69 69 69 69 69 69 69 69 69 69 69 69 69 69 69 69 69 69 69 69 69 69 69 69 69 69 69 69 69 69 69 69 69 69 69 69 69 69 69 69 69 69 69 69 69 69 69 69 69 69 69 69 69 69 69 69 69 69 69 69 69 69 69 69 69 69 69 69 69 69 69 69 69 69 69 69 69 69 69 69 69 69 69 69 69 69 69 69 69 69 69 69 69 69 69 69 69 69 69 69 69 69 69 69 69 69 69 69 69 69 69 69 69 69 69 69 69 69 69 69 69 69 69 69 69 69 69 69 69 69 69 69 69 69 69 69 69 69 69 69 69 69 69 69 69 69 69 69 69 69 69 69 69 69 69 69 69 69 69 69 69 69 69 69 69 69 69 69 69 69 69 69 69 69 69 69 69 69 69 69 69 69 69 69 69 69 69 69 69 69 69 69 69 69 69 69 69 69 69 69 69 69 69 69 69 69 69 69 69 69 69 69 69 69 69 69 69 69 69 69 69 69 69 69 69 69 69 69 69 69 69 69 69 69 69 69 69 69 69 69 69 69 69 69 69 69 69 69 69 69 69 69 69 69 69 69 69 69 69 69 69 69 69 69 69 69 69 69 69 69 69 69 69 69 69 69 69 69 69 69 69 69 69 69 69 69 69 69 69 69 69 69 69 69 69 69 69 69 69 69 69 69 69 69 69 69 69 69 69 69 69 69 69 69 69 69 69 69 69 69 69 69 69 69 69 69 69 69 69 69 69 69 69 69 69 69 69 69 69 69 69 69 69 69 69 69 69 69 69 69 69 69 69 69 69 69 69 69 69 69 69 69 69 69 69 69 69 69 69 69 69 69 69 69 69 69 69 69 69 69 69 69 69 69 69 69 69 69 69 69 69 69 69 69 69 69 69 69 69 69 69 69 69 69 69 69 69 69 69 69 69 69 69 69 69 69 69 69 69 69 69 69 69 69 69 69 69 69 69 69 69 69 69 69 69 69 69 69 69 69 69 69 69 69 69 69 69 69 69 69 69 69 69 69 69 69 69 69 69 69 69 69 69 69 69 69 69 69 69 69 69 69 69 69 69 69 69 69 69 69 69 69 69 69 69 69 69 69 69 69 69 69 69 69 69 69 69 69 69 69 69 69 69 69 69 69 69 69 69 69 69 69 69 69 69 69 69 69 69 69 69 69 69 69 69 69 69 69 69 69 69 69 69 69 69 69 69 69 69 69 69 69 69 69 69 69 69 69 69 69 69 69 69 69 69 69 69 69 69 69 69 69 69 69 69 69 69 69 69 69 69 69 69 69 69 69 69 69 69 69 69 69 69 69 69 69 69 69 69 69 69 69 69 69 69 69 69 69 69 69 69 69 69 69 69 69 69 69 69 69 69 69 69 69 69 69 69 69 69 69 69 69 69 69 69 69 69 69 69 69 69 69 69 69 69 69 69 69 69 69 69 69 69 69 69 69 69 69 69 69 69 69 69 69 69 69 69 69 69 69 69 69 69 69 69 69 69 69 69 69 69 69 69 69 69 69 69 69 69 69 69 69 69 69 69 69 69 69 69 69 69 69 69 69 69 69 69 69 69 69 69 69 69 69 69 69 69 69 69 69 69 69 69 69 69 69 69 69 69 69 69 69 69 69 69 69 69 69 69 69 69 69 69 69 69 69 69 69 69 69 69 69 69 69 69 69 69 69 69 69 69 69 69 69 69 69 69 69 69 69 69 69 69 69 69 69 69 69 69 69 69 69 69 69 69 69 69 69 69 69 69 69 69 69 69 69 69 69 69 69 69 69 69 69 69 69 69 69 69 69 69 69 69 69 69 69 69 69 69 69 69 69 69 69 69 69 69 69 69 69 69 69 69 69 69 69 69 69 69 69 69 69 69 69 69 69 69 69 69 69 69 69 69 69 69 69 69 69 69 69 69 69 69 69 69 69 69 69 69 69 69 69 69 69 69 69 69 69 69 69 69 69 69 69 69 69 69 69 69 69 69 69 69 69 69 69 69 69 69 69 69 69 69 69 69 69 69 69 69 69 69 69 69 69 69 69 69 69 69 69 69 69 69 69 69 69 69 69 69 69 69 69 69 69 69 69 69 69 69 69 69 69 69 69 69 69 69 69 69 69 69 69 69 69 69 69 69 69 69 69 69 69 69 69 69 69 69 69 69 69 69 69 69 69 69 69 69 69 69 69 69 69 69 69 69 69 69 69 69 69 69 69 69 69 69 69 69 69 69 69 69 69 69 69 69 69 69 69 69 69 69 69 69 69 69 69 69 69 69 69 69 69 69 69 69 69 69 69 69 69 69 69 69 69 69 69 69 69 69 69 69 69 69 69 69 69 69 69 69 69 69 69 69 69 69 69 69 69 69 69 69 69 69 69 69 69 69 69 69 69 69 69 69 69 69 69 69 69 69 69 69 69 69 69 69 69 69 69 69 69 69 69 69 69 69 69 69 69 69 69 69 69 69 69 69 69 69 69 69 69 69 69 69 69 69 69 69 69 69 69 69 69 69 69 69 69 69 69 69 69 69 69 69 69 69 69 69 69 69 69 69 69 69 69 69 69 69 69 69 69 69 69 69 69 69 69 69 69 69 69 69 69 69 69 69 69 69 69 69 69 69 69 69 69 69 69 69 69 69 69 69 69 69 69 69 69 69 69 69 69 69 69 69 69 69 69 69 69 69 69 69 69 69 69 69 69 69 69 69 69 69 69 69 69 69 69 69 69 69 69 69 69 69 69 69 69 69 69 69 69 69 69 69 69 69 69 69 69 69 69 69 69 69 69 69 69 69 69 69 69 69 69 69 69 69 69 69 69 69 69 69 69 69 69 69 69 69 69 69 69 69 69 69 69 69 69 69 69 69 69 69 69 69 69 69 69 69 69 69 69 69 69 69 69 69 69 69 69 69 69 69 69 69 69 69 69 69 69 69 69 69 69 69 69 69 69 69 69 69 69 69 69 69 69 69 69 69 69 69 69 69 69 69 69 69 69 69 69 69 69 69 69 69 69 69 69 69 69 69 69 69 69 69 69 69 69 69 69 69 69 69 69 69 69 69 69 69 69 69 69 69 69 69 69 69 69 69 69 69 69 69 69 69 69 69 69 69 69 69 69 69 69 69 69 69 69 69 69 69 69 69 69 69 69 69 69 69 69 69 69 69 69 69 69 69 69 69 69 69 69 69 69 69 69 69 69 69 69 69 69 69 69 69 69 69 69 69 69 69 69 69 69 69 69 69 69 69 69 69 69 69 69 69 69 69 69 69 69 69 69 69 69 69 69 69 69 69 69 69 69 69 69 69 69 69 69 69 69 69 69 69 69 69 69 69 69 69 69 69 69 69 69 69 69 69 69 69 69 69 69 69 69 69 69 69 69 69 69 69 69 69 69 69 69 69 69 69 69 69 69 69 69 69 69 69 69 69 69 69 69 69 69 69 69 69 69 69 69 69 69 69 69 69 69 69 69 69 69 69 69 69 69 69 69 69 69 69 69 69 69 69 69 69 69 69 69 69 69 69 69 69 69 69 69 69 69 69 69 69 69 69 69 69 69 69 69 69 69 69 69 69 69 69 69 69 69 69 69 69 69 69 69 69 69 69 69 69 69 69 69 69 69 69 69 69 69 69 69 69 69 69 69 69 69 69 69 69 69 69 69 69 69 69 69 69 69 69 69 69 69 69 69 69 69 69 69 69 69 69 69 69 69 69 69 69 69 69 69 69 69 69 69 69 69 69 69 69 69 69 69 69 69 69 69 69 69 69 69 69 69 69 69 69 69 69 69 69 69 69 69 69 69 69 69 69 69 69 69 69 69 69 69 69 69 69 69 69 69 69 69 69 69 69 69 69 69 69 69 69 69 69 69 69 69 69 69 69 69 69 69 69 69 69 69 69 69 69 69 69 69 69 69 69 69 69 69 69 69 69 69 69 69 69 69 69 69 69 69 69 69 69 69 69 69 69 69 69 69 69 69 69 69 69 69 69 69 69 69 69 69 69 69 69 69 69 69 69 69 69 69 69 69 69 69 69 69 69 69 69 69 69 69 69 69 69 69 69 69 69 69 69 69 69 69 69 69 69 69 69 69 69 69 69 69 69 69 69 69 69 69 69 69 69 69 69 69 69 69 69 69 69 69 69 69 69 69 69 69 69 69 69 69 69 69 69 69 69 69 69 69 69 69 69 69 69 69 69 69 69 69 69 69 69 69 69 69 69 69 69 69 69 69 69 69 69 69 69 69 69 69 69 69 69 69 69 69 69 69 69 69 69 69 69 69 69 69 69 69 69 69 69 69 69 69 69 69 69 69 69 69 69 69 69 69 69 69 69 69 69 69 69 69 69 69 69 69 69 69 69 69 69 69 69 69 69 69 69 69 69 69 69 69 69 69 69 69 69 69 69 69 69 69 69 69 69 69 69 69 69 69 69 69 69 69 69 69 69 69 69 69 69 69 69 69 69 69 69 69 69 69 69 69 69 69 69 69 69 69 69 69 69 69 69 69 69 69 69 69 69 69 69 69 69 69 69 69 69 69 69 69 69 69 69 69 69 69 69 69 69 69 69 69 69 69 69 69 69 69 69 69 69 69 69 69 69 69 69 69 69 69 69 69 69 69 69 69 69 69 69 69 69 69 69 69 69 69 69 69 69 69 69 69 69 69 69 69 69 69 69 69 69 69 69 69 69 69 69 69 69 69 69 69 69 69 69 69 69 69 69 69 69 69 69 69 69 69 69 69 69 69 69 69 69 69 69 69 69 69 69 69 69 69 69 69 69 69 69 69 69 69 69 69 69 69 69 69 69 69 69 69 69 69 69 69 69 69 69 69 69 69 69 69 69 69 69 69 69 69 69 69 69 69 69 69 69 69 69 69 69 69 69 69 69 69 69 69 69 69 69 69 69 69 69 69 69 69 69 69 69 69 69 69 69 69 69 69 69 69 69 69 69 69 69 69 69 69 69 69 69 69 69 69 69 69 69 69 69 69 69 69 69 69 69 69 69 69 69 69 69 69 69 69 69 69 69 69 69 69 69 69 69 69 69 69 69 69 69 69 69 69 69 69 69 69 69 69 69 69 69 69 69 69 69 69 69 69 69 69 69 69 69 69 69 69 69 69 69 69 69 69 69 69 69 69 69 69 69 69 69 69 69 69 69 69 69 69 69 69 69 69 69 69 69 69 69 69 69 69 69 69 69 69 69 69 69 69 69 69 69 69 69 69 69 69 69 69 69 69 69 69 69 69 69 69 69 69 69 69 69 69 69 69 69 69 69 69 69 69 69 69 69 69 69 69 69 69 69 69 69 69 69 69 69 69 69 69 69 69 69 69 69 69 69 69 69 69 69 69 69 69 69 69 69 69 69 69 69 69 69 69 69 69 69 69 69 69 69 69 69 69 69 69 69 69 69 69 69 69 69 69 69 69 69 69 69 69 69 69 69 69 69 69 69 69 69 69 69 69 69 69 69 69 69 69 69 69 69 69 69 69 69 69 69 69 69 69 69 69 69 69 69 69 69 69 69 69 69 69 69 69 69 69 69 69 69 69 69 69 69 69 69 69 69 69 69 69 69 69 69 69 69 69 69 69 69 69 69 69 69 69 69 69 69 69 69 69 69 69 69 69 69 69 69 69 69 69 69 69 69 69 69 69 69 69 69 69 69 69 69 69 69 69 69 69 69 69 69 69 69 69 69 69 69 69 69 69 69 69 69 69 69 69 69 69 69 69 69 69 69 69 69 69 69 69 69 69 69 69 69 69 69 69 69 69 69 69 69 69 69 69 69 69 69 69 69 69 69 69 69 69 69 69 69 69 69 69 69 69 69 69 69 69 69 69 69 69 69 69 69 69 69 69 69 69 69 69 69 69 69 69 69 69 69 69 69 69 69 69 69 69 69 69 69 69 69 69 69 69 69 69 69 69 69 69 69 69 69 69 69 69 69 69 69 69 69 69 69 69 69 69 69 69 69 69 69 69 69 69 69 69 69 69 69 69 69 69 69 69 69 69 69 69 69 69 69 69 69 69 69 69 69 69 69 69 69 69 69 69 69 69 69 69 69 69 69 69 69 69 69 69 69 69 69 69 69 69 69 69 69 69 69 69 69 69 69 69 69 69 69 69 69 69 69 69 69 69 69 69 69 69 69 69 69 69 69 69 69 69 69 69 69 69 69 69 69 69 69 69 69 69 69 69 69 69 69 69 69 69 69 69 69 69 69 69 69 69 69 69 69 69 69 69 69 69 69 69 69 69 69 69 69 69 69 69 69 69 69 69 69 69 69 69 69 69 69 69 69 69 69 69 69 69 69 69 69 69 69 69 69 69 69 69 69 69 69 69 69 69 69 69 69 69 69 69 69 69 69 69 69 69 69 69 69 69 69 69 69 69 69 69 69 69 69 69 69 69 69 69 69 69 69 69 69 69 69 69 69 69 69 69 69 69 69 69 69 69 69 69 69 69 69 69 69 69 69 69 69 69 69 69 69 69 69 69 69 69 69 69 69 69 69 69 69 69 69 69 69 69 69 69 69 69 69 69 69 69 69 69 69 69 69 69 69 69 69 69 69 69 69 69 69 69 69 69 69 69 69 69 69 69 69 69 69 69 69 69 69 69 69 69 69 69 69 69 69 69 69 69 69 69 69 69 69 69 69 69 69 69 69 69 69 69 69 69 69 69 69 69 69 69 69 69 69 69 69 69 69 69 69 69 69 69 69 69 69 69 69 69 69 69 69 69 69 69 69 69 69 69 69 69 69 69 69 69 69 69 69 69 69 69 69 69 69 69 69 69 69 69 69 69 69 69 69 69 69 69 69 69 69 69 69 69 69 69 69 69 69 69 69 69 69 69 69 69 69 69 69 69 69 69 69 69 69 69 69 69 69 69 69 69 69 69 69 69 69 69 69 69 69 69 69 69 69 69 69 69 69 69 69 69 69 69 69 69 69 69 69 69 69 69 69 69 69 69 69 69 69 69 69 69 69 69 69 69 69 69 69 69 69 69 69 69 69 69 69 69 69 69 69 69 69 69 69 69 69 69 69 69 69 69 69 69 69 69 69 69 69 69 69 69 69 69 69 69 69 69 69 69 69 69 69 69 69 69 69 69 69 69 69 69 69 69 69 69 69 69 69 69 69 69 69 69 69 69 69 69 69 69 69 69 69 69 69 69 69 69 69 69 69 69 69 69 69 69 69 69 69 69 69 69 69 69 69 69 69 69 69 69 69 69 69 69 69 69 69 69 69 69 69 69 69 69 69 69 69 69 69 69 69 69 69 69 69 69 69 69 69 69 69 69 69 69 69 69 69 69 69 69 69 69 69 69 69 69 69 69 69 69 69 69 69 69 69 69 69 69 69 69 69 69 69 69 69 69 69 69 69 69 69 69 69 69 69 69 69 69 69 69 69 69 69 69 69 69 69 69 69 69 69 69 69 69 69 69 69 69 69 69 69 69 69 69 69 69 69 69 69 69 69 69 69 69 69 69 69 69 69 69 69 69 69 69 69 69 69 69 69 69 69 69 69 69 69 69 69 69 69 69 69 69 69 69 69 69 69 69 69 69 69 69 69 69 69 69 69 69 69 69 69 69 69 69 69 69 69 69 69 69 69 69 69 69 69 69 69 69 69 69 69 69 69 69 69 69 69 69 69 69 69 69 69 69 69 69 69 69 69 69 69 69 69 69 69 69 69 69 69 69 69 69 69 69 69 69 69 69 69 69 69 69 69 69 69 69 69 69 69 69 69 69 69 69 69 69 69 69 69 69 69 69 69 69 69 69 69 69 69 69 69 69 69 69 69 69 69 69 69 69 69 69 69 69 69 69 69 69 69 69 69 69 69 69 69 69 69 69 69 69 69 69 69 69 69 69 69 69 69 69 69 69 69 69 69 69 69 69 69 69 69 69 69 69 69 69 69 69 69 69 69 69 69 69 69 69 69 69 69 69 69 69 69 69 69 69 69 69 69 69 69 69 69 69 69 69 69 69 69 69 69 69 69 69 69 69 69 69 69 69 69 69 69 69 69 69 69 69 69 69 69 69 69 69 69 69 69 69 69 69 69 69 69 69 69 69 69 69 69 69 69 69 69 69 69 69 69 69 69 69 69 69 69 69 69 69 69 69 69 69 69 69 69 69 69 69 69 69 69 69 69 69 69 69 69 69 69 69 69 69 69 69 69 69 69 69 69 69 69 69 69 69 69 69 69 69 69 69 69 69 69 69 69 69 69 69 69 69 69 69 69 69 69 69 69 69 69 69 69 69 69 69 69 69 69 69 69 69 69 69 69 69 69 69 69 69 69 69 69 69 69 69 69 69 69 69 69 69 69 69 69 69 69 69 69 69 69 69 69 69 69 69 69 69 69 69 69 69 69 69 69 69 69 69 69 69 69 69 69 69 69 69 69 69 69 69 69 69 69 69 69 69 69 69 69 69 69 69 69 69 69 69 69 69 69 69 69 69 69 69 69 69 69 69 69 69 69 69 69 69 69 69 69 69 69 69 69 69 69 69 69 69 69 69 69 69 69 69 69 69 69 69 69 69 69 69 69 69 69 69 69 69 69 69 69 69 69 69 69 69 69 69 69 69 69 69 69 69 69 69 69 69 69 69 69 69 69 69 69 69 69 69 69 69 69 69 69 69 69 69 69 69 69 69 69 69 69 69 69 69 69 69 69 69 69 69 69 69 69 69 69 69 69 69 69 69 69 69 69 69 69 69 69 69 69 69 69 69 69 69 69 69 69 69 69 69 69 69 69 69 69 69 69 69 69 69 69 69 69 69 69 69 69 69 69 69 69 69 69 69 69 69 69 69 69 69 69 69 69 69 69 69 69 69 69 69 69 69 69 69 69 69 69 69 69 69 69 69 69 69 69 69 69 69 69 69 69 69 69 69 69 69 69 69 69 69 69 69 69 69 69 69 69 69 69 69 69 69 69 69 69 69 69 69 69 69 69 69 69 69 69 69 69 69 69 69 69 69 69 69 69 69 69 69 69 69 69 69 69 69 69 69 69 69 69 69 69 69 69 69 69 69 69 69 69 69 69 69 69 69 69 69 69 69 69 69 69 69 69 69 69 69 69 69 69 69 69 69 69 69 69 69 69 69 69 69 69 69 69 69 69 69 69 69 69 69 69 69 69 69 69 69 69 69 69 69 69 69 69 69 69 69 69 69 69 69 69 69 69 69 69 69 69 69 69 69 69 69 69 69 69 69 69 69 69 69 69 69 69 69 69 69 69 69 69 69 69 69 69 69 69 69 69 69 69 69 69 69 69 69 69 69 69 69 69 69 69 69 69 69 69 69 69 69 69 69 69 69 69 69 69 69 69 69 69 69 69 69 69 69 69 69 69 69 69 69 69 69 69 69 69 69 69 69 69 69 69 69 69 69 69 69 69 69 69 69 69 69 69 69 69 69 69 69 69 69 69 69 69 69 69 69 69 69 69 69 69 69 69 69 69 69 69 69 69 69 69 69 69 69 69 69 69 69 69 69 69 69 69 69 69 69 69 69 69 69 69 69 69 69 69 69 69 69 69 69 69 69 69 69 69 69 69 69 69 69 69 69 69 69 69 69 69 69 69 69 69 69 69 69 69 69 69 69 69 69 69 69 69 69 69 69 69 69 69 69 69 69 69 69 69 69 69 69 69 69 69 69 69 69 69 69 69 69 69 69 69 69 69 69 69 69 69 69 69 69 69 69 69 69 69 69 69 69 69 69 69 69 69 69 69 69 69 69 69 69 69 69 69 69 69 69 69 69 69 69 69 69 69 69 69 69 69 69 69 69 69 69 69 69 69 69 69 69 69 69 69 69 69 69 69 69 69 69 69 69 69 69 69 69 69 69 69 69 69 69 69 69 69 69 69 69 69 69 69 69 69 69 69 69 69 69 69 69 69 69 69 69 69 69 69 69 69 69 69 69 69 69 69 69 69 69 69 69 69 69 69 69 69 69 69 69 69 69 69 69 69 69 69 69 69 69 69 69 69 69 69 69 69 69 69 69 69 69 69 69 69 69 69 69 69 69 69 69 69 69 69 69 69 69 69 69 69 69 69 69 69 69 69 69 69 69 69 69 69 69 69 69 69 69 69 69 69 69 69 69 69 69 69 69 69 69 69 69 69 69 69 69 69 69 69 69 69 69 69 69 69 69 69 69 69 69 69 69 69 69 69 69 69 69 69 69 69 69 69 69 69 69 69 69 69 69 69 69 69 69 69 69 69 69 69 69 69 69 69 69 69 69 69 69 69 69 69 69 69 69 69 69 69 69 69 69 69 69 69 69 69 69 69 69 69 69 69 69 69 69 69 69 69 69 69 69 69 69 69 69 69 69 69 69 69 69 69 69 69 69 69 69 69 69 69 69 69 69 69 69 69 69 69 69 69 69 69 69 69 69 69 69 69 69 69 69 69 69 69 69 69 69 69 69 69 69 69 69 69 69 69 69 69 69 69 69 69 69 69 69 69 69 69 69 69 69 69 69 69 69 69 69 69 69 69 69 69 69 69 69 69 69 69 69 69 69 69 69 69 69 69 69 69 69 69 69 69 69 69 69 69 69 69 69 69 69 69 69 69 69 69 69 69 69 69 69 69 69 69 69 69 69 69 69 69 69 69 69 69 69 69 69 69 69 69 69 69 69 69 69 69 69 69 69 69 69 69 69 69 69 69 69 69 69 69 69 69 69 69 69 69 69 69 69 69 69 69 69 69 69 69 69 69 69 69 69 69 69 69 69 69 69 69 69 69 69 69 69 69 69 69 69 69 69 69 69 69 69 69 69 69 69 69 69 69 69 69 69 69 69 69 69 69 69 69 69 69 69 69 69 69 69 69 69 69 69 69 69 69 69 69 69 69 69 69 69 69 69 69 69 69 69 69 69 69 69 69 69 69 69 69 69 69 69 69 69 69 69 69 69 69 69 69 69 69 69 69 69 69 69 69 69 69 69 69 69 69 69 69 69 69 69 69 69 69 69 69 69 69 69 69 69 69 69 69 69 69 69 69 69 69 69 69 69 69 69 69 69 69 69 69 69 69 69 69 69 69 69 69 69 69 69 69 69 69 69 69 69 69 69 69 69 69 69 69 69 69 69 69 69 69 69 69 69 69 69 69 69 69 69 69 69 69 69 69 69 69 69 69 69 69 69 69 69 69 69 69 69 69 69 69 69 69 69 69 69 69 69 69 69 69 69 69 69 69 69 69 69 69 69 69 69 69 69 69 69 69 69 69 69 69 69 69 69 69 69 69 69 69 69 69 69 69 69 69 69 69 69 69 69 69 69 69 69 69 69 69 69 69 69 69 69 69 69 69 69 69 69 69 69 69 69 69 69 69 69 69 69 69 69 69 69 69 69 69 69 69 69 69 69 69 69 69 69 69 69 69 69 69 69 69 69 69 69 69 69 69 69 69 69 69 69 69 69 69 69 69 69 69 69 69 69 69 69 69 69 69 69 69 69 69 69 69 69 69 69 69 69 69 69 69 69 69 69 69 69 69 69 69 69 69 69 69 69 69 69 69 69 69 69 69 69 69 69 69 69 69 69 69 69 69 69 69 69 69 69 69 69 69 69 69 69 69 69 69 69 69 69 69 69 69 69 69 69 69 69 69 69 69 69 69 69 69 69 69 69 69 69 69 69 69 69 69 69 69 69 69 69 69 69 69 69 69 69 69 69 69 69 69 69 69 69 69 69 69 69 69 69 69 69 69 69 69 69 69 69 69 69 69 69 69 69 69 69 69 69 69 69 69 69 69 69 69 69 69 69 69 69 69 69 69 69 69 69 69 69 69 69 69 69 69 69 69 69 69 69 69 69 69 69 69 69 69 69 69 69 69 69 69 69 69 69 69 69 69 69 69 69 69 69 69 69 69 69 69 69 69 69 69 69 69 69 69 69 69 69 69 69 69 69 69 69 69 69 69 69 69 69 69 69 69 69 69 69 69 69 69 69 69 69 69 69 69 69 69 69 69 69 69 69 69 69 69 69 69 69 69 69 69 69 69 69 69 69 69 69 69 69 69 69 69 69 69 69 69 69 69 69 69 69 69 69 69 69 69 69 69 69 69 69 69 69 69 69 69 69 69 69 69 69 69 69 69 69 69 69 69 69 69 69 69 69 69 69 69 69 69 69 69 69 69 69 69 69 69 69 69 69 69 69 69 69 69 69 69 69 69 69 69 69 69 69 69 69 69 69 69 69 69 69 69 69 69 69 69 69 69 69 69 69 69 69 69 69 69 69 69 69 69 69 69 69 69 69 69 69 69 69 69 69 69 69 69 69 69 69 69 69 69 69 69 69 69 69 69 69 69 69 69 69 69 69 69 69 69 69 69 69 69 69 69 69 69 69 69 69 69 69 69 69 69 69 69 69 69 69 69 69 69 69 69 69 69 69 69 69 69 69 69 69 69 69 69 69 69 69 69 69 69 69 69 69 69 69 69 69 69 69 69 69 69 69 69 69 69 69 69 69 69 69 69 69 69 69 69 69 69 69 69 69 69 69 69 69 69 69 69 69 69 69 69 69 69 69 69 69 69 69 69 69 69 69 69 69 69 69 69 69 69 69 69 69 69 69 69 69 69 69 69 69 69 69 69 69 69 69 69 69 69 69 69 69 69 69 69 69 69 69 69 69 69 69 69 69 69 69 69 69 69 69 69 69 69 69 69 69 69 69 69 69 69 69 69 69 69 69 69 69 69 69 69 69 69 69 69 69 69 69 69 69 69 69 69 69 69 69 69 69 69 69 69 69 69 69 69 69 69 69 69 69 69 69 69 69 69 69 69 69 69 69 69 69 69 69 69 69 69 69 69 69 69 69 69 69 69 69 69 69 69 69 69 69 69 69 69 69 69 69 69 69 69 69 69 69 69 69 69 69 69 69 69 69 69 69 69 69 69 69 69 69 69 69 69 69 69 69 69 69 69 69 69 69 69 69 69 69 69 69 69 69 69 69 69 69 69 69 69 69 69 69 69 69 69 69 69 69 69 69 69 69 69 69 69 69 69 69 69 69 69 69 69 69 69 69 69 69 69 69 69 69 69 69 69 69 69 69 69 69 69 69 69 69 69 69 69 69 69 69 69 69 69 69 69 69 69 69 69 69 69 69 69 69 69 69 69 69 69 69 69 69 69 69 69 69 69 69 69 69 69 69 69 69 69 69 69 69 69 69 69 69 69 69 69 69 69 69 69 69 69 69 69 69 69 69 69 69 69 69 69 69 69 69 69 69 69 69 69 69 69 69 69 69 69 69 69 69 69 69 69 69 69 69 69 69 69 69 69 69 69 69 69 69 69 69 69 69 69 69 69 69 69 69 69 69 69 69 69 69 69 69 69 69 69 69 69 69 69 69 69 69 69 69 69 69 69 69 69 69 69 69 69 69 69 69 69 69 69 69 69 69 69 69 69 69 69 69 69 69 69 69 69 69 69 69 69 69 69 69 69 69 69 69 69 69 69 69 69 69 69 69 69 69 69 69 69 69 69 69 69 69 69 69 69 69 69 69 69 69 69 69 69 69 69 69 69 69 69 69 69 69 69 69 69 69 69 69 69 69 69 69 69 69 69 69 69 69 69 69 69 69 69 69 69 69 69 69 69 69 69 69 69 69 69 69 69 69 69 69 69 69 69 69 69 69 69 69 69 69 69 69 69 69 69 69 69 69 69 69 69 69 69 69 69 69 69 69 69 69 69 69 69 69 69 69 69 69 69 69 69 69 69 69 69 69 69 69 69 69 69 69 69 69 69 69 69 69 69 69 69 69 69 69 69 69 69 69 69 69 69 69 69 69 69 69 69 69 69 69 69 69 69 69 69 69 69 69 69 69 69 69 69 69 69 69 69 69 69 69 69 69 69 69 69 69 69 69 69 69 69 69 69 69 69 69 69 69 69 69 69 69 69 69 69 69 69 69 69 69 69 69 69 69 69 69 69 69 69 69 69 69 69 69 69 69 69 69 69 69 69 69 69 69 69 69 69 69 69 69 69 69 69 69 69 69 69 69 69 69 69 69 69 69 69 69 69 69 69 69 69 69 69 69 69 69 69 69 69 69 69 69 69 69 69 69 69 69 69 69 69 69 69 69 69 69 69 69 69 69 69 69 69 69 69 69 69 69 69 69 69 69 69 69 69 69 69 69 69 69 69 69 69 69 69 69 69 69 69 69 69 69 69 69 69 69 69 69 69 69 69 69 69 69 69 69 69 69 69 69 69 69 69 69 69 69 69 69 69 69 69 69 69 69 69 69 69 69 69 69 69 69 69 69 69 69 69 69 69 69 69 69 69 69 69 69 69 69 69 69 69 69 69 69 69 69 69 69 69 69 69 69 69 69 69 69 69 69 69 69 69 69 69 69 69 69 69 69 69 69 69 69 69 69 69 69 69 69 69 69 69 69 69 69 69 69 69 69 69 69 69 69 69 69 69 69 69 69 69 69 69 69 69 69 69 69 69 69 69 69 69 69 69 69 69 69 69 69 69 69 69 69 69 69 69 69 69 69 69 69 69 69 69 69 69 69 69 69 69 69 69 69 69 69 69 69 69 69 69 69 69 69 69 69 69 69 69 69 69 69 69 69 69 69 69 69 69 69 69 69 69 69 69 69 69 69 69 69 69 69 69 69 69 69 69 69 69 69 69 69 69 69 69 69 69 69 69 69 69 69 69 69 69 69 69 69 69 69 69 69 69 69 69 69 69 69 69 69 69 69 69 69 69 69 69 69 69 69 69 69 69 69 69 69 69 69 69 69 69 69 69 69 69 69 69 69 69 69 69 69 69 69 69 69 69 69 69 69 69 69 69 69 69 69 69 69 69 69 69 69 69 69 69 69 69 69 69 69 69 69 69 69 69 69 69 69 69 69 69 69 69 69 69 69 69 69 69 69 69 69 69 69 69 69 69 69 69 69 69 69 69 69 69 69 69 69 69 69 69 69 69 69 69 69 69 69 69 69 69 69 69 69 69 69 69 69 69 69 69 69 69 69 69 69 69 69 69 69 69 69 69 69 69 69 69 69 69 69 69 69 69 69 69 69 69 69 69 69 69 69 69 69 69 69 69 69 69 69 69 69 69 69 69 69 69 69 69 69 69 69 69 69 69 69 69 69 69 69 69 69 69 69 69 69 69 69 69 69 69 69 69 69 69 69 69 69 69 69 69 69 69 69 69 69 69 69 69 69 69 69 69 69 69 69 69 69 69 69 69 69 69 69 69 69 69 69 69 69 69 69 69 69 69 69 69 69 69 69 69 69 69 69 69 69 69 69 69 69 69 69 69 69 69 69 69 69 69 69 69 69 69 69 69 69 69 69 69 69 69 69 69 69 69 69 69 69 69 69 69 69 69 69 69 69 69 69 69 69 69 69 69 69 69 69 69 69 69 69 69 69 69 69 69 69 69 69 69 69 69 69 69 69 69 69 69 69 69 69 69 69 69 69 69 69 69 69 69 69 69 69 69 69 69 69 69 69 69 69 69 69 69 69 69 69 69 69 69 69 69 69 69 69 69 69 69 69 69 69 69 69 69 69 69 69 69 69 69 69 69 69 69 69 69 69 69 69 69 69 69 69 69 69 69 69 69 69 69 69 69 69 69 69 69 69 69 69 69 69 69 69 69 69 69 69 69 69 69 69 69 69 69 69 69 69 69 69 69 69 69 69 69 69 69 69 69 69 69 69 69 69 69 69 69 69 69 69 69 69 69 69 69 69 69 69 69 69 69 69 69 69 69 69 69 69 69 69 69 69 69 69 69 69 69 69 69 69 69 69 69 69 69 69 69 69 69 69 69 69 69 69 69 69 69 69 69 69 69 69 69 69 69 69 69 69 69 69 69 69 69 69 69 69 69 69 69 69 69 69 69 69 69 69 69 69 69 69 69 69 69 69 69 69 69 69 69 69 69 69 69 69 69 69 69 69 69 69 69 69 69 69 69 69 69 69 69 69 69 69 69 69 69 69 69 69 69 69 69 69 69 69 69 69 69 69 69 69 69 69 69 69 69 69 69 69 69 69 69 69 69 69 69 69 69 69 69 69 69 69 69 69 69 69 69 69 69 69 69 69 69 69 69 69 69 69 69 69 69 69 69 69 69 69 69 69 69 69 69 69 69 69 69 69 69 69 69 69 69 69 69 69 69 69 69 69 69 69 69 69 69 69 69 69 69 69 69 69 69 69 69 69 69 69 69 69 69 69 69 69 69 69 69 69 69 69 69 69 69 69 69 69 69 69 69 69 69 69 69 69 69 69 69 69 69 69 69 69 69 69 69 69 69 69 69 69 69 69 69 69 69 69 69 69 69 69 69 69 69 69 69 69 69 69 69 69 69 69 69 69 69 69 69 69 69 69 69 69 69 69 69 69 69 69 69 69 69 69 69 69 69 69 69 69 69 69 69 69 69 69 69 69 69 69 69 69 69 69 69 69 69 69 69 69 69 69 69 69 69 69 69 69 69 69 69 69 69 69 69 69 69 69 69 69 69 69 69 69 69 69 69 69 69 69 69 69 69 69 69 69 69 69 69 69 69 69 69 69 69 69 69 69 69 69 69 69 69 69 69 69 69 69 69 69 69 69 69 69 69 69 69 69 69 69 69 69 69 69 69 69 69 69 69 69 69 69 69 69 69 69 69 69 69 69 69 69 69 69 69 69 69 69 69 69 69 69 69 69 69 69 69 69 69 69 69 69 69 69 69 69 69 69 69 69 69 69 69 69 69 69 69 69 69 69 69 69 69 69 69 69 69 69 69 69 69 69 69 69 69 69 69 69 69 69 69 69 69 69 69 69 69 69 69 69 69 69 69 69 69 69 69 69 69 69 69 69 69 69 69 69 69 69 69 69 69 69 69 69 69 69 69 69 69 69 69 69 69 69 69 69 69 69 69 69 69 69 69 69 69 69 69 69 69 69 69 69 69 69 69 69 69 69 69 69 69 69 69 69 69 69 69 69 69 69 69 69 69 69 69 69 69 69 69 69 69 69 69 69 69 69 69 69 69 69 69 69 69 69 69 69 69 69 69 69 69 69 69 69 69 69 69 69 69 69 69 69 69 69 69 69 69 69 69 69 69 69 69 69 69 69 69 69 69 69 69 69 69 69 69 69 69 69 69 69 69 69 69 69 69 69 69 69 69 69 69 69 69 69 69 69 69 69 69 69 69 69 69 69 69 69 69 69 69 69 69 69 69 69 69 69 69 69 69 69 69 69 69 69 69 69 69 69 69 69 69 69 69 69 69 69 69 69 69 69 69 69 69 69 69 69 69 69 69 69 69 69 69 69 69 69 69 69 69 69 69 69 69 69 69 69 69 69 69 69 69 69 69 69 69 69 69 69 69 69 69 69 69 69 69 69 69 69 69 69 69 69 69 69 69 69 69 69 69 69 69 69 69 69 69 69 69 69 69 69 69 69 69 69 69 69 69 69 69 69 69 69 69 69 69 69 69 69 69 69 69 69 69 69 69 69 69 69 69 69 69 69 69 69 69 69 69 69 69 69 69 69 69 69 69 69 69 69 69 69 69 69 69 69 69 69 69 69 69 69 69 69 69 69 69 69 69 69 69 69 69 69 69 69 69 69 69 69 69 69 69 69 69 69 69 69 69 69 69 69 69 69 69 69 69 69 69 69 69 69 69 69 69 69 69 69 69 69 69 69 69 69 69 69 69 69 69 69 69 69 69 69 69 69 69 69 69 69 69 69 69 69 69 69 69 69 69 69 69 69 69 69 69 69 69 69 69 69 69 69 69 69 69 69 69 69 69 69 69 69 69 69 69 69 69 69 69 69 69 69 69 69 69 69 69 69 69 69 69 69 69 69 69 69 69 69 69 69 69 69 69 69 69 69 69 69 69 69 69 69 69 69 69 69 69 69 69 69 69 69 69 69 69 69 69 69 69 69 69 69 69 69 69 69 69 69 69 69 69 69 69 69 69 69 69 69 69 69 69 69 69 69 69 69 69 69 69 69 69 69 69 69 69 69 69 69 69 69 69 69 69 69 69 69 69 69 69 69 69 69 69 69 69 69 69 69 69 69 69 69 69 69 69 69 69 69 69 69 69 69 69 69 69 69 69 69 69 69 69 69 69 69 69 69 69 69 69 69 69 69 69 69 69 69 69 69 69 69 69 69 69 69 69 69 69 69 69 69 69 69 69 69 69 69 69 69 69 69 69 69 69 69 69 69 69 69 69 69 69 69 69 69 69 69 69 69 69 69 69 69 69 69 69 69 69 69 69 69 69 69 69 69 69 69 69 69 69 69 69 69 69 69 69 69 69 69 69 69 69 69 69 69 69 69 69 69 69 69 69 69 69 69 69 69 69 69 69 69 69 69 69 69 69 69 69 69 69 69 69 69 69 69 69 69 69 69 69 69 69 69 69 69 69 69 69 69 69 69 69 69 69 69 69 69 69 69 69 69 69 69 69 69 69 69 69 69 69 69 69 69 69 69 69 69 69 69 69 69 69 69 69 69 69 69 69 69 69 69 69 69 69 69 69 69 69 69 69 69 69 69 69 69 69 69 69 69 69 69 69 69 69 69 69 69 69 69 69 69 69 69 69 69 69 69 69 69 69 69 69 69 69 69 69 69 69 69 69 69 69 69 69 69 69 69 69 69 69 69 69 69 69 69 69 69 69 69 69 69 69 69 69 69 69 69 69 69 69 69 69 69 69 69 69 69 69 69 69 69 69 69 69 69 69 69 69 69 69 69 69 69 69 69 69 69 69 69 69 69 69 69 69 69 69 69 69 69 69 69 69 69 69 69 69 69 69 69 69 69 69 69 69 69 69 69 69 69 69 69 69 69 69 69 69 69 69 69 69 69 69 69 69 69 69 69 69 69 69 69 69 69 69 69 69 69 69 69 69 69 69 69 69 69 69 69 69 69 69 69 69 69 69 69 69 69 69 69 69 69 69 69 69 69 69 69 69 69 69 69 69 69 69 69 69 69 69 69 69 69 69 69 69 69 69 69 69 69 69 69 69 69 69 69 69 69 69 69 69 69 69 69 69 69 69 69 69 69 69 69 69 69 69 69 69 69 69 69 69 69 69 69 69 69 69 69 69 69 69 69 69 69 69 69 69 69 69 69 69 69 69 69 69 69 69 69 69 69 69 69 69 69 69 69 69 69 69 69 69 69 69 69 69 69 69 69 69 69 69 69 69 69 69 69 69 69 69 69 69 69 69 69 69 69 69 69 69 69 69 69 69 69 69 69 69 69 69 69 69 69 69 69 69 69 69 69 69 69 69 69 69 69 69 69 69 69 69 69 69 69 69 69 69 69 69 69 69 69 69 69 69 69 69 69 69 69 69 69 69 69 69 69 69 69 69 69 69 69 69 69 69 69 69 69 69 69 69 69 69 69 69 69 69 69 69 69 69 69 69 69 69 69 </DataArray>
      </Cells>
      <CellData Tensors="stress">
        <DataArray type="UInt8" Name="vtkGhostType" format="ascii" RangeMin="0" RangeMax="1">0 0 0 0 0 0 0 0 0 0 0 0 0 0 0 0 0 0 0 0 0 0 0 0 0 0 0 0 0 0 0 0 0 0 0 0 0 0 0 0 0 0 0 0 0 0 0 0 0 0 0 0 0 0 0 0 0 0 0 0 0 0 0 0 0 0 0 0 0 0 0 0 0 0 0 0 0 0 0 0 0 0 0 0 0 0 0 0 0 0 0 0 0 0 0 0 0 0 0 0 0 0 0 0 0 0 0 0 0 0 0 0 0 0 0 0 0 0 0 0 0 0 0 0 0 0 0 0 0 0 0 0 0 0 0 0 0 0 0 0 0 0 0 0 0 0 0 0 0 0 0 0 0 0 0 0 0 0 0 0 0 0 0 0 0 0 0 0 0 0 0 0 0 0 0 0 0 0 0 0 0 0 0 0 0 0 0 0 0 0 0 0 0 0 0 0 0 0 0 0 0 0 0 0 0 0 0 0 0 0 0 0 0 0 0 0 0 0 0 0 0 0 0 0 0 0 0 0 0 0 0 0 0 0 0 0 0 0 0 0 0 0 0 0 0 0 0 0 0 0 0 0 0 0 0 0 0 0 0 0 0 0 0 0 0 0 0 0 0 0 0 0 0 0 0 0 0 0 0 0 0 0 0 0 0 0 0 0 0 0 0 0 0 0 0 0 0 0 0 0 0 0 0 0 0 0 0 0 0 0 0 0 0 0 0 0 0 0 0 0 0 0 0 0 0 0 0 0 0 0 0 0 0 0 0 0 0 0 0 0 0 0 0 0 0 0 0 0 0 0 0 0 0 0 0 0 0 0 0 0 0 0 0 0 0 0 0 0 0 0 0 0 0 0 0 0 0 0 0 0 0 0 0 0 0 0 0 0 0 0 0 0 0 0 0 0 0 0 0 0 0 0 0 0 0 0 0 0 0 0 0 0 0 0 0 0 0 0 0 0 0 0 0 0 0 0 0 0 0 0 0 0 0 0 0 0 0 0 0 0 0 0 0 0 0 0 0 0 0 0 0 0 0 0 0 0 0 0 0 0 0 0 0 0 0 0 0 0 0 0 0 0 0 0 0 0 0 0 0 0 0 0 0 0 0 0 0 0 0 0 0 0 0 0 0 0 0 0 0 0 0 0 0 0 0 0 0 0 0 0 0 0 0 0 0 0 0 0 0 0 0 0 0 0 0 0 0 0 0 0 0 0 0 0 0 0 0 0 0 0 0 0 0 0 0 0 0 0 0 0 0 0 0 0 0 0 0 0 0 0 0 0 0 0 0 0 0 0 0 0 0 0 0 0 0 0 0 0 0 0 0 0 0 0 0 0 0 0 0 0 0 0 0 0 0 0 0 0 0 0 0 0 0 0 0 0 0 0 0 0 0 0 0 0 0 0 0 0 0 0 0 0 0 0 0 0 0 0 0 0 0 0 0 0 0 0 0 0 0 0 0 0 0 0 0 0 0 0 0 0 0 0 0 0 0 0 0 0 0 0 0 0 0 0 0 0 0 0 0 0 0 0 0 0 0 0 0 0 0 0 0 0 0 0 0 0 0 0 0 0 0 0 0 0 0 0 0 0 0 0 0 0 0 0 0 0 0 0 0 0 0 0 0 0 0 0 0 0 0 0 0 0 0 0 0 0 0 0 0 0 0 0 0 0 0 0 0 0 0 0 0 0 0 0 0 0 0 0 0 0 0 0 0 0 0 0 0 0 0 0 0 0 0 0 0 0 0 0 0 0 0 0 0 0 0 0 0 0 0 0 0 0 0 0 0 0 0 0 0 0 0 0 0 0 0 0 0 0 0 0 0 0 0 0 0 0 0 0 0 0 0 0 0 0 0 0 0 0 0 0 0 0 0 0 0 0 0 0 0 0 0 0 0 0 0 0 0 0 0 0 0 0 0 0 0 0 0 0 0 0 0 0 0 0 0 0 0 0 0 0 0 0 0 0 0 0 0 0 0 0 0 0 0 0 0 0 0 0 0 0 0 0 0 0 0 0 0 0 0 0 0 0 0 0 0 0 0 0 0 0 0 0 0 0 0 0 0 0 0 0 0 0 0 0 0 0 0 0 0 0 0 0 0 0 0 0 0 0 0 0 0 0 0 0 0 0 0 0 0 0 0 0 0 0 0 0 0 0 0 0 0 0 0 0 0 0 0 0 0 0 0 0 0 0 0 0 0 0 0 0 0 0 0 0 0 0 0 0 0 0 0 0 0 0 0 0 0 0 0 0 0 0 0 0 0 0 0 0 0 0 0 0 0 0 0 0 0 0 0 0 0 0 0 0 0 0 0 0 0 0 0 0 0 0 0 0 0 0 0 0 0 0 0 0 0 0 0 0 0 0 0 0 0 0 0 0 0 0 0 0 0 0 0 0 0 0 0 0 0 0 0 0 0 0 0 0 0 0 0 0 0 0 0 0 0 0 0 0 0 0 0 0 0 0 0 0 0 0 0 0 0 0 0 0 0 0 0 0 0 0 0 0 0 0 0 0 0 0 0 0 0 0 0 0 0 0 0 0 0 0 0 0 0 0 0 0 0 0 0 0 0 0 0 0 0 0 0 0 0 0 0 0 0 0 0 0 0 0 0 0 0 0 0 0 0 0 0 0 0 0 0 0 0 0 0 0 0 0 0 0 0 0 0 0 0 0 0 0 0 0 0 0 0 0 0 0 0 0 0 0 0 0 0 0 0 0 0 0 0 0 0 0 0 0 0 0 0 0 0 0 0 0 0 0 0 0 0 0 0 0 0 0 0 0 0 0 0 0 0 0 0 0 0 0 0 0 0 0 0 0 0 0 0 0 0 0 0 0 0 0 0 0 0 0 0 0 0 0 0 0 0 0 0 0 0 0 0 0 0 0 0 0 0 0 0 0 0 0 0 0 0 0 0 0 0 0 0 0 0 0 0 0 0 0 0 0 0 0 0 0 0 0 0 0 0 0 0 0 0 0 0 0 0 0 0 0 0 0 0 0 0 0 0 0 0 0 0 0 0 0 0 0 0 0 0 0 0 0 0 0 0 0 0 0 0 0 0 0 0 0 0 0 0 0 0 0 0 0 0 0 0 0 0 0 0 0 0 0 0 0 0 0 0 0 0 0 0 0 0 0 0 0 0 0 0 0 0 0 0 0 0 0 0 0 0 0 0 0 0 0 0 0 0 0 0 0 0 0 0 0 0 0 0 0 0 0 0 0 0 0 0 0 0 0 0 0 0 0 0 0 0 0 0 0 0 0 0 0 0 0 0 0 0 0 0 0 0 0 0 0 0 0 0 0 0 0 0 0 0 0 0 0 0 0 0 0 0 0 0 0 0 0 0 0 0 0 0 0 0 0 0 0 0 0 0 0 0 0 0 0 0 0 0 0 0 0 0 0 0 0 0 0 0 0 0 0 0 0 0 0 0 0 0 0 0 0 0 0 0 0 0 0 0 0 0 0 0 0 0 0 0 0 0 0 0 0 0 0 0 0 0 0 0 0 0 0 0 0 0 0 0 0 0 0 0 0 0 0 0 0 0 0 0 0 0 0 0 0 0 0 0 0 0 0 0 0 0 0 0 0 0 0 0 0 0 0 0 0 0 0 0 0 0 0 0 0 0 0 0 0 0 0 0 0 0 0 0 0 0 0 0 0 0 0 0 0 0 0 0 0 0 0 0 0 0 0 0 0 0 0 0 0 0 0 0 0 0 0 0 0 0 0 0 0 0 0 0 0 0 0 0 0 0 0 0 0 0 0 0 0 0 0 0 0 0 0 0 0 0 0 0 0 0 0 0 0 0 0 0 0 0 0 0 0 0 0 0 0 0 0 0 0 0 0 0 0 0 0 0 0 0 0 0 0 0 0 0 0 0 0 0 0 0 0 0 0 0 0 0 0 0 0 0 0 0 0 0 0 0 0 0 0 0 0 0 0 0 0 0 0 0 0 0 0 0 0 0 0 0 0 0 0 0 0 0 0 0 0 0 0 0 0 0 0 0 0 0 0 0 0 0 0 0 0 0 0 0 0 0 0 0 0 0 0 0 0 0 0 0 0 0 0 0 0 0 0 0 0 0 0 0 0 0 0 0 0 0 0 0 0 0 0 0 0 0 0 0 0 0 0 0 0 0 0 0 0 0 0 0 0 0 0 0 0 0 0 0 0 0 0 0 0 0 0 0 0 0 0 0 0 0 0 0 0 0 0 0 0 0 0 0 0 0 0 0 0 0 0 0 0 0 0 0 0 0 0 0 0 0 0 0 0 0 0 0 0 0 0 0 0 0 0 0 0 0 0 0 0 0 0 0 0 0 0 0 0 0 0 0 0 0 0 0 0 0 0 0 0 0 0 0 0 0 0 0 0 0 0 0 0 0 0 0 0 0 0 0 0 0 0 0 0 0 0 0 0 0 0 0 0 0 0 0 0 0 0 0 0 0 0 0 0 0 0 0 0 0 0 0 0 0 0 0 0 0 0 0 0 0 0 0 0 0 0 0 0 0 0 0 0 0 0 0 0 0 0 0 0 0 0 0 0 0 0 0 0 0 0 0 0 0 0 0 0 0 0 0 0 0 0 0 0 0 0 0 0 0 0 0 0 0 0 0 0 0 0 0 0 0 0 0 0 0 0 0 0 0 0 0 0 0 0 0 0 0 0 0 0 0 0 0 0 0 0 0 0 0 0 0 0 0 0 0 0 0 0 0 0 0 0 0 0 0 0 0 0 0 0 0 0 0 0 0 0 0 0 0 0 0 0 0 0 0 0 0 0 0 0 0 0 0 0 0 0 0 0 0 0 0 0 0 0 0 0 0 0 0 0 0 0 0 0 0 0 0 0 0 0 0 0 0 0 0 0 0 0 0 0 0 0 0 0 0 0 0 0 0 0 0 0 0 0 0 0 0 0 0 0 0 0 0 0 0 0 0 0 0 0 0 0 0 0 0 0 0 0 0 0 0 0 0 0 0 0 0 0 0 0 0 0 0 0 0 0 0 0 0 0 0 0 0 0 0 0 0 0 0 0 0 0 0 0 0 0 0 0 0 0 0 0 0 0 0 0 0 0 0 0 0 0 0 0 0 0 0 0 0 0 0 0 0 0 0 0 0 0 0 0 0 0 0 0 0 0 0 0 0 0 0 0 0 0 0 0 0 0 0 0 0 0 0 0 0 0 0 0 0 0 0 0 0 0 0 0 0 0 0 0 0 0 0 0 0 0 0 0 0 0 0 0 0 0 0 0 0 0 0 0 0 0 0 0 0 0 0 0 0 0 0 0 0 0 0 0 0 0 0 0 0 0 0 0 0 0 0 0 0 0 0 0 0 0 0 0 0 0 0 0 0 0 0 0 0 0 0 0 0 0 0 0 0 0 0 0 0 0 0 0 0 0 0 0 0 0 0 0 0 0 0 0 0 0 0 0 0 0 0 0 0 0 0 0 0 0 0 0 0 0 0 0 0 0 0 0 0 0 0 0 0 0 0 0 0 0 0 0 0 0 0 0 0 0 0 0 0 0 0 0 0 0 0 0 0 0 0 0 0 0 0 0 0 0 0 0 0 0 0 0 0 0 0 0 0 0 0 0 0 0 0 0 0 0 0 0 0 0 0 0 0 0 0 0 0 0 0 0 0 0 0 0 0 0 0 0 0 0 0 0 0 0 0 0 0 0 0 0 0 0 0 0 0 0 0 0 0 0 0 0 0 0 0 0 0 0 0 0 0 0 0 0 0 0 0 0 0 0 0 0 0 0 0 0 0 0 0 0 0 0 0 0 0 0 0 0 0 0 0 0 0 0 0 0 0 0 0 0 0 0 0 0 0 0 0 0 0 0 0 0 0 0 0 0 0 0 0 0 0 0 0 0 0 0 0 0 0 0 0 0 0 0 0 0 0 0 0 0 0 0 0 0 0 0 0 0 0 0 0 0 0 0 0 0 0 0 0 0 0 0 0 0 0 0 0 0 0 0 0 0 0 0 0 0 0 0 0 0 0 0 0 0 0 0 0 0 0 0 0 0 0 0 0 0 0 0 0 0 0 0 0 0 0 0 0 0 0 0 0 0 0 0 0 0 0 0 0 0 0 0 0 0 0 0 0 0 0 0 0 0 0 0 0 0 0 0 0 0 0 0 0 0 0 0 0 0 0 0 0 0 0 0 0 0 0 0 0 0 0 0 0 0 0 0 0 0 0 0 0 0 0 0 0 0 0 0 0 0 0 0 0 0 0 0 0 0 0 0 0 0 0 0 0 0 0 0 0 0 0 0 0 0 0 0 0 0 0 0 0 0 0 0 0 0 0 0 0 0 0 0 0 0 0 0 0 0 0 0 0 0 0 0 0 0 0 0 0 0 0 0 0 0 0 0 0 0 0 0 0 0 0 0 0 0 0 0 0 0 0 0 0 0 0 0 0 0 0 0 0 0 0 0 0 0 0 0 0 0 0 0 0 0 0 0 0 0 0 0 0 0 0 0 0 0 0 0 0 0 0 0 0 0 0 0 0 0 0 0 0 0 0 0 0 0 0 0 0 0 0 0 0 0 0 0 0 0 0 0 0 0 0 0 0 0 0 0 0 0 0 0 0 0 0 0 0 0 0 0 0 0 0 0 0 0 0 0 0 0 0 0 0 0 0 0 0 0 0 0 0 0 0 0 0 0 0 0 0 0 0 0 0 0 0 0 0 0 0 0 0 0 0 0 0 0 0 0 0 0 0 0 0 0 0 0 0 0 0 0 0 0 0 0 0 0 0 0 0 0 0 0 0 0 0 0 0 0 0 0 0 0 0 0 0 0 0 0 0 0 0 0 0 0 0 0 0 0 0 0 0 0 0 0 0 0 0 0 0 0 0 0 0 0 0 0 0 0 0 0 0 0 0 0 0 0 0 0 0 0 0 0 0 0 0 0 0 0 0 0 0 0 0 0 0 0 0 0 0 0 0 0 0 0 0 0 0 0 0 0 0 0 0 0 0 0 0 0 0 0 0 0 0 0 0 0 0 0 0 0 0 0 0 0 0 0 0 0 0 0 0 0 0 0 0 0 0 0 0 0 0 0 0 0 0 0 0 0 0 0 0 0 0 0 0 0 0 0 0 0 0 0 0 0 0 0 0 0 0 0 0 0 0 0 0 0 0 0 0 0 0 0 0 0 0 0 0 0 0 0 0 0 0 0 0 0 0 0 0 0 0 0 0 0 0 0 0 0 0 0 0 0 0 0 0 0 0 0 0 0 0 0 0 0 0 0 0 0 0 0 0 0 0 0 0 0 0 0 0 0 0 0 0 0 0 0 0 0 0 0 0 0 0 0 0 0 0 0 0 0 0 0 0 0 0 0 0 0 0 0 0 0 0 0 0 0 0 0 0 0 0 0 0 0 0 0 0 0 0 0 0 0 0 0 0 0 0 0 0 0 0 0 0 0 0 0 0 0 0 0 0 0 0 0 0 0 0 0 0 0 0 0 0 0 0 0 0 0 0 0 0 0 0 0 0 0 0 0 0 0 0 0 0 0 0 0 0 0 0 0 0 0 0 0 0 0 0 0 0 0 0 0 0 0 0 0 0 0 0 0 0 0 0 0 0 0 0 0 0 0 0 0 0 0 0 0 0 0 0 0 0 0 0 0 0 0 0 0 0 0 0 0 0 0 0 0 0 0 0 0 0 0 0 0 0 0 0 0 0 0 0 0 0 0 0 0 0 0 0 0 0 0 0 0 0 0 0 0 0 0 0 0 0 0 0 0 0 0 0 0 0 0 0 0 0 0 0 0 0 0 0 0 0 0 0 0 0 0 0 0 0 0 0 0 0 0 0 0 0 0 0 0 0 0 0 0 0 0 0 0 0 0 0 0 0 0 0 0 0 0 0 0 0 0 0 0 0 0 0 0 0 0 0 0 0 0 0 0 0 0 0 0 0 0 0 0 0 0 0 0 0 0 0 0 0 0 0 0 0 0 0 0 0 0 0 0 0 0 0 0 0 0 0 0 0 0 0 0 0 0 0 0 0 0 0 0 0 0 0 0 0 0 0 0 0 0 0 0 0 0 0 0 0 0 0 0 0 0 0 0 0 0 0 0 0 0 0 0 0 0 0 0 0 0 0 0 0 0 0 0 0 0 0 0 0 0 0 0 0 0 0 0 0 0 0 0 0 0 0 0 0 0 0 0 0 0 0 0 0 0 0 0 0 0 0 0 0 0 0 0 0 0 0 0 0 0 0 0 0 0 0 0 0 0 0 0 0 0 0 0 0 0 0 0 0 0 0 0 0 0 0 0 0 0 0 0 0 0 0 0 0 0 0 0 0 0 0 0 0 0 0 0 0 0 0 0 0 0 0 0 0 0 0 0 0 0 0 0 0 0 0 0 0 0 0 0 0 0 0 0 0 0 0 0 0 0 0 0 0 0 0 0 0 0 0 0 0 0 0 0 0 0 0 0 0 0 0 0 0 0 0 0 0 0 0 0 0 0 0 0 0 0 0 0 0 0 0 0 0 0 0 0 0 0 0 0 0 0 0 0 0 0 0 0 0 0 0 0 0 0 0 0 0 0 0 0 0 0 0 0 0 0 0 0 0 0 0 0 0 0 0 0 0 0 0 0 0 0 0 0 0 0 0 0 0 0 0 0 0 0 0 0 0 0 0 0 0 0 0 0 0 0 0 0 0 0 0 0 0 0 0 0 0 0 0 0 0 0 0 0 0 0 0 0 0 0 0 0 0 0 0 0 0 0 0 0 0 0 0 0 0 0 0 0 0 0 0 0 0 0 0 0 0 0 0 0 0 0 0 0 0 0 0 0 0 0 0 0 0 0 0 0 0 0 0 0 0 0 0 0 0 0 0 0 0 0 0 0 0 0 0 0 0 0 0 0 0 0 0 0 0 0 0 0 0 0 0 0 0 0 0 0 0 0 0 0 0 0 0 0 0 0 0 0 0 0 0 0 0 0 0 0 0 0 0 0 0 0 0 0 0 0 0 0 0 0 0 0 0 0 0 0 0 0 0 0 0 0 0 0 0 0 0 0 0 0 0 0 0 0 0 0 0 0 0 0 0 0 0 0 0 0 0 0 0 0 0 0 0 0 0 0 0 0 0 0 0 0 0 0 0 0 0 0 0 0 0 0 0 0 0 0 0 0 0 0 0 0 0 0 0 0 0 0 0 0 0 0 0 0 0 0 0 0 0 0 0 0 0 0 0 0 0 0 0 0 0 0 0 0 0 0 0 0 0 0 0 0 0 0 0 0 0 0 0 0 0 0 0 0 0 0 0 0 0 0 0 0 0 0 0 0 0 0 0 0 0 0 0 0 0 0 0 0 0 0 0 0 0 0 0 0 0 0 0 0 0 0 0 0 0 0 0 0 0 0 0 0 0 0 0 0 0 0 0 0 0 0 0 0 0 0 0 0 0 0 0 0 0 0 0 0 0 0 0 0 0 0 0 0 0 0 0 0 0 0 0 0 0 0 0 0 0 0 0 0 0 0 0 0 0 0 0 0 0 0 0 0 0 0 0 0 0 0 0 0 0 0 0 0 0 0 0 0 0 0 0 0 0 0 0 0 0 0 0 0 0 0 0 0 0 0 0 0 0 0 0 0 0 0 0 0 0 0 0 0 0 0 0 0 0 0 0 0 0 0 0 0 0 0 0 0 0 0 0 0 0 0 0 0 0 0 0 0 0 0 0 0 0 0 0 0 0 0 0 0 0 0 0 0 0 0 0 0 0 0 0 0 0 0 0 0 0 0 0 0 0 0 0 0 0 0 0 0 0 0 0 0 0 0 0 0 0 0 0 0 0 0 0 0 0 0 0 0 0 0 0 0 0 0 0 0 0 0 0 0 0 0 0 0 0 0 0 0 0 0 0 0 0 0 0 0 0 0 0 0 0 0 0 0 0 0 0 0 0 0 0 0 0 0 0 0 0 0 0 0 0 0 0 0 0 0 0 0 0 0 0 0 0 0 0 0 0 0 0 0 0 0 0 0 0 0 0 0 0 0 0 0 0 0 0 0 0 0 0 0 0 0 0 0 0 0 0 0 0 0 0 0 0 0 0 0 0 0 0 0 0 0 0 0 0 0 0 0 0 0 0 0 0 0 0 0 0 0 0 0 0 0 0 0 0 0 0 0 0 0 0 0 0 0 0 0 0 0 0 0 0 0 0 0 0 0 0 0 0 0 0 0 0 0 0 0 0 0 0 0 0 0 0 0 0 0 0 0 0 0 0 0 0 0 0 0 0 0 0 0 0 0 0 0 0 0 0 0 0 0 0 0 0 0 0 0 0 0 0 0 0 0 0 0 0 0 0 0 0 0 0 0 0 0 0 0 0 0 0 0 0 0 0 0 0 0 0 0 0 0 0 0 0 0 0 0 0 0 0 0 0 0 0 0 0 0 0 0 0 0 0 0 0 0 0 0 0 0 0 0 0 0 0 0 0 0 0 0 0 0 0 0 0 0 0 0 0 0 0 0 0 0 0 0 0 0 0 0 0 0 0 0 0 0 0 0 0 0 0 0 0 0 0 0 0 0 0 0 0 0 0 0 0 0 0 0 0 0 0 0 0 0 0 0 0 0 0 0 0 0 0 0 0 0 0 0 0 0 0 0 0 0 0 0 0 0 0 0 0 0 0 0 0 0 0 0 0 0 0 0 0 0 0 0 0 0 0 0 0 0 0 0 0 0 0 0 0 0 0 0 0 0 0 0 0 0 0 0 0 0 0 0 0 0 0 0 0 0 0 0 0 0 0 0 0 0 0 0 0 0 0 0 0 0 0 0 0 0 0 0 0 0 0 0 0 0 0 0 0 0 0 0 0 0 0 0 0 0 0 0 0 0 0 0 0 0 0 0 0 0 0 0 0 0 0 0 0 0 0 0 0 0 0 0 0 0 0 0 0 0 0 0 0 0 0 0 0 0 0 0 0 0 0 0 0 0 0 0 0 0 0 0 0 0 0 0 0 0 0 0 0 0 0 0 0 0 0 0 0 0 0 0 0 0 0 0 0 0 0 0 0 0 0 0 0 0 0 0 0 0 0 0 0 0 0 0 0 0 0 0 0 0 0 0 0 0 0 0 0 0 0 0 0 0 0 0 0 0 0 0 0 0 0 0 0 0 0 0 0 0 0 0 0 0 0 0 0 0 0 0 0 0 0 0 0 0 0 0 0 0 0 0 0 0 0 0 0 0 0 0 0 0 0 0 0 0 0 0 0 0 0 0 0 0 0 0 0 0 0 0 0 0 0 0 0 0 0 0 0 0 0 0 0 0 0 0 0 0 0 0 0 0 0 0 0 0 0 0 0 0 0 0 0 0 0 0 0 0 0 0 0 0 0 0 0 0 0 0 0 0 0 0 0 0 0 0 0 0 0 0 0 0 0 0 0 0 0 0 0 0 0 0 0 0 0 0 0 0 0 0 0 0 0 0 0 0 0 0 0 0 0 0 0 0 0 0 0 0 0 0 0 0 0 0 0 0 0 0 0 0 0 0 0 0 0 0 0 0 0 0 0 0 0 0 0 0 0 0 0 0 0 0 0 0 0 0 0 0 0 0 0 0 0 0 0 0 0 0 0 0 0 0 0 0 0 0 0 0 0 0 0 0 0 0 0 0 0 0 0 0 0 0 0 0 0 0 0 0 0 0 0 0 0 0 0 0 0 0 0 0 0 0 0 0 0 0 0 0 0 0 0 0 0 0 0 0 0 0 0 0 0 0 0 0 0 0 0 0 0 0 0 0 0 0 0 0 0 0 0 0 0 0 0 0 0 0 0 0 0 0 0 0 0 0 0 0 0 0 0 0 0 0 0 0 0 0 0 0 0 0 0 0 0 0 0 0 0 0 0 0 0 0 0 0 0 0 0 0 0 0 0 0 0 0 0 0 0 0 0 0 0 0 0 0 0 0 0 0 0 0 0 0 0 0 0 0 0 0 0 0 0 0 0 0 0 0 0 0 0 0 0 0 0 0 0 0 0 0 0 0 0 0 0 0 0 0 0 0 0 0 0 0 0 0 0 0 0 0 0 0 0 0 0 0 0 0 0 0 0 0 0 0 0 0 0 0 0 0 0 0 0 0 0 0 0 0 0 0 0 0 0 0 0 0 0 0 0 0 0 0 0 0 0 0 0 0 0 0 0 0 0 0 0 0 0 0 0 0 0 0 0 0 0 0 0 0 0 0 0 0 0 0 0 0 0 0 0 0 0 0 0 0 0 0 0 0 0 0 0 0 0 0 0 0 0 0 0 0 0 0 0 0 0 0 0 0 0 0 0 0 0 0 0 0 0 0 0 0 0 0 0 0 0 0 0 0 0 0 0 0 0 0 0 0 0 0 0 0 0 0 0 0 0 0 0 0 0 0 0 0 0 0 0 0 0 0 0 0 0 0 0 0 0 0 0 0 0 0 0 0 0 0 0 0 0 0 0 0 0 0 0 0 0 0 0 0 0 0 0 0 0 0 0 0 0 0 0 0 0 0 0 0 0 0 0 0 0 0 0 0 0 0 0 0 0 0 0 0 0 0 0 0 0 0 0 0 0 0 0 0 0 0 0 0 0 0 0 0 0 0 0 0 0 0 0 0 0 0 0 0 0 0 0 0 0 0 0 0 0 0 0 0 0 0 0 0 0 0 0 0 0 0 0 0 0 0 0 0 0 0 0 0 0 0 0 0 0 0 0 0 0 0 0 0 0 0 0 0 0 0 0 0 0 0 0 0 0 0 0 0 0 0 0 0 0 0 0 0 0 0 0 0 0 0 0 0 0 0 0 0 0 0 0 0 0 0 0 0 0 0 0 0 0 0 0 0 0 0 0 0 0 0 0 0 0 0 0 0 0 0 0 0 0 0 0 0 0 0 0 0 0 0 0 0 0 0 0 0 0 0 0 0 0 0 0 0 0 0 0 0 0 0 0 0 0 0 0 0 0 0 0 0 0 0 0 0 0 0 0 0 0 0 0 0 0 0 0 0 0 0 0 0 0 0 0 0 0 0 0 0 0 0 0 0 0 0 0 0 0 0 0 0 0 0 0 0 0 0 0 0 0 0 0 0 0 0 0 0 0 0 0 0 0 0 0 0 0 0 0 0 0 0 0 0 0 0 0 0 0 0 0 0 0 0 0 0 0 0 0 0 0 0 0 0 0 0 0 0 0 0 0 0 0 0 0 0 0 0 0 0 0 0 0 0 0 0 0 0 0 0 0 0 0 0 0 0 0 0 0 0 0 0 0 0 0 0 0 0 0 0 0 0 0 0 0 0 0 0 0 0 0 0 0 0 0 0 0 0 0 0 0 0 0 0 0 0 0 0 0 0 0 0 0 0 0 0 0 0 0 0 0 0 0 0 0 0 0 0 0 0 0 0 0 0 0 0 0 0 0 0 0 0 0 0 0 0 0 0 0 0 0 0 0 0 0 0 0 0 0 0 0 0 0 0 0 0 0 0 0 0 0 0 0 0 0 0 0 0 0 0 0 0 0 0 0 0 0 0 0 0 0 0 0 0 0 0 0 0 0 0 0 0 0 0 0 0 0 0 0 0 0 0 0 0 0 0 0 0 0 0 0 0 0 0 0 0 0 0 0 0 0 0 0 0 0 0 0 0 0 0 0 0 0 0 0 0 0 0 0 0 0 0 0 0 0 0 0 0 0 0 0 0 0 0 0 0 0 0 0 0 0 0 0 0 0 0 0 0 0 0 0 0 0 0 0 0 0 0 0 0 0 0 0 0 0 0 0 0 0 0 0 0 0 0 0 0 0 0 0 0 0 0 0 0 0 0 0 0 0 0 0 0 0 0 0 0 0 0 0 0 0 0 0 0 0 0 0 0 0 0 0 0 0 0 0 0 0 0 0 0 0 0 0 0 0 0 0 0 0 0 0 0 0 0 0 0 0 0 0 0 0 0 0 0 0 0 0 0 0 0 0 0 0 0 0 0 0 0 0 0 0 0 0 0 0 0 0 0 0 0 0 0 0 0 0 0 0 0 0 0 0 0 0 0 0 0 0 0 0 0 0 0 0 0 0 0 0 0 0 0 0 0 0 0 0 0 0 0 0 0 0 0 0 0 0 0 0 0 0 0 0 0 0 0 0 0 0 0 0 0 0 0 0 0 0 0 0 0 0 0 0 0 0 0 0 0 0 0 0 0 0 0 0 0 0 0 0 0 0 0 0 0 0 0 0 0 0 0 0 0 0 0 0 0 0 0 0 0 0 0 0 0 0 0 0 0 0 0 0 0 0 0 0 0 0 0 0 0 0 0 0 0 0 0 0 0 0 0 0 0 0 0 0 0 0 0 0 0 0 0 0 0 0 0 0 0 0 0 0 0 0 0 0 0 0 0 0 0 0 0 0 0 0 0 0 0 0 0 0 0 0 0 0 0 0 0 0 0 0 0 0 0 0 0 0 0 0 0 0 0 0 0 0 0 0 0 0 0 0 0 0 0 0 0 0 0 0 0 0 0 0 0 0 0 0 0 0 0 0 0 0 0 0 0 0 0 0 0 0 0 0 0 0 0 0 0 0 0 0 0 0 0 0 0 0 0 0 0 0 0 0 0 0 0 0 0 0 0 0 0 0 0 0 0 0 0 0 0 0 0 0 0 0 0 0 0 0 0 0 0 0 0 0 0 0 0 0 0 0 0 0 0 0 0 0 0 0 0 0 0 0 0 0 0 0 0 0 0 0 0 0 0 0 0 0 0 0 0 0 0 0 0 0 0 0 0 0 0 0 0 0 0 0 0 0 0 0 0 0 0 0 0 0 0 0 0 0 0 0 0 0 0 0 0 0 0 0 0 0 0 0 0 0 0 0 0 0 0 0 0 0 0 0 0 0 0 0 0 0 0 0 0 0 0 0 0 0 0 0 0 0 0 0 0 0 0 0 0 0 0 0 0 0 0 0 0 0 0 0 0 0 0 0 0 0 0 0 0 0 0 0 0 0 0 0 0 0 0 0 0 0 0 0 0 0 0 0 0 0 0 0 0 0 0 0 0 0 0 0 0 0 0 0 0 0 0 0 0 0 0 0 0 0 0 0 0 0 0 0 0 0 0 0 0 0 0 0 0 0 0 0 0 0 0 0 0 0 0 0 0 0 0 0 0 0 0 0 0 0 0 0 0 0 0 0 0 0 0 0 0 0 0 0 0 0 0 0 0 0 0 0 0 0 0 0 0 0 0 0 0 0 0 0 0 0 0 0 0 0 0 0 0 0 0 0 0 0 0 0 0 0 0 0 0 0 0 0 0 0 0 0 0 0 0 0 0 0 0 0 0 0 0 0 0 0 0 0 0 0 0 0 0 0 0 0 0 0 0 0 0 0 0 0 0 0 0 0 0 0 0 0 0 0 0 0 0 0 0 0 0 0 0 0 0 0 0 0 0 0 0 0 0 0 0 0 0 0 0 0 0 0 0 0 0 0 0 0 0 0 0 0 0 0 0 0 0 0 0 0 0 0 0 0 0 0 0 0 0 0 0 0 0 0 0 0 0 0 0 0 0 0 0 0 0 0 0 0 0 0 0 0 0 0 0 0 0 0 0 0 0 0 0 0 0 0 0 0 0 0 0 0 0 0 0 0 0 0 0 0 0 0 0 0 0 0 0 0 0 0 0 0 0 0 0 0 0 0 0 0 0 0 0 0 0 0 0 0 0 0 0 0 0 0 0 0 0 0 0 0 0 0 0 0 0 0 0 0 0 0 0 0 0 0 0 0 0 0 0 0 0 0 0 0 0 0 0 0 0 0 0 0 0 0 0 0 0 0 0 0 0 0 0 0 0 0 0 0 0 0 0 0 0 0 0 0 0 0 0 0 0 0 0 0 0 0 0 0 0 0 0 0 0 0 0 0 0 0 0 0 0 0 0 0 0 0 0 0 0 0 0 0 0 0 0 0 0 0 0 0 0 0 0 0 0 0 0 0 0 0 0 0 0 0 0 0 0 0 0 0 0 0 0 0 0 0 0 0 0 0 0 0 0 0 0 0 0 0 0 0 0 0 0 0 0 0 0 0 0 0 0 0 0 0 0 0 0 0 0 0 0 0 0 0 0 0 0 0 0 0 0 0 0 0 0 0 0 0 0 0 0 0 0 0 0 0 0 0 0 0 0 0 0 0 0 0 0 0 0 0 0 0 0 0 0 0 0 0 0 0 0 0 0 0 0 0 0 0 0 0 0 0 0 0 0 0 0 0 0 0 0 0 0 0 0 0 0 0 0 0 0 0 0 0 0 0 0 0 0 0 0 0 0 0 0 0 0 0 0 0 0 0 0 0 0 0 0 0 0 0 0 0 0 0 0 0 0 0 0 0 0 0 0 0 0 0 0 0 0 0 0 0 0 0 0 0 0 0 0 0 0 0 0 0 0 0 0 0 0 0 0 0 0 0 0 0 0 0 0 0 0 0 0 0 0 0 0 0 0 0 0 0 0 0 0 0 0 0 0 0 0 0 0 0 0 0 0 0 0 0 0 0 0 0 0 0 0 0 0 0 0 0 0 0 0 0 0 0 0 0 0 0 0 0 0 0 0 0 0 0 0 0 0 0 0 0 0 0 0 0 0 0 0 0 0 0 0 0 0 0 0 0 0 0 0 0 0 0 0 0 0 0 0 0 0 0 0 0 0 0 0 0 0 0 0 0 0 0 0 0 0 0 0 0 0 0 0 0 0 0 0 0 0 0 0 0 0 0 0 0 0 0 0 0 0 0 0 0 0 0 0 0 0 0 0 0 0 0 0 0 0 0 0 0 0 0 0 0 0 0 0 0 0 0 0 0 0 0 0 0 0 0 0 0 0 0 0 0 0 0 0 0 0 0 0 0 0 0 0 0 0 0 0 0 0 0 0 0 0 0 0 0 0 0 0 0 0 0 0 0 0 0 0 0 0 0 0 0 0 0 0 0 0 0 0 0 0 0 0 0 0 0 0 0 0 0 0 0 0 0 0 0 0 0 0 0 0 0 0 0 0 0 0 0 0 0 0 0 0 0 0 0 0 0 0 0 0 0 0 0 0 0 0 0 0 0 0 0 0 0 0 0 0 0 0 0 0 0 0 0 0 0 0 0 0 0 0 0 0 0 0 0 0 0 0 0 0 0 0 0 0 0 0 0 0 0 0 0 0 0 0 0 0 0 0 0 0 0 0 0 0 0 0 0 0 0 0 0 0 0 0 0 0 0 0 0 0 0 0 0 0 0 0 0 0 0 0 0 0 0 0 0 0 0 0 0 0 0 0 0 0 0 0 0 0 0 0 0 0 0 0 0 0 0 0 0 0 0 0 0 0 0 0 0 0 0 0 0 0 0 0 0 0 0 0 0 0 0 0 0 0 0 0 0 0 0 0 0 0 0 0 0 0 0 0 0 0 0 0 0 0 0 0 0 0 0 0 0 0 0 0 0 0 0 0 0 0 0 0 0 0 0 0 0 0 0 0 0 0 0 0 0 0 0 0 0 0 0 0 0 0 0 0 0 0 0 0 0 0 0 0 0 0 0 0 0 0 0 0 0 0 0 0 0 0 0 0 0 0 0 0 0 0 0 0 0 0 0 0 0 0 0 0 0 0 0 0 0 0 0 0 0 0 0 0 0 0 0 0 0 0 0 0 0 0 0 0 0 0 0 0 0 0 0 0 0 0 0 0 0 0 0 0 0 0 0 0 0 0 0 0 0 0 0 0 0 0 0 0 0 0 0 0 0 0 0 0 0 0 0 0 0 0 0 0 0 0 0 0 0 0 0 0 0 0 0 0 0 0 0 0 0 0 0 0 0 0 0 0 0 0 0 0 0 0 0 0 0 0 0 0 0 0 0 0 0 0 0 0 0 0 0 0 0 0 0 0 0 0 0 0 0 0 0 0 0 0 0 0 0 0 0 0 0 0 0 0 0 0 0 0 0 0 0 0 0 0 0 0 0 0 0 0 0 0 0 0 0 0 0 0 0 0 0 0 0 0 0 0 0 0 0 0 0 0 0 0 0 0 0 0 0 0 0 0 0 0 0 0 0 0 0 0 0 0 0 0 0 0 0 0 0 0 0 0 0 0 0 0 0 0 0 0 0 0 0 0 0 0 0 0 0 0 0 0 0 0 0 0 0 0 0 0 0 0 0 0 0 0 0 0 0 0 0 0 0 0 0 0 0 0 0 0 0 0 0 0 0 0 0 0 0 0 0 0 0 0 0 0 0 0 0 0 0 0 0 0 0 0 0 0 0 0 0 0 0 0 0 0 0 0 0 0 0 0 0 0 0 0 0 0 0 0 0 0 0 0 0 0 0 0 0 0 0 0 0 0 0 0 0 0 0 0 0 0 0 0 0 0 0 0 0 0 0 0 0 0 0 0 0 0 0 0 0 0 0 0 0 0 0 0 0 0 0 0 0 0 0 0 0 0 0 0 0 0 0 0 0 0 0 0 0 0 0 0 0 0 0 0 0 0 0 0 0 0 0 0 0 0 0 0 0 0 0 0 0 0 0 0 0 0 0 0 0 0 0 0 0 0 0 0 0 0 0 0 0 0 0 0 0 0 0 0 0 0 0 0 0 0 0 0 0 0 0 0 0 0 0 0 0 0 0 0 0 0 0 0 0 0 0 0 0 0 0 0 0 0 0 0 0 0 0 0 0 0 0 0 0 0 0 0 0 0 0 0 0 0 0 0 0 0 0 0 0 0 0 0 0 0 0 0 0 0 0 0 0 0 0 0 0 0 0 0 0 0 0 0 0 0 0 0 0 0 0 0 0 0 0 0 0 0 0 0 0 0 0 0 0 0 0 0 0 0 0 0 0 0 0 0 0 0 0 0 0 0 0 0 0 0 0 0 0 0 0 0 0 0 0 0 0 0 0 0 0 0 0 0 0 0 0 0 0 0 0 0 0 0 0 0 0 0 0 0 0 0 0 0 0 0 0 0 0 0 0 0 0 0 0 0 0 0 0 0 0 0 0 0 0 0 0 0 0 0 0 0 0 0 0 0 0 0 0 0 0 0 0 0 0 0 0 0 0 0 0 0 0 0 0 0 0 0 0 0 0 0 0 0 0 0 0 0 0 0 0 0 0 0 0 0 0 0 0 0 0 0 0 0 0 0 0 0 0 0 0 0 0 0 0 0 0 0 0 0 0 0 0 0 0 0 0 0 0 0 0 0 0 0 0 0 0 0 0 0 0 0 0 0 0 0 0 0 0 0 0 0 0 0 0 0 0 0 0 0 0 0 0 0 0 0 0 0 0 0 0 0 0 0 0 0 0 0 0 0 0 0 0 0 0 0 0 0 0 0 0 0 0 0 0 0 0 0 0 0 0 0 0 0 0 0 0 0 0 0 0 0 0 0 0 0 0 0 0 0 0 0 0 0 0 0 0 0 0 0 0 0 0 0 0 0 0 0 0 0 0 0 0 0 0 0 0 0 0 0 0 0 0 0 0 0 0 0 0 0 0 0 0 0 0 0 0 0 0 0 0 0 0 0 0 0 0 0 0 0 0 0 0 0 0 0 0 0 0 0 0 0 0 0 0 0 0 0 0 0 0 0 0 0 0 0 0 0 0 0 0 0 0 0 0 0 0 0 0 0 0 0 0 0 0 0 0 0 0 0 0 0 0 0 0 0 0 0 0 0 0 0 0 0 0 0 0 0 0 0 0 0 0 0 0 0 0 0 0 0 0 0 0 0 0 0 0 0 0 0 0 0 0 0 0 0 0 0 0 0 0 0 0 0 0 0 0 0 0 0 0 0 0 0 0 0 0 0 0 0 0 0 0 0 0 0 0 0 0 0 0 0 0 0 0 0 0 0 0 0 0 0 0 0 0 0 0 0 0 0 0 0 0 0 0 0 0 0 0 0 0 0 0 0 0 0 0 0 0 0 0 0 0 0 0 0 0 0 0 0 0 0 0 0 0 0 0 0 0 0 0 0 0 0 0 0 0 0 0 0 0 0 0 0 0 0 0 0 0 0 0 0 0 0 0 0 0 0 0 0 0 0 0 0 0 0 0 0 0 0 0 0 0 0 0 0 0 0 0 0 0 0 0 0 0 0 0 0 0 0 0 0 0 0 0 0 0 0 0 0 0 0 0 0 0 0 0 0 0 0 0 0 0 0 0 0 0 0 0 0 0 0 0 0 0 0 0 0 0 0 0 0 0 0 0 0 0 0 0 0 0 0 0 0 0 0 0 0 0 0 0 0 0 0 0 0 0 0 0 0 0 0 0 0 0 0 0 0 0 0 0 0 0 0 0 0 0 0 0 0 0 0 0 0 0 0 0 0 0 0 0 0 0 0 0 0 0 0 0 0 0 0 0 0 0 0 0 0 0 0 0 0 0 0 0 0 0 0 0 0 0 0 0 0 0 0 0 0 0 0 0 0 0 0 0 0 0 0 0 0 0 0 0 0 0 0 0 0 0 0 0 0 0 0 0 0 0 0 0 0 0 0 0 0 0 0 0 0 0 0 0 0 0 0 0 0 0 0 0 0 0 0 0 0 0 0 0 0 0 0 0 0 0 0 0 0 0 0 0 0 0 0 0 0 0 0 0 0 0 0 0 0 0 0 0 0 0 0 0 0 0 0 0 0 0 0 0 0 0 0 0 0 0 0 0 0 0 0 0 0 0 0 0 0 0 0 0 0 0 0 0 0 0 0 0 0 0 0 0 0 0 0 0 0 0 0 0 0 0 0 0 0 0 0 0 0 0 0 0 0 0 0 0 0 0 0 0 0 0 0 0 0 0 0 0 0 0 0 0 0 0 0 0 0 0 0 0 0 0 0 0 0 0 0 0 0 0 0 0 0 0 0 0 0 0 0 0 0 0 0 0 0 0 0 0 0 0 0 0 0 0 0 0 0 0 0 0 0 0 0 0 0 0 0 0 0 0 0 0 0 0 0 0 0 0 0 0 0 0 0 0 0 0 0 0 0 0 0 0 0 0 0 0 0 0 0 0 0 0 0 0 0 0 0 0 0 0 0 0 0 0 0 0 0 0 0 0 0 0 0 0 0 0 0 0 0 0 0 0 0 0 0 0 0 0 0 0 0 0 0 0 0 0 0 0 0 0 0 0 0 0 0 0 0 0 0 0 0 0 0 0 0 0 0 0 0 0 0 0 0 0 0 0 0 0 0 0 0 0 0 0 0 0 0 0 0 0 0 0 0 0 0 0 0 0 0 0 0 0 0 0 0 0 0 0 0 0 0 0 0 0 0 0 0 0 0 0 0 0 0 0 0 0 0 0 0 0 0 0 0 0 0 0 0 0 0 0 0 0 0 0 0 0 0 0 0 0 0 0 0 0 0 0 0 0 0 0 0 0 0 0 0 0 0 0 0 0 0 0 0 0 0 0 0 0 0 0 0 0 0 0 0 0 0 0 0 0 0 0 0 0 0 0 0 0 0 0 0 0 0 0 0 0 0 0 0 0 0 0 0 0 0 0 0 0 0 0 0 0 0 0 0 0 0 0 0 0 0 0 0 0 0 0 0 0 0 0 0 0 0 0 0 0 0 0 0 0 0 0 0 0 0 0 0 0 0 0 0 0 0 0 0 0 0 0 0 0 0 0 0 0 0 0 0 0 0 0 0 0 0 0 0 0 0 0 0 0 0 0 0 0 0 0 0 0 0 0 0 0 0 0 0 0 0 0 0 0 0 0 0 0 0 0 0 0 0 0 0 0 0 0 0 0 0 0 0 0 0 0 0 0 0 0 0 0 0 0 0 0 0 0 0 0 0 0 0 0 0 0 0 0 0 0 0 0 0 0 0 0 0 0 0 0 0 0 0 0 0 0 0 0 0 0 0 0 0 0 0 0 0 0 0 0 0 0 0 0 0 0 0 0 0 0 0 0 0 0 0 0 0 0 0 0 0 0 0 0 0 0 0 0 0 0 0 0 0 0 0 0 0 0 0 0 0 0 0 0 0 0 0 0 0 0 0 0 0 0 0 0 0 0 0 0 0 0 0 0 0 0 0 0 0 0 0 0 0 0 0 0 0 0 0 0 0 0 0 0 0 0 0 0 0 0 0 0 0 0 0 0 0 0 0 0 0 0 0 0 0 0 0 0 0 0 0 0 0 0 0 0 0 0 0 0 0 0 0 0 0 0 0 0 0 0 0 0 0 0 0 0 0 0 0 0 0 0 0 0 0 0 0 0 0 0 0 0 0 0 0 0 0 0 0 0 0 0 0 0 0 0 0 0 0 0 0 0 0 0 0 0 0 0 0 0 0 0 0 0 0 0 0 0 0 0 0 0 0 0 0 0 0 0 0 0 0 0 0 0 0 0 0 0 0 0 0 0 0 0 0 0 0 0 0 0 0 0 0 0 0 0 0 0 0 0 0 0 0 0 0 0 0 0 0 0 0 0 0 0 0 0 0 0 0 0 0 0 0 0 0 0 0 0 0 0 0 0 0 0 0 0 0 0 0 0 0 0 0 0 0 0 0 0 0 0 0 0 0 0 0 0 0 0 0 0 0 0 0 0 0 0 0 0 0 0 0 0 0 0 0 0 0 0 0 0 0 0 0 0 0 0 0 0 0 0 0 0 0 0 0 0 0 0 0 0 0 0 0 0 0 0 0 0 0 0 0 0 0 0 0 0 0 0 0 0 0 0 0 0 0 0 0 0 0 0 0 0 0 0 0 0 0 0 0 0 0 0 0 0 0 0 0 0 0 0 0 0 0 0 0 0 0 0 0 0 0 0 0 0 0 0 0 0 0 0 0 0 0 0 0 0 0 0 0 0 0 0 0 0 0 0 0 0 0 0 0 0 0 0 0 0 0 0 0 0 0 0 0 0 0 0 0 0 0 0 0 0 0 0 0 0 0 0 0 0 0 0 0 0 0 0 0 0 0 0 0 0 0 0 0 0 0 0 0 0 0 0 0 0 0 0 0 0 0 0 0 0 0 0 0 0 0 0 0 0 0 0 0 0 0 0 0 0 0 0 0 0 0 0 0 0 0 0 0 0 0 0 0 0 0 0 0 0 0 0 0 0 0 0 0 0 0 0 0 0 0 0 0 0 0 0 0 0 0 0 0 0 0 0 0 0 0 0 0 0 0 0 0 0 0 0 0 0 0 0 0 0 0 0 0 0 0 0 0 0 0 0 0 0 0 0 0 0 0 0 0 0 0 0 0 0 0 0 0 0 0 0 0 0 0 0 0 0 0 0 0 0 0 0 0 0 0 0 0 0 0 0 0 0 0 0 0 0 0 0 0 0 0 0 0 0 0 0 0 0 0 0 0 0 0 0 0 0 0 0 0 0 0 0 0 0 0 0 0 0 0 0 0 0 0 0 0 0 0 0 0 0 0 0 0 0 0 0 0 0 0 0 0 0 0 0 0 0 0 0 0 0 0 0 0 0 0 0 0 0 0 0 0 0 0 0 0 0 0 0 0 0 0 0 0 0 0 0 0 0 0 0 0 0 0 0 0 0 0 0 0 0 0 0 0 0 0 0 0 0 0 0 0 0 0 0 0 0 0 0 0 0 0 0 0 0 0 0 0 0 0 0 0 0 0 0 0 0 0 0 0 0 0 0 0 0 0 0 0 0 0 0 0 0 0 0 0 0 0 0 0 0 0 0 0 0 0 0 0 0 0 0 0 0 0 0 0 0 0 0 0 0 0 0 0 0 0 0 0 0 0 0 0 0 0 0 0 0 0 0 0 0 0 0 0 0 0 0 0 0 0 0 0 0 0 0 0 0 0 0 0 0 0 0 0 0 0 0 0 0 0 0 0 0 0 0 0 0 0 0 0 0 0 0 0 0 0 0 0 0 0 0 0 0 0 0 0 0 0 0 0 0 0 0 0 0 0 0 0 0 0 0 0 0 0 0 0 0 0 0 0 0 0 0 0 0 0 0 0 0 0 0 0 0 0 0 0 0 0 0 0 0 0 0 0 0 0 0 0 0 0 0 0 0 0 0 0 0 0 0 0 0 0 0 0 0 0 0 0 0 0 0 0 0 0 0 0 0 0 0 0 0 0 0 0 0 0 0 0 0 0 0 0 0 0 0 0 0 0 0 0 0 0 0 0 0 0 0 0 0 0 0 0 0 0 0 0 0 0 0 0 0 0 0 0 0 0 0 0 0 0 0 0 0 0 0 0 0 0 0 0 0 0 0 0 0 0 0 0 0 0 0 0 0 0 0 0 0 0 0 0 0 0 0 0 0 0 0 0 0 0 0 0 0 0 0 0 0 0 0 0 0 0 0 0 0 0 0 0 0 0 0 0 0 0 0 0 0 0 0 0 0 0 0 0 0 0 0 0 0 0 0 0 0 0 0 0 0 0 0 0 0 0 0 0 0 0 0 0 0 0 0 0 0 0 0 0 0 0 0 0 0 0 0 0 0 0 0 0 0 0 0 0 0 0 0 0 0 0 0 0 0 0 0 0 0 0 0 0 0 0 0 0 0 0 0 0 0 0 0 0 0 0 0 0 0 0 0 0 0 0 0 0 0 0 0 0 0 0 0 0 0 0 0 0 0 0 0 0 0 0 0 0 0 0 0 0 0 0 0 0 0 0 0 0 0 0 0 0 0 0 0 0 0 0 0 0 0 0 0 0 0 0 0 0 0 0 0 0 0 0 0 0 0 0 0 0 0 0 0 0 0 0 0 0 0 0 0 0 0 0 0 0 0 0 0 0 0 0 0 0 0 0 0 0 0 0 0 0 0 0 0 0 0 0 0 0 0 0 0 0 0 0 0 0 0 0 0 0 0 0 0 0 0 0 0 0 0 0 0 0 0 0 0 0 0 0 0 0 0 0 0 0 0 0 0 0 0 0 0 0 0 0 0 0 0 0 0 0 0 0 0 0 0 0 0 0 0 0 0 0 0 0 0 0 0 0 0 0 0 0 0 0 0 0 0 0 0 0 0 0 0 0 0 0 0 0 0 0 0 0 0 0 0 0 0 0 0 0 0 0 0 0 0 0 0 0 0 0 0 0 0 0 0 0 0 0 0 0 0 0 0 0 0 0 0 0 0 0 0 0 0 0 0 0 0 0 0 0 0 0 0 0 0 0 0 0 0 0 0 0 0 0 0 0 0 0 0 0 0 0 0 0 0 0 0 0 0 0 0 0 0 0 0 0 0 0 0 0 0 0 0 0 0 0 0 0 0 0 0 0 0 0 0 0 0 0 0 0 0 0 0 0 0 0 0 0 0 0 0 0 0 0 0 0 0 0 0 0 0 0 0 0 0 0 0 0 0 0 0 0 0 0 0 0 0 0 0 0 0 0 0 0 0 0 0 0 0 0 0 0 0 0 0 0 0 0 0 0 0 0 0 0 0 0 0 0 0 0 0 0 0 0 0 0 0 0 0 0 0 0 0 0 0 0 0 0 0 0 0 0 0 0 0 0 0 0 0 0 0 0 0 0 0 0 0 0 0 0 0 0 0 0 0 0 0 0 0 0 0 0 0 0 0 0 0 0 0 0 0 0 0 0 0 0 0 0 0 0 0 0 0 0 0 0 0 0 0 0 0 0 0 0 0 0 0 0 0 0 0 0 0 0 0 0 0 0 0 0 0 0 0 0 0 0 0 0 0 0 0 0 0 0 0 0 0 0 0 0 0 0 0 0 0 0 0 0 0 0 0 0 0 0 0 0 0 0 0 0 0 0 0 0 0 0 0 0 0 0 0 0 0 0 0 0 0 0 0 0 0 0 0 0 0 0 0 0 0 0 0 0 0 0 0 0 0 0 0 0 0 0 0 0 0 0 0 0 0 0 0 0 0 0 0 0 0 0 0 0 0 0 0 0 0 0 0 0 0 0 0 0 0 0 0 0 0 0 0 0 0 0 0 0 0 0 0 0 0 0 0 0 0 0 0 0 0 0 0 0 0 0 0 0 0 0 0 0 0 0 0 0 0 0 0 0 0 0 0 0 0 0 0 0 0 0 0 0 0 0 0 0 0 0 0 0 0 0 0 0 0 0 0 0 0 0 0 0 0 0 0 0 0 0 0 0 0 0 0 0 0 0 0 0 0 0 0 0 0 0 0 0 0 0 0 0 0 0 0 0 0 0 0 0 0 0 0 0 0 0 0 0 0 0 0 0 0 0 0 0 0 0 0 0 0 0 0 0 0 0 0 0 0 0 0 0 0 0 0 0 0 0 0 0 0 0 0 0 0 0 0 0 0 0 0 0 0 0 0 0 0 0 0 0 0 0 0 0 0 0 0 0 0 0 0 0 0 0 0 0 0 0 0 0 0 0 0 0 0 0 0 0 0 0 0 0 0 0 0 0 0 0 0 0 0 0 0 0 0 0 0 0 0 0 0 0 0 0 0 0 0 0 0 0 0 0 0 0 0 0 0 0 0 0 0 0 0 0 0 0 0 0 0 0 0 0 0 0 0 0 0 0 0 0 0 0 0 0 0 0 0 0 0 0 0 0 0 0 0 0 0 0 0 0 0 0 0 0 0 0 0 0 0 0 0 0 0 0 0 0 0 0 0 0 0 0 0 0 0 0 0 0 0 0 0 0 0 0 0 0 0 0 0 0 0 0 0 0 0 0 0 0 0 0 0 0 0 0 0 0 0 0 0 0 0 0 0 0 0 0 0 0 0 0 0 0 0 0 0 0 0 0 0 0 0 0 0 0 0 0 0 0 0 0 0 0 0 0 0 0 0 0 0 0 0 0 0 0 0 0 0 0 0 0 0 0 0 0 0 0 0 0 0 0 0 0 0 0 0 0 0 0 0 0 0 0 0 0 0 0 0 0 0 0 0 0 0 0 0 0 0 0 0 0 0 0 0 0 0 0 0 0 0 0 0 0 0 0 0 0 0 0 0 0 0 0 0 0 0 0 0 0 0 0 0 0 0 0 0 0 0 0 0 0 0 0 0 0 0 0 0 0 0 0 0 0 0 0 0 0 0 0 0 0 0 0 0 0 0 0 0 0 0 0 0 0 0 0 0 0 0 0 0 0 0 0 0 0 0 0 0 0 0 0 0 0 0 0 0 0 0 0 0 0 0 0 0 0 0 0 0 0 0 0 0 0 0 0 0 0 0 0 0 0 0 0 0 0 0 0 0 0 0 0 0 0 0 0 0 0 0 0 0 0 0 0 0 0 0 0 0 0 0 0 0 0 0 0 0 0 0 0 0 0 0 0 0 0 0 0 0 0 0 0 0 0 0 0 0 0 0 0 0 0 0 0 0 0 0 0 0 0 0 0 0 0 0 0 0 0 0 0 0 0 0 0 0 0 0 0 0 0 0 0 0 0 0 0 0 0 0 0 0 0 0 0 0 0 0 0 0 0 0 0 0 0 0 0 0 0 0 0 0 0 0 0 0 0 0 0 0 0 0 0 0 0 0 0 0 0 0 0 0 0 0 0 0 0 0 0 0 0 0 0 0 0 0 0 0 0 0 0 0 0 0 0 0 0 0 0 0 0 0 0 0 0 0 0 0 0 0 0 0 0 0 0 0 0 0 0 0 0 0 0 0 0 0 0 0 0 0 0 0 0 0 0 0 0 0 0 0 0 0 0 0 0 0 0 0 0 0 0 0 0 0 0 0 0 0 0 0 0 0 0 0 0 0 0 0 0 0 0 0 0 0 0 0 0 0 0 0 0 0 0 0 0 0 0 0 0 0 0 0 0 0 0 0 0 0 0 0 0 0 0 0 0 0 0 0 0 0 0 0 0 0 0 0 0 0 0 0 0 0 0 0 0 0 0 0 0 0 0 0 0 0 0 0 0 0 0 0 0 0 0 0 0 0 0 0 0 0 0 0 0 0 0 0 0 0 0 0 0 0 0 0 0 0 0 0 0 0 0 0 0 0 0 0 0 0 0 0 0 0 0 0 0 0 0 0 0 0 0 0 0 0 0 0 0 0 0 0 0 0 0 0 0 0 0 0 0 0 0 0 0 0 0 0 0 0 0 0 0 0 0 0 0 0 0 0 0 0 0 0 0 0 0 0 0 0 0 0 0 0 0 0 0 0 0 0 0 0 0 0 0 0 0 0 0 0 0 0 0 0 0 0 0 0 0 0 0 0 0 0 0 0 0 0 0 0 0 0 0 0 0 0 0 0 0 0 0 0 0 0 0 0 0 0 0 0 0 0 0 0 0 0 0 0 0 0 0 0 0 0 0 0 0 0 0 0 0 0 0 0 0 0 0 0 0 0 0 0 0 0 0 0 0 0 0 0 0 0 0 0 0 0 0 0 0 0 0 0 0 0 0 0 0 0 0 0 0 0 0 0 0 0 0 0 0 0 0 0 0 0 0 0 0 0 0 0 0 0 0 0 0 0 0 0 0 0 0 0 0 0 0 0 0 0 0 0 0 0 0 0 0 0 0 0 0 0 0 0 0 0 0 0 0 0 0 0 0 0 0 0 0 0 0 0 0 0 0 0 0 0 0 0 0 0 0 0 0 0 0 0 0 0 0 0 0 0 0 0 0 0 0 0 0 0 0 0 0 0 0 0 0 0 0 0 0 0 0 0 0 0 0 0 0 0 0 0 0 0 0 0 0 0 0 0 0 0 0 0 0 0 0 0 0 0 0 0 0 0 0 0 0 0 0 0 0 0 0 0 0 0 0 0 0 0 0 0 0 0 0 0 0 0 0 0 0 0 0 0 0 0 0 0 0 0 0 0 0 0 0 0 0 0 0 0 0 0 0 0 0 0 0 0 0 0 0 0 0 0 0 0 0 0 0 0 0 0 0 0 0 0 0 0 0 0 0 0 0 0 0 0 0 0 0 0 0 0 0 0 0 0 0 0 0 0 0 0 0 0 0 0 0 0 0 0 0 0 0 0 0 0 0 0 0 0 0 0 0 0 0 0 0 0 0 0 0 0 0 0 0 0 0 0 0 0 0 0 0 0 0 0 0 0 0 0 0 0 0 0 0 0 0 0 0 0 0 0 0 0 0 0 0 0 0 0 0 0 0 0 0 0 0 0 0 0 0 0 0 0 0 0 0 0 0 0 0 0 0 0 0 0 0 0 0 0 0 0 0 0 0 0 0 0 0 0 0 0 0 0 0 0 0 0 0 0 0 0 0 0 0 0 0 0 0 0 0 0 0 0 0 0 0 0 0 0 0 0 0 0 0 0 0 0 0 0 0 0 0 0 0 0 0 0 0 0 0 0 0 0 0 0 0 0 0 0 0 0 0 0 0 0 0 0 0 0 0 0 0 0 0 0 0 0 0 0 0 0 0 0 0 0 0 0 0 0 0 0 0 0 0 0 0 0 0 0 0 0 0 0 0 0 0 0 0 0 0 0 0 0 0 0 0 0 0 0 0 0 0 0 0 0 0 0 0 0 0 0 0 0 0 0 0 0 0 0 0 0 0 0 0 0 0 0 0 0 0 0 0 0 0 0 0 0 0 0 0 0 0 0 0 0 0 0 0 0 0 0 0 0 0 0 0 0 0 0 0 0 0 0 0 0 0 0 0 0 0 0 0 0 0 0 0 0 0 0 0 0 0 0 0 0 0 0 0 0 0 0 0 0 0 0 0 0 0 0 0 0 0 0 0 0 0 0 0 0 0 0 0 0 0 0 0 0 0 0 0 0 0 0 0 0 0 0 0 0 0 0 0 0 0 0 0 0 0 0 0 0 0 0 0 0 0 0 0 0 0 0 0 0 0 0 0 0 0 0 0 0 0 0 0 0 0 0 0 0 0 0 0 0 0 0 0 0 0 0 0 0 0 0 0 0 0 0 0 0 0 0 0 0 0 0 0 0 0 0 0 0 0 0 0 0 0 0 0 0 0 0 0 0 0 0 0 0 0 0 0 0 0 0 0 0 0 0 0 0 0 0 0 0 0 0 0 0 0 0 0 0 0 0 0 0 0 0 0 0 0 0 0 0 0 0 0 0 0 0 0 0 0 0 0 0 0 0 0 0 0 0 0 0 0 0 0 0 0 0 0 0 0 0 0 0 0 0 0 0 0 0 0 0 0 0 0 0 0 0 0 0 0 0 0 0 0 0 0 0 0 0 0 0 0 0 0 0 0 0 0 0 0 0 0 0 0 0 0 0 0 0 0 0 0 0 0 0 0 0 0 0 0 0 0 0 0 0 0 0 0 0 0 0 0 0 0 0 0 0 0 0 0 0 0 0 0 0 0 0 0 0 0 0 0 0 0 0 0 0 0 0 0 0 0 0 0 0 0 0 0 0 0 0 0 0 0 0 0 0 0 0 0 0 0 0 0 0 0 0 0 0 0 0 0 0 0 0 0 0 0 0 0 0 0 0 0 0 0 0 0 0 0 0 0 0 0 0 0 0 0 0 0 0 0 0 0 0 0 0 0 0 0 0 0 0 0 0 0 0 0 0 0 0 0 0 0 0 0 0 0 0 0 0 0 0 0 0 0 0 0 0 0 0 0 0 0 0 0 0 0 0 0 0 0 0 0 0 0 0 0 0 0 0 0 0 0 0 0 0 0 0 0 0 0 0 0 0 0 0 0 0 0 0 0 0 0 0 0 0 0 0 0 0 0 0 0 0 0 0 0 0 0 0 0 0 0 0 0 0 0 0 0 0 0 0 0 0 0 0 0 0 0 0 0 0 0 0 0 0 0 0 0 0 0 0 0 0 0 0 0 0 0 0 0 0 0 0 0 0 0 0 0 0 0 0 0 0 0 0 0 0 0 0 0 0 0 0 0 0 0 0 0 0 0 0 0 0 0 0 0 0 0 0 0 0 0 0 0 0 0 0 0 0 0 0 0 0 0 0 0 0 0 0 0 0 0 0 0 0 0 0 0 0 0 0 0 0 0 0 0 0 0 0 0 0 0 0 0 0 0 0 0 0 0 0 0 0 0 0 0 0 0 0 0 0 0 0 0 0 0 0 0 0 0 0 0 0 0 0 0 0 0 0 0 0 0 0 0 0 0 0 0 0 0 0 0 0 0 0 0 0 0 0 0 0 0 0 0 0 0 0 0 0 0 0 0 0 0 0 0 0 0 0 0 0 0 0 0 0 0 0 0 0 0 0 0 0 0 0 0 0 0 0 0 0 0 0 0 0 0 0 0 0 0 0 0 0 0 0 0 0 0 0 0 0 0 0 0 0 0 0 0 0 0 0 0 0 0 0 0 0 0 0 0 0 0 0 0 0 0 0 0 0 0 0 0 0 0 0 0 0 0 0 0 0 0 0 0 0 0 0 0 0 0 0 0 0 0 0 0 </DataArray>
        <DataArray type="Int64" IdType="1" Name="vtkOriginalCellIds" format="ascii" RangeMin="0" RangeMax="13803">0 1 2 3 4 5 6 7 8 9 10 11 12 13 14 15 16 17 18 19 20 21 22 23 24 25 26 27 28 29 30 31 32 33 34 35 36 37 38 39 40 41 42 43 44 45 46 47 48 49 50 51 52 53 54 55 56 57 58 59 60 61 62 63 64 65 66 67 68 69 70 71 72 73 74 75 76 77 78 79 80 81 82 83 84 85 86 87 88 89 90 91 92 93 94 95 96 97 98 99 100 101 102 103 104 105 106 107 108 109 110 111 112 113 114 115 116 117 118 119 120 121 122 123 124 125 126 127 128 129 130 131 132 133 134 135 136 137 138 139 140 141 142 143 144 145 146 147 148 149 150 151 152 153 154 155 156 157 158 159 160 161 162 163 164 165 166 167 168 169 170 171 172 173 174 175 176 177 178 179 180 181 182 183 184 185 186 187 188 189 190 191 192 193 194 195 196 197 198 199 200 201 202 203 204 205 206 207 208 209 210 211 212 213 214 215 216 217 218 219 220 221 222 223 224 225 226 227 228 229 230 231 232 233 234 235 236 237 238 239 240 241 242 243 244 245 246 247 248 249 250 251 252 253 254 255 256 257 258 259 260 261 262 263 264 265 266 267 268 269 270 271 272 273 274 275 276 277 278 279 280 281 282 283 284 285 286 287 288 289 290 291 292 293 294 295 296 297 298 299 300 301 302 303 304 305 306 307 308 309 310 311 312 313 314 315 316 317 318 319 320 321 322 323 324 325 326 327 328 329 330 331 332 333 334 335 336 337 338 339 340 341 342 343 344 345 346 347 348 349 350 351 352 353 354 355 356 357 358 359 360 361 362 363 364 365 366 367 368 369 370 371 372 373 374 375 376 377 378 379 380 381 382 383 384 385 386 387 388 389 390 391 392 393 394 395 396 397 398 399 400 401 402 403 404 405 406 407 408 409 410 411 412 413 414 415 416 417 418 419 420 421 422 423 424 425 426 427 428 429 430 431 432 433 434 435 436 437 438 439 440 441 442 443 444 445 446 447 448 449 450 451 452 453 454 455 456 457 458 459 460 461 462 463 464 465 466 467 468 469 470 471 472 473 474 475 476 477 478 479 480 481 482 483 484 485 486 487 488 489 490 491 492 493 494 495 496 497 498 499 500 501 502 503 504 505 506 507 508 509 510 511 512 513 514 515 516 517 518 519 520 521 522 523 524 525 526 527 528 529 530 531 532 533 534 535 536 537 538 539 540 541 542 543 544 545 546 547 548 549 550 551 552 553 554 555 556 557 558 559 560 561 562 563 564 565 566 567 568 569 570 571 572 573 574 575 576 577 578 579 580 581 582 583 584 585 586 587 588 589 590 591 592 593 594 595 596 597 598 599 600 601 602 603 604 605 606 607 608 609 610 611 612 613 614 615 616 617 618 619 620 621 622 623 624 625 626 627 628 629 630 631 632 633 634 635 636 637 638 639 640 641 642 643 644 645 646 647 648 649 650 651 652 653 654 655 656 657 658 659 660 661 662 663 664 665 666 667 668 669 670 671 672 673 674 675 676 677 678 679 680 681 682 683 684 685 686 687 688 689 690 691 692 693 694 695 696 697 698 699 700 701 702 703 704 705 706 707 708 709 710 711 712 713 714 715 716 717 718 719 720 721 722 723 724 725 726 727 728 729 730 731 732 733 734 735 736 737 738 739 740 741 742 743 744 745 746 747 748 749 750 751 752 753 754 755 756 757 758 759 760 761 762 763 764 765 766 767 768 769 770 771 772 773 774 775 776 777 778 779 780 781 782 783 784 785 786 787 788 789 790 791 792 793 794 795 796 797 798 799 800 801 802 803 804 805 806 807 808 809 810 811 812 813 814 815 816 817 818 819 820 821 822 823 824 825 826 827 828 829 830 831 832 833 834 835 836 837 838 839 840 841 842 843 844 845 846 847 848 849 850 851 852 853 854 855 856 857 858 859 860 861 862 863 864 865 866 867 868 869 870 871 872 873 874 875 876 877 878 879 880 881 882 883 884 885 886 887 888 889 890 891 892 893 894 895 896 897 898 899 900 901 902 903 904 905 906 907 908 909 910 911 912 913 914 915 916 917 918 919 920 921 922 923 924 925 926 927 928 929 930 931 932 933 934 935 936 937 938 939 940 941 942 943 944 945 946 947 948 949 950 951 952 953 954 955 956 957 958 959 960 961 962 963 964 965 966 967 968 969 970 971 972 973 974 975 976 977 978 979 980 981 982 983 984 985 986 987 988 989 990 991 992 993 994 995 996 997 998 999 1000 1001 1002 1003 1004 1005 1006 1007 1008 1009 1010 1011 1012 1013 1014 1015 1016 1017 1018 1019 1020 1021 1022 1023 1024 1025 1026 1027 1028 1029 1030 1031 1032 1033 1034 1035 1036 1037 1038 1039 1040 1041 1042 1043 1044 1045 1046 1047 1048 1049 1050 1051 1052 1053 1054 1055 1056 1057 1058 1059 1060 1061 1062 1063 1064 1065 1066 1067 1068 1069 1070 1071 1072 1073 1074 1075 1076 1077 1078 1079 1080 1081 1082 1083 1084 1085 1086 1087 1088 1089 1090 1091 1092 1093 1094 1095 1096 1097 1098 1099 1100 1101 1102 1103 1104 1105 1106 1107 1108 1109 1110 1111 1112 1113 1114 1115 1116 1117 1118 1119 1120 1121 1122 1123 1124 1125 1126 1127 1128 1129 1130 1131 1132 1133 1134 1135 1136 1137 1138 1139 1140 1141 1142 1143 1144 1145 1146 1147 1148 1149 1150 1151 1152 1153 1154 1155 1156 1157 1158 1159 1160 1161 1162 1163 1164 1165 1166 1167 1168 1169 1170 1171 1172 1173 1174 1175 1176 1177 1178 1179 1180 1181 1182 1183 1184 1185 1186 1187 1188 1189 1190 1191 1192 1193 1194 1195 1196 1197 1198 1199 1200 1201 1202 1203 1204 1205 1206 1207 1208 1209 1210 1211 1212 1213 1214 1215 1216 1217 1218 1219 1220 1221 1222 1223 1224 1225 1226 1227 1228 1229 1230 1231 1232 1233 1234 1235 1236 1237 1238 1239 1240 1241 1242 1243 1244 1245 1246 1247 1248 1249 1250 1251 1252 1253 1254 1255 1256 1257 1258 1259 1260 1261 1262 1263 1264 1265 1266 1267 1268 1269 1270 1271 1272 1273 1274 1275 1276 1277 1278 1279 1280 1281 1282 1283 1284 1285 1286 1287 1288 1289 1290 1291 1292 1293 1294 1295 1296 1297 1298 1299 1300 1301 1302 1303 1304 1305 1306 1307 1308 1309 1310 1311 1312 1313 1314 1315 1316 1317 1318 1319 1320 1321 1322 1323 1324 1325 1326 1327 1328 1329 1330 1331 1332 1333 1334 1335 1336 1337 1338 1339 1340 1341 1342 1343 1344 1345 1346 1347 1348 1349 1350 1351 1352 1353 1354 1355 1356 1357 1358 1359 1360 1361 1362 1363 1364 1365 1366 1367 1368 1369 1370 1371 1372 1373 1374 1375 1376 1377 1378 1379 1380 1381 1382 1383 1384 1385 1386 1387 1388 1389 1390 1391 1392 1393 1394 1395 1396 1397 1398 1399 1400 1401 1402 1403 1404 1405 1406 1407 1408 1409 1410 1411 1412 1413 1414 1415 1416 1417 1418 1419 1420 1421 1422 1423 1424 1425 1426 1427 1428 1429 1430 1431 1432 1433 1434 1435 1436 1437 1438 1439 1440 1441 1442 1443 1444 1445 1446 1447 1448 1449 1450 1451 1452 1453 1454 1455 1456 1457 1458 1459 1460 1461 1462 1463 1464 1465 1466 1467 1468 1469 1470 1471 1472 1473 1474 1475 1476 1477 1478 1479 1480 1481 1482 1483 1484 1485 1486 1487 1488 1489 1490 1491 1492 1493 1494 1495 1496 1497 1498 1499 1500 1501 1502 1503 1504 1505 1506 1507 1508 1509 1510 1511 1512 1513 1514 1515 1516 1517 1518 1519 1520 1521 1522 1523 1524 1525 1526 1527 1528 1529 1530 1531 1532 1533 1534 1535 1536 1537 1538 1539 1540 1541 1542 1543 1544 1545 1546 1547 1548 1549 1550 1551 1552 1553 1554 1555 1556 1557 1558 1559 1560 1561 1562 1563 1564 1565 1566 1567 1568 1569 1570 1571 1572 1573 1574 1575 1576 1577 1578 1579 1580 1581 1582 1583 1584 1585 1586 1587 1588 1589 1590 1591 1592 1593 1594 1595 1596 1597 1598 1599 1600 1601 1602 1603 1604 1605 1606 1607 1608 1609 1610 1611 1612 1613 1614 1615 1616 1617 1618 1619 1620 1621 1622 1623 1624 1625 1626 1627 1628 1629 1630 1631 1632 1633 1634 1635 1636 1637 1638 1639 1640 1641 1642 1643 1644 1645 1646 1647 1648 1649 1650 1651 1652 1653 1654 1655 1656 1657 1658 1659 1660 1661 1662 1663 1664 1665 1666 1667 1668 1669 1670 1671 1672 1673 1674 1675 1676 1677 1678 1679 1680 1681 1682 1683 1684 1685 1686 1687 1688 1689 1690 1691 1692 1693 1694 1695 1696 1697 1698 1699 1700 1701 1702 1703 1704 1705 1706 1707 1708 1709 1710 1711 1712 1713 1714 1715 1716 1717 1718 1719 1720 1721 1722 1723 1724 1725 1726 1727 1728 1729 1730 1731 1732 1733 1734 1735 1736 1737 1738 1739 1740 1741 1742 1743 1744 1745 1746 1747 1748 1749 1750 1751 1752 1753 1754 1755 1756 1757 1758 1759 1760 1761 1762 1763 1764 1765 1766 1767 1768 1769 1770 1771 1772 1773 1774 1775 1776 1777 1778 1779 1780 1781 1782 1783 1784 1785 1786 1787 1788 1789 1790 1791 1792 1793 1794 1795 1796 1797 1798 1799 1800 1801 1802 1803 1804 1805 1806 1807 1808 1809 1810 1811 1812 1813 1814 1815 1816 1817 1818 1819 1820 1821 1822 1823 1824 1825 1826 1827 1828 1829 1830 1831 1832 1833 1834 1835 1836 1837 1838 1839 1840 1841 1842 1843 1844 1845 1846 1847 1848 1849 1850 1851 1852 1853 1854 1855 1856 1857 1858 1859 1860 1861 1862 1863 1864 1865 1866 1867 1868 1869 1870 1871 1872 1873 1874 1875 1876 1877 1878 1879 1880 1881 1882 1883 1884 1885 1886 1887 1888 1889 1890 1891 1892 1893 1894 1895 1896 1897 1898 1899 1900 1901 1902 1903 1904 1905 1906 1907 1908 1909 1910 1911 1912 1913 1914 1915 1916 1917 1918 1919 1920 1921 1922 1923 1924 1925 1926 1927 1928 1929 1930 1931 1932 1933 1934 1935 1936 1937 1938 1939 1940 1941 1942 1943 1944 1945 1946 1947 1948 1949 1950 1951 1952 1953 1954 1955 1956 1957 1958 1959 1960 1961 1962 1963 1964 1965 1966 1967 1968 1969 1970 1971 1972 1973 1974 1975 1976 1977 1978 1979 1980 1981 1982 1983 1984 1985 1986 1987 1988 1989 1990 1991 1992 1993 1994 1995 1996 1997 1998 1999 2000 2001 2002 2003 2004 2005 2006 2007 2008 2009 2010 2011 2012 2013 2014 2015 2016 2017 2018 2019 2020 2021 2022 2023 2024 2025 2026 2027 2028 2029 2030 2031 2032 2033 2034 2035 2036 2037 2038 2039 2040 2041 2042 2043 2044 2045 2046 2047 2048 2049 2050 2051 2052 2053 2054 2055 2056 2057 2058 2059 2060 2061 2062 2063 2064 2065 2066 2067 2068 2069 2070 2071 2072 2073 2074 2075 2076 2077 2078 2079 2080 2081 2082 2083 2084 2085 2086 2087 2088 2089 2090 2091 2092 2093 2094 2095 2096 2097 2098 2099 2100 2101 2102 2103 2104 2105 2106 2107 2108 2109 2110 2111 2112 2113 2114 2115 2116 2117 2118 2119 2120 2121 2122 2123 2124 2125 2126 2127 2128 2129 2130 2131 2132 2133 2134 2135 2136 2137 2138 2139 2140 2141 2142 2143 2144 2145 2146 2147 2148 2149 2150 2151 2152 2153 2154 2155 2156 2157 2158 2159 2160 2161 2162 2163 2164 2165 2166 2167 2168 2169 2170 2171 2172 2173 2174 2175 2176 2177 2178 2179 2180 2181 2182 2183 2184 2185 2186 2187 2188 2189 2190 2191 2192 2193 2194 2195 2196 2197 2198 2199 2200 2201 2202 2203 2204 2205 2206 2207 2208 2209 2210 2211 2212 2213 2214 2215 2216 2217 2218 2219 2220 2221 2222 2223 2224 2225 2226 2227 2228 2229 2230 2231 2232 2233 2234 2235 2236 2237 2238 2239 2240 2241 2242 2243 2244 2245 2246 2247 2248 2249 2250 2251 2252 2253 2254 2255 2256 2257 2258 2259 2260 2261 2262 2263 2264 2265 2266 2267 2268 2269 2270 2271 2272 2273 2274 2275 2276 2277 2278 2279 2280 2281 2282 2283 2284 2285 2286 2287 2288 2289 2290 2291 2292 2293 2294 2295 2296 2297 2298 2299 2300 2301 2302 2303 2304 2305 2306 2307 2308 2309 2310 2311 2312 2313 2314 2315 2316 2317 2318 2319 2320 2321 2322 2323 2324 2325 2326 2327 2328 2329 2330 2331 2332 2333 2334 2335 2336 2337 2338 2339 2340 2341 2342 2343 2344 2345 2346 2347 2348 2349 2350 2351 2352 2353 2354 2355 2356 2357 2358 2359 2360 2361 2362 2363 2364 2365 2366 2367 2368 2369 2370 2371 2372 2373 2374 2375 2376 2377 2378 2379 2380 2381 2382 2383 2384 2385 2386 2387 2388 2389 2390 2391 2392 2393 2394 2395 2396 2397 2398 2399 2400 2401 2402 2403 2404 2405 2406 2407 2408 2409 2410 2411 2412 2413 2414 2415 2416 2417 2418 2419 2420 2421 2422 2423 2424 2425 2426 2427 2428 2429 2430 2431 2432 2433 2434 2435 2436 2437 2438 2439 2440 2441 2442 2443 2444 2445 2446 2447 2448 2449 2450 2451 2452 2453 2454 2455 2456 2457 2458 2459 2460 2461 2462 2463 2464 2465 2466 2467 2468 2469 2470 2471 2472 2473 2474 2475 2476 2477 2478 2479 2480 2481 2482 2483 2484 2485 2486 2487 2488 2489 2490 2491 2492 2493 2494 2495 2496 2497 2498 2499 2500 2501 2502 2503 2504 2505 2506 2507 2508 2509 2510 2511 2512 2513 2514 2515 2516 2517 2518 2519 2520 2521 2522 2523 2524 2525 2526 2527 2528 2529 2530 2531 2532 2533 2534 2535 2536 2537 2538 2539 2540 2541 2542 2543 2544 2545 2546 2547 2548 2549 2550 2551 2552 2553 2554 2555 2556 2557 2558 2559 2560 2561 2562 2563 2564 2565 2566 2567 2568 2569 2570 2571 2572 2573 2574 2575 2576 2577 2578 2579 2580 2581 2582 2583 2584 2585 2586 2587 2588 2589 2590 2591 2592 2593 2594 2595 2596 2597 2598 2599 2600 2601 2602 2603 2604 2605 2606 2607 2608 2609 2610 2611 2612 2613 2614 2615 2616 2617 2618 2619 2620 2621 2622 2623 2624 2625 2626 2627 2628 2629 2630 2631 2632 2633 2634 2635 2636 2637 2638 2639 2640 2641 2642 2643 2644 2645 2646 2647 2648 2649 2650 2651 2652 2653 2654 2655 2656 2657 2658 2659 2660 2661 2662 2663 2664 2665 2666 2667 2668 2669 2670 2671 2672 2673 2674 2675 2676 2677 2678 2679 2680 2681 2682 2683 2684 2685 2686 2687 2688 2689 2690 2691 2692 2693 2694 2695 2696 2697 2698 2699 2700 2701 2702 2703 2704 2705 2706 2707 2708 2709 2710 2711 2712 2713 2714 2715 2716 2717 2718 2719 2720 2721 2722 2723 2724 2725 2726 2727 2728 2729 2730 2731 2732 2733 2734 2735 2736 2737 2738 2739 2740 2741 2742 2743 2744 2745 2746 2747 2748 2749 2750 2751 2752 2753 2754 2755 2756 2757 2758 2759 2760 2761 2762 2763 2764 2765 2766 2767 2768 2769 2770 2771 2772 2773 2774 2775 2776 2777 2778 2779 2780 2781 2782 2783 2784 2785 2786 2787 2788 2789 2790 2791 2792 2793 2794 2795 2796 2797 2798 2799 2800 2801 2802 2803 2804 2805 2806 2807 2808 2809 2810 2811 2812 2813 2814 2815 2816 2817 2818 2819 2820 2821 2822 2823 2824 2825 2826 2827 2828 2829 2830 2831 2832 2833 2834 2835 2836 2837 2838 2839 2840 2841 2842 2843 2844 2845 2846 2847 2848 2849 2850 2851 2852 2853 2854 2855 2856 2857 2858 2859 2860 2861 2862 2863 2864 2865 2866 2867 2868 2869 2870 2871 2872 2873 2874 2875 2876 2877 2878 2879 2880 2881 2882 2883 2884 2885 2886 2887 2888 2889 2890 2891 2892 2893 2894 2895 2896 2897 2898 2899 2900 2901 2902 2903 2904 2905 2906 2907 2908 2909 2910 2911 2912 2913 2914 2915 2916 2917 2918 2919 2920 2921 2922 2923 2924 2925 2926 2927 2928 2929 2930 2931 2932 2933 2934 2935 2936 2937 2938 2939 2940 2941 2942 2943 2944 2945 2946 2947 2948 2949 2950 2951 2952 2953 2954 2955 2956 2957 2958 2959 2960 2961 2962 2963 2964 2965 2966 2967 2968 2969 2970 2971 2972 2973 2974 2975 2976 2977 2978 2979 2980 2981 2982 2983 2984 2985 2986 2987 2988 2989 2990 2991 2992 2993 2994 2995 2996 2997 2998 2999 3000 3001 3002 3003 3004 3005 3006 3007 3008 3009 3010 3011 3012 3013 3014 3015 3016 3017 3018 3019 3020 3021 3022 3023 3024 3025 3026 3027 3028 3029 3030 3031 3032 3033 3034 3035 3036 3037 3038 3039 3040 3041 3042 3043 3044 3045 3046 3047 3048 3049 3050 3051 3052 3053 3054 3055 3056 3057 3058 3059 3060 3061 3062 3063 3064 3065 3066 3067 3068 3069 3070 3071 3072 3073 3074 3075 3076 3077 3078 3079 3080 3081 3082 3083 3084 3085 3086 3087 3088 3089 3090 3091 3092 3093 3094 3095 3096 3097 3098 3099 3100 3101 3102 3103 3104 3105 3106 3107 3108 3109 3110 3111 3112 3113 3114 3115 3116 3117 3118 3119 3120 3121 3122 3123 3124 3125 3126 3127 3128 3129 3130 3131 3132 3133 3134 3135 3136 3137 3138 3139 3140 3141 3142 3143 3144 3145 3146 3147 3148 3149 3150 3151 3152 3153 3154 3155 3156 3157 3158 3159 3160 3161 3162 3163 3164 3165 3166 3167 3168 3169 3170 3171 3172 3173 3174 3175 3176 3177 3178 3179 3180 3181 3182 3183 3184 3185 3186 3187 3188 3189 3190 3191 3192 3193 3194 3195 3196 3197 3198 3199 3200 3201 3202 3203 3204 3205 3206 3207 3208 3209 3210 3211 3212 3213 3214 3215 3216 3217 3218 3219 3220 3221 3222 3223 3224 3225 3226 3227 3228 3229 3230 3231 3232 3233 3234 3235 3236 3237 3238 3239 3240 3241 3242 3243 3244 3245 3246 3247 3248 3249 3250 3251 3252 3253 3254 3255 3256 3257 3258 3259 3260 3261 3262 3263 3264 3265 3266 3267 3268 3269 3270 3271 3272 3273 3274 3275 3276 3277 3278 3279 3280 3281 3282 3283 3284 3285 3286 3287 3288 3289 3290 3291 3292 3293 3294 3295 3296 3297 3298 3299 3300 3301 3302 3303 3304 3305 3306 3307 3308 3309 3310 3311 3312 3313 3314 3315 3316 3317 3318 3319 3320 3321 3322 3323 3324 3325 3326 3327 3328 3329 3330 3331 3332 3333 3334 3335 3336 3337 3338 3339 3340 3341 3342 3343 3344 3345 3346 3347 3348 3349 3350 3351 3352 3353 3354 3355 3356 3357 3358 3359 3360 3361 3362 3363 3364 3365 3366 3367 3368 3369 3370 3371 3372 3373 3374 3375 3376 3377 3378 3379 3380 3381 3382 3383 3384 3385 3386 3387 3388 3389 3390 3391 3392 3393 3394 3395 3396 3397 3398 3399 3400 3401 3402 3403 3404 3405 3406 3407 3408 3409 3410 3411 3412 3413 3414 3415 3416 3417 3418 3419 3420 3421 3422 3423 3424 3425 3426 3427 3428 3429 3430 3431 3432 3433 3434 3435 3436 3437 3438 3439 3440 3441 3442 3443 3444 3445 3446 3447 3448 3449 3450 3451 3452 3453 3454 3455 3456 3457 3458 3459 3460 3461 3462 3463 3464 3465 3466 3467 3468 3469 3470 3471 3472 3473 3474 3475 3476 3477 3478 3479 3480 3481 3482 3483 3484 3485 3486 3487 3488 3489 3490 3491 3492 3493 3494 3495 3496 3497 3498 3499 3500 3501 3502 3503 3504 3505 3506 3507 3508 3509 3510 3511 3512 3513 3514 3515 3516 3517 3518 3519 3520 3521 3522 3523 3524 3525 3526 3527 3528 3529 3530 3531 3532 3533 3534 3535 3536 3537 3538 3539 3540 3541 3542 3543 3544 3545 3546 3547 3548 3549 3550 3551 3552 3553 3554 3555 3556 3557 3558 3559 3560 3561 3562 3563 3564 3565 3566 3567 3568 3569 3570 3571 3572 3573 3574 3575 3576 3577 3578 3579 3580 3581 3582 3583 3584 3585 3586 3587 3588 3589 3590 3591 3592 3593 3594 3595 3596 3597 3598 3599 3600 3601 3602 3603 3604 3605 3606 3607 3608 3609 3610 3611 3612 3613 3614 3615 3616 3617 3618 3619 3620 3621 3622 3623 3624 3625 3626 3627 3628 3629 3630 3631 3632 3633 3634 3635 3636 3637 3638 3639 3640 3641 3642 3643 3644 3645 3646 3647 3648 3649 3650 3651 3652 3653 3654 3655 3656 3657 3658 3659 3660 3661 3662 3663 3664 3665 3666 3667 3668 3669 3670 3671 3672 3673 3674 3675 3676 3677 3678 3679 3680 3681 3682 3683 3684 3685 3686 3687 3688 3689 3690 3691 3692 3693 3694 3695 3696 3697 3698 3699 3700 3701 3702 3703 3704 3705 3706 3707 3708 3709 3710 3711 3712 3713 3714 3715 3716 3717 3718 3719 3720 3721 3722 3723 3724 3725 3726 3727 3728 3729 3730 3731 3732 3733 3734 3735 3736 3737 3738 3739 3740 3741 3742 3743 3744 3745 3746 3747 3748 3749 3750 3751 3752 3753 3754 3755 3756 3757 3758 3759 3760 3761 3762 3763 3764 3765 3766 3767 3768 3769 3770 3771 3772 3773 3774 3775 3776 3777 3778 3779 3780 3781 3782 3783 3784 3785 3786 3787 3788 3789 3790 3791 3792 3793 3794 3795 3796 3797 3798 3799 3800 3801 3802 3803 3804 3805 3806 3807 3808 3809 3810 3811 3812 3813 3814 3815 3816 3817 3818 3819 3820 3821 3822 3823 3824 3825 3826 3827 3828 3829 3830 3831 3832 3833 3834 3835 3836 3837 3838 3839 3840 3841 3842 3843 3844 3845 3846 3847 3848 3849 3850 3851 3852 3853 3854 3855 3856 3857 3858 3859 3860 3861 3862 3863 3864 3865 3866 3867 3868 3869 3870 3871 3872 3873 3874 3875 3876 3877 3878 3879 3880 3881 3882 3883 3884 3885 3886 3887 3888 3889 3890 3891 3892 3893 3894 3895 3896 3897 3898 3899 3900 3901 3902 3903 3904 3905 3906 3907 3908 3909 3910 3911 3912 3913 3914 3915 3916 3917 3918 3919 3920 3921 3922 3923 3924 3925 3926 3927 3928 3929 3930 3931 3932 3933 3934 3935 3936 3937 3938 3939 3940 3941 3942 3943 3944 3945 3946 3947 3948 3949 3950 3951 3952 3953 3954 3955 3956 3957 3958 3959 3960 3961 3962 3963 3964 3965 3966 3967 3968 3969 3970 3971 3972 3973 3974 3975 3976 3977 3978 3979 3980 3981 3982 3983 3984 3985 3986 3987 3988 3989 3990 3991 3992 3993 3994 3995 3996 3997 3998 3999 4000 4001 4002 4003 4004 4005 4006 4007 4008 4009 4010 4011 4012 4013 4014 4015 4016 4017 4018 4019 4020 4021 4022 4023 4024 4025 4026 4027 4028 4029 4030 4031 4032 4033 4034 4035 4036 4037 4038 4039 4040 4041 4042 4043 4044 4045 4046 4047 4048 4049 4050 4051 4052 4053 4054 4055 4056 4057 4058 4059 4060 4061 4062 4063 4064 4065 4066 4067 4068 4069 4070 4071 4072 4073 4074 4075 4076 4077 4078 4079 4080 4081 4082 4083 4084 4085 4086 4087 4088 4089 4090 4091 4092 4093 4094 4095 4096 4097 4098 4099 4100 4101 4102 4103 4104 4105 4106 4107 4108 4109 4110 4111 4112 4113 4114 4115 4116 4117 4118 4119 4120 4121 4122 4123 4124 4125 4126 4127 4128 4129 4130 4131 4132 4133 4134 4135 4136 4137 4138 4139 4140 4141 4142 4143 4144 4145 4146 4147 4148 4149 4150 4151 4152 4153 4154 4155 4156 4157 4158 4159 4160 4161 4162 4163 4164 4165 4166 4167 4168 4169 4170 4171 4172 4173 4174 4175 4176 4177 4178 4179 4180 4181 4182 4183 4184 4185 4186 4187 4188 4189 4190 4191 4192 4193 4194 4195 4196 4197 4198 4199 4200 4201 4202 4203 4204 4205 4206 4207 4208 4209 4210 4211 4212 4213 4214 4215 4216 4217 4218 4219 4220 4221 4222 4223 4224 4225 4226 4227 4228 4229 4230 4231 4232 4233 4234 4235 4236 4237 4238 4239 4240 4241 4242 4243 4244 4245 4246 4247 4248 4249 4250 4251 4252 4253 4254 4255 4256 4257 4258 4259 4260 4261 4262 4263 4264 4265 4266 4267 4268 4269 4270 4271 4272 4273 4274 4275 4276 4277 4278 4279 4280 4281 4282 4283 4284 4285 4286 4287 4288 4289 4290 4291 4292 4293 4294 4295 4296 4297 4298 4299 4300 4301 4302 4303 4304 4305 4306 4307 4308 4309 4310 4311 4312 4313 4314 4315 4316 4317 4318 4319 4320 4321 4322 4323 4324 4325 4326 4327 4328 4329 4330 4331 4332 4333 4334 4335 4336 4337 4338 4339 4340 4341 4342 4343 4344 4345 4346 4347 4348 4349 4350 4351 4352 4353 4354 4355 4356 4357 4358 4359 4360 4361 4362 4363 4364 4365 4366 4367 4368 4369 4370 4371 4372 4373 4374 4375 4376 4377 4378 4379 4380 4381 4382 4383 4384 4385 4386 4387 4388 4389 4390 4391 4392 4393 4394 4395 4396 4397 4398 4399 4400 4401 4402 4403 4404 4405 4406 4407 4408 4409 4410 4411 4412 4413 4414 4415 4416 4417 4418 4419 4420 4421 4422 4423 4424 4425 4426 4427 4428 4429 4430 4431 4432 4433 4434 4435 4436 4437 4438 4439 4440 4441 4442 4443 4444 4445 4446 4447 4448 4449 4450 4451 4452 4453 4454 4455 4456 4457 4458 4459 4460 4461 4462 4463 4464 4465 4466 4467 4468 4469 4470 4471 4472 4473 4474 4475 4476 4477 4478 4479 4480 4481 4482 4483 4484 4485 4486 4487 4488 4489 4490 4491 4492 4493 4494 4495 4496 4497 4498 4499 4500 4501 4502 4503 4504 4505 4506 4507 4508 4509 4510 4511 4512 4513 4514 4515 4516 4517 4518 4519 4520 4521 4522 4523 4524 4525 4526 4527 4528 4529 4530 4531 4532 4533 4534 4535 4536 4537 4538 4539 4540 4541 4542 4543 4544 4545 4546 4547 4548 4549 4550 4551 4552 4553 4554 4555 4556 4557 4558 4559 4560 4561 4562 4563 4564 4565 4566 4567 4568 4569 4570 4571 4572 4573 4574 4575 4576 4577 4578 4579 4580 4581 4582 4583 4584 4585 4586 4587 4588 4589 4590 4591 4592 4593 4594 4595 4596 4597 4598 4599 4600 4601 4602 4603 4604 4605 4606 4607 4608 4609 4610 4611 4612 4613 4614 4615 4616 4617 4618 4619 4620 4621 4622 4623 4624 4625 4626 4627 4628 4629 4630 4631 4632 4633 4634 4635 4636 4637 4638 4639 4640 4641 4642 4643 4644 4645 4646 4647 4648 4649 4650 4651 4652 4653 4654 4655 4656 4657 4658 4659 4660 4661 4662 4663 4664 4665 4666 4667 4668 4669 4670 4671 4672 4673 4674 4675 4676 4677 4678 4679 4680 4681 4682 4683 4684 4685 4686 4687 4688 4689 4690 4691 4692 4693 4694 4695 4696 4697 4698 4699 4700 4701 4702 4703 4704 4705 4706 4707 4708 4709 4710 4711 4712 4713 4714 4715 4716 4717 4718 4719 4720 4721 4722 4723 4724 4725 4726 4727 4728 4729 4730 4731 4732 4733 4734 4735 4736 4737 4738 4739 4740 4741 4742 4743 4744 4745 4746 4747 4748 4749 4750 4751 4752 4753 4754 4755 4756 4757 4758 4759 4760 4761 4762 4763 4764 4765 4766 4767 4768 4769 4770 4771 4772 4773 4774 4775 4776 4777 4778 4779 4780 4781 4782 4783 4784 4785 4786 4787 4788 4789 4790 4791 4792 4793 4794 4795 4796 4797 4798 4799 4800 4801 4802 4803 4804 4805 4806 4807 4808 4809 4810 4811 4812 4813 4814 4815 4816 4817 4818 4819 4820 4821 4822 4823 4824 4825 4826 4827 4828 4829 4830 4831 4832 4833 4834 4835 4836 4837 4838 4839 4840 4841 4842 4843 4844 4845 4846 4847 4848 4849 4850 4851 4852 4853 4854 4855 4856 4857 4858 4859 4860 4861 4862 4863 4864 4865 4866 4867 4868 4869 4870 4871 4872 4873 4874 4875 4876 4877 4878 4879 4880 4881 4882 4883 4884 4885 4886 4887 4888 4889 4890 4891 4892 4893 4894 4895 4896 4897 4898 4899 4900 4901 4902 4903 4904 4905 4906 4907 4908 4909 4910 4911 4912 4913 4914 4915 4916 4917 4918 4919 4920 4921 4922 4923 4924 4925 4926 4927 4928 4929 4930 4931 4932 4933 4934 4935 4936 4937 4938 4939 4940 4941 4942 4943 4944 4945 4946 4947 4948 4949 4950 4951 4952 4953 4954 4955 4956 4957 4958 4959 4960 4961 4962 4963 4964 4965 4966 4967 4968 4969 4970 4971 4972 4973 4974 4975 4976 4977 4978 4979 4980 4981 4982 4983 4984 4985 4986 4987 4988 4989 4990 4991 4992 4993 4994 4995 4996 4997 4998 4999 5000 5001 5002 5003 5004 5005 5006 5007 5008 5009 5010 5011 5012 5013 5014 5015 5016 5017 5018 5019 5020 5021 5022 5023 5024 5025 5026 5027 5028 5029 5030 5031 5032 5033 5034 5035 5036 5037 5038 5039 5040 5041 5042 5043 5044 5045 5046 5047 5048 5049 5050 5051 5052 5053 5054 5055 5056 5057 5058 5059 5060 5061 5062 5063 5064 5065 5066 5067 5068 5069 5070 5071 5072 5073 5074 5075 5076 5077 5078 5079 5080 5081 5082 5083 5084 5085 5086 5087 5088 5089 5090 5091 5092 5093 5094 5095 5096 5097 5098 5099 5100 5101 5102 5103 5104 5105 5106 5107 5108 5109 5110 5111 5112 5113 5114 5115 5116 5117 5118 5119 5120 5121 5122 5123 5124 5125 5126 5127 5128 5129 5130 5131 5132 5133 5134 5135 5136 5137 5138 5139 5140 5141 5142 5143 5144 5145 5146 5147 5148 5149 5150 5151 5152 5153 5154 5155 5156 5157 5158 5159 5160 5161 5162 5163 5164 5165 5166 5167 5168 5169 5170 5171 5172 5173 5174 5175 5176 5177 5178 5179 5180 5181 5182 5183 5184 5185 5186 5187 5188 5189 5190 5191 5192 5193 5194 5195 5196 5197 5198 5199 5200 5201 5202 5203 5204 5205 5206 5207 5208 5209 5210 5211 5212 5213 5214 5215 5216 5217 5218 5219 5220 5221 5222 5223 5224 5225 5226 5227 5228 5229 5230 5231 5232 5233 5234 5235 5236 5237 5238 5239 5240 5241 5242 5243 5244 5245 5246 5247 5248 5249 5250 5251 5252 5253 5254 5255 5256 5257 5258 5259 5260 5261 5262 5263 5264 5265 5266 5267 5268 5269 5270 5271 5272 5273 5274 5275 5276 5277 5278 5279 5280 5281 5282 5283 5284 5285 5286 5287 5288 5289 5290 5291 5292 5293 5294 5295 5296 5297 5298 5299 5300 5301 5302 5303 5304 5305 5306 5307 5308 5309 5310 5311 5312 5313 5314 5315 5316 5317 5318 5319 5320 5321 5322 5323 5324 5325 5326 5327 5328 5329 5330 5331 5332 5333 5334 5335 5336 5337 5338 5339 5340 5341 5342 5343 5344 5345 5346 5347 5348 5349 5350 5351 5352 5353 5354 5355 5356 5357 5358 5359 5360 5361 5362 5363 5364 5365 5366 5367 5368 5369 5370 5371 5372 5373 5374 5375 5376 5377 5378 5379 5380 5381 5382 5383 5384 5385 5386 5387 5388 5389 5390 5391 5392 5393 5394 5395 5396 5397 5398 5399 5400 5401 5402 5403 5404 5405 5406 5407 5408 5409 5410 5411 5412 5413 5414 5415 5416 5417 5418 5419 5420 5421 5422 5423 5424 5425 5426 5427 5428 5429 5430 5431 5432 5433 5434 5435 5436 5437 5438 5439 5440 5441 5442 5443 5444 5445 5446 5447 5448 5449 5450 5451 5452 5453 5454 5455 5456 5457 5458 5459 5460 5461 5462 5463 5464 5465 5466 5467 5468 5469 5470 5471 5472 5473 5474 5475 5476 5477 5478 5479 5480 5481 5482 5483 5484 5485 5486 5487 5488 5489 5490 5491 5492 5493 5494 5495 5496 5497 5498 5499 5500 5501 5502 5503 5504 5505 5506 5507 5508 5509 5510 5511 5512 5513 5514 5515 5516 5517 5518 5519 5520 5521 5522 5523 5524 5525 5526 5527 5528 5529 5530 5531 5532 5533 5534 5535 5536 5537 5538 5539 5540 5541 5542 5543 5544 5545 5546 5547 5548 5549 5550 5551 5552 5553 5554 5555 5556 5557 5558 5559 5560 5561 5562 5563 5564 5565 5566 5567 5568 5569 5570 5571 5572 5573 5574 5575 5576 5577 5578 5579 5580 5581 5582 5583 5584 5585 5586 5587 5588 5589 5590 5591 5592 5593 5594 5595 5596 5597 5598 5599 5600 5601 5602 5603 5604 5605 5606 5607 5608 5609 5610 5611 5612 5613 5614 5615 5616 5617 5618 5619 5620 5621 5622 5623 5624 5625 5626 5627 5628 5629 5630 5631 5632 5633 5634 5635 5636 5637 5638 5639 5640 5641 5642 5643 5644 5645 5646 5647 5648 5649 5650 5651 5652 5653 5654 5655 5656 5657 5658 5659 5660 5661 5662 5663 5664 5665 5666 5667 5668 5669 5670 5671 5672 5673 5674 5675 5676 5677 5678 5679 5680 5681 5682 5683 5684 5685 5686 5687 5688 5689 5690 5691 5692 5693 5694 5695 5696 5697 5698 5699 5700 5701 5702 5703 5704 5705 5706 5707 5708 5709 5710 5711 5712 5713 5714 5715 5716 5717 5718 5719 5720 5721 5722 5723 5724 5725 5726 5727 5728 5729 5730 5731 5732 5733 5734 5735 5736 5737 5738 5739 5740 5741 5742 5743 5744 5745 5746 5747 5748 5749 5750 5751 5752 5753 5754 5755 5756 5757 5758 5759 5760 5761 5762 5763 5764 5765 5766 5767 5768 5769 5770 5771 5772 5773 5774 5775 5776 5777 5778 5779 5780 5781 5782 5783 5784 5785 5786 5787 5788 5789 5790 5791 5792 5793 5794 5795 5796 5797 5798 5799 5800 5801 5802 5803 5804 5805 5806 5807 5808 5809 5810 5811 5812 5813 5814 5815 5816 5817 5818 5819 5820 5821 5822 5823 5824 5825 5826 5827 5828 5829 5830 5831 5832 5833 5834 5835 5836 5837 5838 5839 5840 5841 5842 5843 5844 5845 5846 5847 5848 5849 5850 5851 5852 5853 5854 5855 5856 5857 5858 5859 5860 5861 5862 5863 5864 5865 5866 5867 5868 5869 5870 5871 5872 5873 5874 5875 5876 5877 5878 5879 5880 5881 5882 5883 5884 5885 5886 5887 5888 5889 5890 5891 5892 5893 5894 5895 5896 5897 5898 5899 5900 5901 5902 5903 5904 5905 5906 5907 5908 5909 5910 5911 5912 5913 5914 5915 5916 5917 5918 5919 5920 5921 5922 5923 5924 5925 5926 5927 5928 5929 5930 5931 5932 5933 5934 5935 5936 5937 5938 5939 5940 5941 5942 5943 5944 5945 5946 5947 5948 5949 5950 5951 5952 5953 5954 5955 5956 5957 5958 5959 5960 5961 5962 5963 5964 5965 5966 5967 5968 5969 5970 5971 5972 5973 5974 5975 5976 5977 5978 5979 5980 5981 5982 5983 5984 5985 5986 5987 5988 5989 5990 5991 5992 5993 5994 5995 5996 5997 5998 5999 6000 6001 6002 6003 6004 6005 6006 6007 6008 6009 6010 6011 6012 6013 6014 6015 6016 6017 6018 6019 6020 6021 6022 6023 6024 6025 6026 6027 6028 6029 6030 6031 6032 6033 6034 6035 6036 6037 6038 6039 6040 6041 6042 6043 6044 6045 6046 6047 6048 6049 6050 6051 6052 6053 6054 6055 6056 6057 6058 6059 6060 6061 6062 6063 6064 6065 6066 6067 6068 6069 6070 6071 6072 6073 6074 6075 6076 6077 6078 6079 6080 6081 6082 6083 6084 6085 6086 6087 6088 6089 6090 6091 6092 6093 6094 6095 6096 6097 6098 6099 6100 6101 6102 6103 6104 6105 6106 6107 6108 6109 6110 6111 6112 6113 6114 6115 6116 6117 6118 6119 6120 6121 6122 6123 6124 6125 6126 6127 6128 6129 6130 6131 6132 6133 6134 6135 6136 6137 6138 6139 6140 6141 6142 6143 6144 6145 6146 6147 6148 6149 6150 6151 6152 6153 6154 6155 6156 6157 6158 6159 6160 6161 6162 6163 6164 6165 6166 6167 6168 6169 6170 6171 6172 6173 6174 6175 6176 6177 6178 6179 6180 6181 6182 6183 6184 6185 6186 6187 6188 6189 6190 6191 6192 6193 6194 6195 6196 6197 6198 6199 6200 6201 6202 6203 6204 6205 6206 6207 6208 6209 6210 6211 6212 6213 6214 6215 6216 6217 6218 6219 6220 6221 6222 6223 6224 6225 6226 6227 6228 6229 6230 6231 6232 6233 6234 6235 6236 6237 6238 6239 6240 6241 6242 6243 6244 6245 6246 6247 6248 6249 6250 6251 6252 6253 6254 6255 6256 6257 6258 6259 6260 6261 6262 6263 6264 6265 6266 6267 6268 6269 6270 6271 6272 6273 6274 6275 6276 6277 6278 6279 6280 6281 6282 6283 6284 6285 6286 6287 6288 6289 6290 6291 6292 6293 6294 6295 6296 6297 6298 6299 6300 6301 6302 6303 6304 6305 6306 6307 6308 6309 6310 6311 6312 6313 6314 6315 6316 6317 6318 6319 6320 6321 6322 6323 6324 6325 6326 6327 6328 6329 6330 6331 6332 6333 6334 6335 6336 6337 6338 6339 6340 6341 6342 6343 6344 6345 6346 6347 6348 6349 6350 6351 6352 6353 6354 6355 6356 6357 6358 6359 6360 6361 6362 6363 6364 6365 6366 6367 6368 6369 6370 6371 6372 6373 6374 6375 6376 6377 6378 6379 6380 6381 6382 6383 6384 6385 6386 6387 6388 6389 6390 6391 6392 6393 6394 6395 6396 6397 6398 6399 6400 6401 6402 6403 6404 6405 6406 6407 6408 6409 6410 6411 6412 6413 6414 6415 6416 6417 6418 6419 6420 6421 6422 6423 6424 6425 6426 6427 6428 6429 6430 6431 6432 6433 6434 6435 6436 6437 6438 6439 6440 6441 6442 6443 6444 6445 6446 6447 6448 6449 6450 6451 6452 6453 6454 6455 6456 6457 6458 6459 6460 6461 6462 6463 6464 6465 6466 6467 6468 6469 6470 6471 6472 6473 6474 6475 6476 6477 6478 6479 6480 6481 6482 6483 6484 6485 6486 6487 6488 6489 6490 6491 6492 6493 6494 6495 6496 6497 6498 6499 6500 6501 6502 6503 6504 6505 6506 6507 6508 6509 6510 6511 6512 6513 6514 6515 6516 6517 6518 6519 6520 6521 6522 6523 6524 6525 6526 6527 6528 6529 6530 6531 6532 6533 6534 6535 6536 6537 6538 6539 6540 6541 6542 6543 6544 6545 6546 6547 6548 6549 6550 6551 6552 6553 6554 6555 6556 6557 6558 6559 6560 6561 6562 6563 6564 6565 6566 6567 6568 6569 6570 6571 6572 6573 6574 6575 6576 6577 6578 6579 6580 6581 6582 6583 6584 6585 6586 6587 6588 6589 6590 6591 6592 6593 6594 6595 6596 6597 6598 6599 6600 6601 6602 6603 6604 6605 6606 6607 6608 6609 6610 6611 6612 6613 6614 6615 6616 6617 6618 6619 6620 6621 6622 6623 6624 6625 6626 6627 6628 6629 6630 6631 6632 6633 6634 6635 6636 6637 6638 6639 6640 6641 6642 6643 6644 6645 6646 6647 6648 6649 6650 6651 6652 6653 6654 6655 6656 6657 6658 6659 6660 6661 6662 6663 6664 6665 6666 6667 6668 6669 6670 6671 6672 6673 6674 6675 6676 6677 6678 6679 6680 6681 6682 6683 6684 6685 6686 6687 6688 6689 6690 6691 6692 6693 6694 6695 6696 6697 6698 6699 6700 6701 6702 6703 6704 6705 6706 6707 6708 6709 6710 6711 6712 6713 6714 6715 6716 6717 6718 6719 6720 6721 6722 6723 6724 6725 6726 6727 6728 6729 6730 6731 6732 6733 6734 6735 6736 6737 6738 6739 6740 6741 6742 6743 6744 6745 6746 6747 6748 6749 6750 6751 6752 6753 6754 6755 6756 6757 6758 6759 6760 6761 6762 6763 6764 6765 6766 6767 6768 6769 6770 6771 6772 6773 6774 6775 6776 6777 6778 6779 6780 6781 6782 6783 6784 6785 6786 6787 6788 6789 6790 6791 6792 6793 6794 6795 6796 6797 6798 6799 6800 6801 6802 6803 6804 6805 6806 6807 6808 6809 6810 6811 6812 6813 6814 6815 6816 6817 6818 6819 6820 6821 6822 6823 6824 6825 6826 6827 6828 6829 6830 6831 6832 6833 6834 6835 6836 6837 6838 6839 6840 6841 6842 6843 6844 6845 6846 6847 6848 6849 6850 6851 6852 6853 6854 6855 6856 6857 6858 6859 6860 6861 6862 6863 6864 6865 6866 6867 6868 6869 6870 6871 6872 6873 6874 6875 6876 6877 6878 6879 6880 6881 6882 6883 6884 6885 6886 6887 6888 6889 6890 6891 6892 6893 6894 6895 6896 6897 6898 6899 6900 6901 6902 6903 6904 6905 6906 6907 6908 6909 6910 6911 6912 6913 6914 6915 6916 6917 6918 6919 6920 6921 6922 6923 6924 6925 6926 6927 6928 6929 6930 6931 6932 6933 6934 6935 6936 6937 6938 6939 6940 6941 6942 6943 6944 6945 6946 6947 6948 6949 6950 6951 6952 6953 6954 6955 6956 6957 6958 6959 6960 6961 6962 6963 6964 6965 6966 6967 6968 6969 6970 6971 6972 6973 6974 6975 6976 6977 6978 6979 6980 6981 6982 6983 6984 6985 6986 6987 6988 6989 6990 6991 6992 6993 6994 6995 6996 6997 6998 6999 7000 7001 7002 7003 7004 7005 7006 7007 7008 7009 7010 7011 7012 7013 7014 7015 7016 7017 7018 7019 7020 7021 7022 7023 7024 7025 7026 7027 7028 7029 7030 7031 7032 7033 7034 7035 7036 7037 7038 7039 7040 7041 7042 7043 7044 7045 7046 7047 7048 7049 7050 7051 7052 7053 7054 7055 7056 7057 7058 7059 7060 7061 7062 7063 7064 7065 7066 7067 7068 7069 7070 7071 7072 7073 7074 7075 7076 7077 7078 7079 7080 7081 7082 7083 7084 7085 7086 7087 7088 7089 7090 7091 7092 7093 7094 7095 7096 7097 7098 7099 7100 7101 7102 7103 7104 7105 7106 7107 7108 7109 7110 7111 7112 7113 7114 7115 7116 7117 7118 7119 7120 7121 7122 7123 7124 7125 7126 7127 7128 7129 7130 7131 7132 7133 7134 7135 7136 7137 7138 7139 7140 7141 7142 7143 7144 7145 7146 7147 7148 7149 7150 7151 7152 7153 7154 7155 7156 7157 7158 7159 7160 7161 7162 7163 7164 7165 7166 7167 7168 7169 7170 7171 7172 7173 7174 7175 7176 7177 7178 7179 7180 7181 7182 7183 7184 7185 7186 7187 7188 7189 7190 7191 7192 7193 7194 7195 7196 7197 7198 7199 7200 7201 7202 7203 7204 7205 7206 7207 7208 7209 7210 7211 7212 7213 7214 7215 7216 7217 7218 7219 7220 7221 7222 7223 7224 7225 7226 7227 7228 7229 7230 7231 7232 7233 7234 7235 7236 7237 7238 7239 7240 7241 7242 7243 7244 7245 7246 7247 7248 7249 7250 7251 7252 7253 7254 7255 7256 7257 7258 7259 7260 7261 7262 7263 7264 7265 7266 7267 7268 7269 7270 7271 7272 7273 7274 7275 7276 7277 7278 7279 7280 7281 7282 7283 7284 7285 7286 7287 7288 7289 7290 7291 7292 7293 7294 7295 7296 7297 7298 7299 7300 7301 7302 7303 7304 7305 7306 7307 7308 7309 7310 7311 7312 7313 7314 7315 7316 7317 7318 7319 7320 7321 7322 7323 7324 7325 7326 7327 7328 7329 7330 7331 7332 7333 7334 7335 7336 7337 7338 7339 7340 7341 7342 7343 7344 7345 7346 7347 7348 7349 7350 7351 7352 7353 7354 7355 7356 7357 7358 7359 7360 7361 7362 7363 7364 7365 7366 7367 7368 7369 7370 7371 7372 7373 7374 7375 7376 7377 7378 7379 7380 7381 7382 7383 7384 7385 7386 7387 7388 7389 7390 7391 7392 7393 7394 7395 7396 7397 7398 7399 7400 7401 7402 7403 7404 7405 7406 7407 7408 7409 7410 7411 7412 7413 7414 7415 7416 7417 7418 7419 7420 7421 7422 7423 7424 7425 7426 7427 7428 7429 7430 7431 7432 7433 7434 7435 7436 7437 7438 7439 7440 7441 7442 7443 7444 7445 7446 7447 7448 7449 7450 7451 7452 7453 7454 7455 7456 7457 7458 7459 7460 7461 7462 7463 7464 7465 7466 7467 7468 7469 7470 7471 7472 7473 7474 7475 7476 7477 7478 7479 7480 7481 7482 7483 7484 7485 7486 7487 7488 7489 7490 7491 7492 7493 7494 7495 7496 7497 7498 7499 7500 7501 7502 7503 7504 7505 7506 7507 7508 7509 7510 7511 7512 7513 7514 7515 7516 7517 7518 7519 7520 7521 7522 7523 7524 7525 7526 7527 7528 7529 7530 7531 7532 7533 7534 7535 7536 7537 7538 7539 7540 7541 7542 7543 7544 7545 7546 7547 7548 7549 7550 7551 7552 7553 7554 7555 7556 7557 7558 7559 7560 7561 7562 7563 7564 7565 7566 7567 7568 7569 7570 7571 7572 7573 7574 7575 7576 7577 7578 7579 7580 7581 7582 7583 7584 7585 7586 7587 7588 7589 7590 7591 7592 7593 7594 7595 7596 7597 7598 7599 7600 7601 7602 7603 7604 7605 7606 7607 7608 7609 7610 7611 7612 7613 7614 7615 7616 7617 7618 7619 7620 7621 7622 7623 7624 7625 7626 7627 7628 7629 7630 7631 7632 7633 7634 7635 7636 7637 7638 7639 7640 7641 7642 7643 7644 7645 7646 7647 7648 7649 7650 7651 7652 7653 7654 7655 7656 7657 7658 7659 7660 7661 7662 7663 7664 7665 7666 7667 7668 7669 7670 7671 7672 7673 7674 7675 7676 7677 7678 7679 7680 7681 7682 7683 7684 7685 7686 7687 7688 7689 7690 7691 7692 7693 7694 7695 7696 7697 7698 7699 7700 7701 7702 7703 7704 7705 7706 7707 7708 7709 7710 7711 7712 7713 7714 7715 7716 7717 7718 7719 7720 7721 7722 7723 7724 7725 7726 7727 7728 7729 7730 7731 7732 7733 7734 7735 7736 7737 7738 7739 7740 7741 7742 7743 7744 7745 7746 7747 7748 7749 7750 7751 7752 7753 7754 7755 7756 7757 7758 7759 7760 7761 7762 7763 7764 7765 7766 7767 7768 7769 7770 7771 7772 7773 7774 7775 7776 7777 7778 7779 7780 7781 7782 7783 7784 7785 7786 7787 7788 7789 7790 7791 7792 7793 7794 7795 7796 7797 7798 7799 7800 7801 7802 7803 7804 7805 7806 7807 7808 7809 7810 7811 7812 7813 7814 7815 7816 7817 7818 7819 7820 7821 7822 7823 7824 7825 7826 7827 7828 7829 7830 7831 7832 7833 7834 7835 7836 7837 7838 7839 7840 7841 7842 7843 7844 7845 7846 7847 7848 7849 7850 7851 7852 7853 7854 7855 7856 7857 7858 7859 7860 7861 7862 7863 7864 7865 7866 7867 7868 7869 7870 7871 7872 7873 7874 7875 7876 7877 7878 7879 7880 7881 7882 7883 7884 7885 7886 7887 7888 7889 7890 7891 7892 7893 7894 7895 7896 7897 7898 7899 7900 7901 7902 7903 7904 7905 7906 7907 7908 7909 7910 7911 7912 7913 7914 7915 7916 7917 7918 7919 7920 7921 7922 7923 7924 7925 7926 7927 7928 7929 7930 7931 7932 7933 7934 7935 7936 7937 7938 7939 7940 7941 7942 7943 7944 7945 7946 7947 7948 7949 7950 7951 7952 7953 7954 7955 7956 7957 7958 7959 7960 7961 7962 7963 7964 7965 7966 7967 7968 7969 7970 7971 7972 7973 7974 7975 7976 7977 7978 7979 7980 7981 7982 7983 7984 7985 7986 7987 7988 7989 7990 7991 7992 7993 7994 7995 7996 7997 7998 7999 8000 8001 8002 8003 8004 8005 8006 8007 8008 8009 8010 8011 8012 8013 8014 8015 8016 8017 8018 8019 8020 8021 8022 8023 8024 8025 8026 8027 8028 8029 8030 8031 8032 8033 8034 8035 8036 8037 8038 8039 8040 8041 8042 8043 8044 8045 8046 8047 8048 8049 8050 8051 8052 8053 8054 8055 8056 8057 8058 8059 8060 8061 8062 8063 8064 8065 8066 8067 8068 8069 8070 8071 8072 8073 8074 8075 8076 8077 8078 8079 8080 8081 8082 8083 8084 8085 8086 8087 8088 8089 8090 8091 8092 8093 8094 8095 8096 8097 8098 8099 8100 8101 8102 8103 8104 8105 8106 8107 8108 8109 8110 8111 8112 8113 8114 8115 8116 8117 8118 8119 8120 8121 8122 8123 8124 8125 8126 8127 8128 8129 8130 8131 8132 8133 8134 8135 8136 8137 8138 8139 8140 8141 8142 8143 8144 8145 8146 8147 8148 8149 8150 8151 8152 8153 8154 8155 8156 8157 8158 8159 8160 8161 8162 8163 8164 8165 8166 8167 8168 8169 8170 8171 8172 8173 8174 8175 8176 8177 8178 8179 8180 8181 8182 8183 8184 8185 8186 8187 8188 8189 8190 8191 8192 8193 8194 8195 8196 8197 8198 8199 8200 8201 8202 8203 8204 8205 8206 8207 8208 8209 8210 8211 8212 8213 8214 8215 8216 8217 8218 8219 8220 8221 8222 8223 8224 8225 8226 8227 8228 8229 8230 8231 8232 8233 8234 8235 8236 8237 8238 8239 8240 8241 8242 8243 8244 8245 8246 8247 8248 8249 8250 8251 8252 8253 8254 8255 8256 8257 8258 8259 8260 8261 8262 8263 8264 8265 8266 8267 8268 8269 8270 8271 8272 8273 8274 8275 8276 8277 8278 8279 8280 8281 8282 8283 8284 8285 8286 8287 8288 8289 8290 8291 8292 8293 8294 8295 8296 8297 8298 8299 8300 8301 8302 8303 8304 8305 8306 8307 8308 8309 8310 8311 8312 8313 8314 8315 8316 8317 8318 8319 8320 8321 8322 8323 8324 8325 8326 8327 8328 8329 8330 8331 8332 8333 8334 8335 8336 8337 8338 8339 8340 8341 8342 8343 8344 8345 8346 8347 8348 8349 8350 8351 8352 8353 8354 8355 8356 8357 8358 8359 8360 8361 8362 8363 8364 8365 8366 8367 8368 8369 8370 8371 8372 8373 8374 8375 8376 8377 8378 8379 8380 8381 8382 8383 8384 8385 8386 8387 8388 8389 8390 8391 8392 8393 8394 8395 8396 8397 8398 8399 8400 8401 8402 8403 8404 8405 8406 8407 8408 8409 8410 8411 8412 8413 8414 8415 8416 8417 8418 8419 8420 8421 8422 8423 8424 8425 8426 8427 8428 8429 8430 8431 8432 8433 8434 8435 8436 8437 8438 8439 8440 8441 8442 8443 8444 8445 8446 8447 8448 8449 8450 8451 8452 8453 8454 8455 8456 8457 8458 8459 8460 8461 8462 8463 8464 8465 8466 8467 8468 8469 8470 8471 8472 8473 8474 8475 8476 8477 8478 8479 8480 8481 8482 8483 8484 8485 8486 8487 8488 8489 8490 8491 8492 8493 8494 8495 8496 8497 8498 8499 8500 8501 8502 8503 8504 8505 8506 8507 8508 8509 8510 8511 8512 8513 8514 8515 8516 8517 8518 8519 8520 8521 8522 8523 8524 8525 8526 8527 8528 8529 8530 8531 8532 8533 8534 8535 8536 8537 8538 8539 8540 8541 8542 8543 8544 8545 8546 8547 8548 8549 8550 8551 8552 8553 8554 8555 8556 8557 8558 8559 8560 8561 8562 8563 8564 8565 8566 8567 8568 8569 8570 8571 8572 8573 8574 8575 8576 8577 8578 8579 8580 8581 8582 8583 8584 8585 8586 8587 8588 8589 8590 8591 8592 8593 8594 8595 8596 8597 8598 8599 8600 8601 8602 8603 8604 8605 8606 8607 8608 8609 8610 8611 8612 8613 8614 8615 8616 8617 8618 8619 8620 8621 8622 8623 8624 8625 8626 8627 8628 8629 8630 8631 8632 8633 8634 8635 8636 8637 8638 8639 8640 8641 8642 8643 8644 8645 8646 8647 8648 8649 8650 8651 8652 8653 8654 8655 8656 8657 8658 8659 8660 8661 8662 8663 8664 8665 8666 8667 8668 8669 8670 8671 8672 8673 8674 8675 8676 8677 8678 8679 8680 8681 8682 8683 8684 8685 8686 8687 8688 8689 8690 8691 8692 8693 8694 8695 8696 8697 8698 8699 8700 8701 8702 8703 8704 8705 8706 8707 8708 8709 8710 8711 8712 8713 8714 8715 8716 8717 8718 8719 8720 8721 8722 8723 8724 8725 8726 8727 8728 8729 8730 8731 8732 8733 8734 8735 8736 8737 8738 8739 8740 8741 8742 8743 8744 8745 8746 8747 8748 8749 8750 8751 8752 8753 8754 8755 8756 8757 8758 8759 8760 8761 8762 8763 8764 8765 8766 8767 8768 8769 8770 8771 8772 8773 8774 8775 8776 8777 8778 8779 8780 8781 8782 8783 8784 8785 8786 8787 8788 8789 8790 8791 8792 8793 8794 8795 8796 8797 8798 8799 8800 8801 8802 8803 8804 8805 8806 8807 8808 8809 8810 8811 8812 8813 8814 8815 8816 8817 8818 8819 8820 8821 8822 8823 8824 8825 8826 8827 8828 8829 8830 8831 8832 8833 8834 8835 8836 8837 8838 8839 8840 8841 8842 8843 8844 8845 8846 8847 8848 8849 8850 8851 8852 8853 8854 8855 8856 8857 8858 8859 8860 8861 8862 8863 8864 8865 8866 8867 8868 8869 8870 8871 8872 8873 8874 8875 8876 8877 8878 8879 8880 8881 8882 8883 8884 8885 8886 8887 8888 8889 8890 8891 8892 8893 8894 8895 8896 8897 8898 8899 8900 8901 8902 8903 8904 8905 8906 8907 8908 8909 8910 8911 8912 8913 8914 8915 8916 8917 8918 8919 8920 8921 8922 8923 8924 8925 8926 8927 8928 8929 8930 8931 8932 8933 8934 8935 8936 8937 8938 8939 8940 8941 8942 8943 8944 8945 8946 8947 8948 8949 8950 8951 8952 8953 8954 8955 8956 8957 8958 8959 8960 8961 8962 8963 8964 8965 8966 8967 8968 8969 8970 8971 8972 8973 8974 8975 8976 8977 8978 8979 8980 8981 8982 8983 8984 8985 8986 8987 8988 8989 8990 8991 8992 8993 8994 8995 8996 8997 8998 8999 9000 9001 9002 9003 9004 9005 9006 9007 9008 9009 9010 9011 9012 9013 9014 9015 9016 9017 9018 9019 9020 9021 9022 9023 9024 9025 9026 9027 9028 9029 9030 9031 9032 9033 9034 9035 9036 9037 9038 9039 9040 9041 9042 9043 9044 9045 9046 9047 9048 9049 9050 9051 9052 9053 9054 9055 9056 9057 9058 9059 9060 9061 9062 9063 9064 9065 9066 9067 9068 9069 9070 9071 9072 9073 9074 9075 9076 9077 9078 9079 9080 9081 9082 9083 9084 9085 9086 9087 9088 9089 9090 9091 9092 9093 9094 9095 9096 9097 9098 9099 9100 9101 9102 9103 9104 9105 9106 9107 9108 9109 9110 9111 9112 9113 9114 9115 9116 9117 9118 9119 9120 9121 9122 9123 9124 9125 9126 9127 9128 9129 9130 9131 9132 9133 9134 9135 9136 9137 9138 9139 9140 9141 9142 9143 9144 9145 9146 9147 9148 9149 9150 9151 9152 9153 9154 9155 9156 9157 9158 9159 9160 9161 9162 9163 9164 9165 9166 9167 9168 9169 9170 9171 9172 9173 9174 9175 9176 9177 9178 9179 9180 9181 9182 9183 9184 9185 9186 9187 9188 9189 9190 9191 9192 9193 9194 9195 9196 9197 9198 9199 9200 9201 9202 9203 9204 9205 9206 9207 9208 9209 9210 9211 9212 9213 9214 9215 9216 9217 9218 9219 9220 9221 9222 9223 9224 9225 9226 9227 9228 9229 9230 9231 9232 9233 9234 9235 9236 9237 9238 9239 9240 9241 9242 9243 9244 9245 9246 9247 9248 9249 9250 9251 9252 9253 9254 9255 9256 9257 9258 9259 9260 9261 9262 9263 9264 9265 9266 9267 9268 9269 9270 9271 9272 9273 9274 9275 9276 9277 9278 9279 9280 9281 9282 9283 9284 9285 9286 9287 9288 9289 9290 9291 9292 9293 9294 9295 9296 9297 9298 9299 9300 9301 9302 9303 9304 9305 9306 9307 9308 9309 9310 9311 9312 9313 9314 9315 9316 9317 9318 9319 9320 9321 9322 9323 9324 9325 9326 9327 9328 9329 9330 9331 9332 9333 9334 9335 9336 9337 9338 9339 9340 9341 9342 9343 9344 9345 9346 9347 9348 9349 9350 9351 9352 9353 9354 9355 9356 9357 9358 9359 9360 9361 9362 9363 9364 9365 9366 9367 9368 9369 9370 9371 9372 9373 9374 9375 9376 9377 9378 9379 9380 9381 9382 9383 9384 9385 9386 9387 9388 9389 9390 9391 9392 9393 9394 9395 9396 9397 9398 9399 9400 9401 9402 9403 9404 9405 9406 9407 9408 9409 9410 9411 9412 9413 9414 9415 9416 9417 9418 9419 9420 9421 9422 9423 9424 9425 9426 9427 9428 9429 9430 9431 9432 9433 9434 9435 9436 9437 9438 9439 9440 9441 9442 9443 9444 9445 9446 9447 9448 9449 9450 9451 9452 9453 9454 9455 9456 9457 9458 9459 9460 9461 9462 9463 9464 9465 9466 9467 9468 9469 9470 9471 9472 9473 9474 9475 9476 9477 9478 9479 9480 9481 9482 9483 9484 9485 9486 9487 9488 9489 9490 9491 9492 9493 9494 9495 9496 9497 9498 9499 9500 9501 9502 9503 9504 9505 9506 9507 9508 9509 9510 9511 9512 9513 9514 9515 9516 9517 9518 9519 9520 9521 9522 9523 9524 9525 9526 9527 9528 9529 9530 9531 9532 9533 9534 9535 9536 9537 9538 9539 9540 9541 9542 9543 9544 9545 9546 9547 9548 9549 9550 9551 9552 9553 9554 9555 9556 9557 9558 9559 9560 9561 9562 9563 9564 9565 9566 9567 9568 9569 9570 9571 9572 9573 9574 9575 9576 9577 9578 9579 9580 9581 9582 9583 9584 9585 9586 9587 9588 9589 9590 9591 9592 9593 9594 9595 9596 9597 9598 9599 9600 9601 9602 9603 9604 9605 9606 9607 9608 9609 9610 9611 9612 9613 9614 9615 9616 9617 9618 9619 9620 9621 9622 9623 9624 9625 9626 9627 9628 9629 9630 9631 9632 9633 9634 9635 9636 9637 9638 9639 9640 9641 9642 9643 9644 9645 9646 9647 9648 9649 9650 9651 9652 9653 9654 9655 9656 9657 9658 9659 9660 9661 9662 9663 9664 9665 9666 9667 9668 9669 9670 9671 9672 9673 9674 9675 9676 9677 9678 9679 9680 9681 9682 9683 9684 9685 9686 9687 9688 9689 9690 9691 9692 9693 9694 9695 9696 9697 9698 9699 9700 9701 9702 9703 9704 9705 9706 9707 9708 9709 9710 9711 9712 9713 9714 9715 9716 9717 9718 9719 9720 9721 9722 9723 9724 9725 9726 9727 9728 9729 9730 9731 9732 9733 9734 9735 9736 9737 9738 9739 9740 9741 9742 9743 9744 9745 9746 9747 9748 9749 9750 9751 9752 9753 9754 9755 9756 9757 9758 9759 9760 9761 9762 9763 9764 9765 9766 9767 9768 9769 9770 9771 9772 9773 9774 9775 9776 9777 9778 9779 9780 9781 9782 9783 9784 9785 9786 9787 9788 9789 9790 9791 9792 9793 9794 9795 9796 9797 9798 9799 9800 9801 9802 9803 9804 9805 9806 9807 9808 9809 9810 9811 9812 9813 9814 9815 9816 9817 9818 9819 9820 9821 9822 9823 9824 9825 9826 9827 9828 9829 9830 9831 9832 9833 9834 9835 9836 9837 9838 9839 9840 9841 9842 9843 9844 9845 9846 9847 9848 9849 9850 9851 9852 9853 9854 9855 9856 9857 9858 9859 9860 9861 9862 9863 9864 9865 9866 9867 9868 9869 9870 9871 9872 9873 9874 9875 9876 9877 9878 9879 9880 9881 9882 9883 9884 9885 9886 9887 9888 9889 9890 9891 9892 9893 9894 9895 9896 9897 9898 9899 9900 9901 9902 9903 9904 9905 9906 9907 9908 9909 9910 9911 9912 9913 9914 9915 9916 9917 9918 9919 9920 9921 9922 9923 9924 9925 9926 9927 9928 9929 9930 9931 9932 9933 9934 9935 9936 9937 9938 9939 9940 9941 9942 9943 9944 9945 9946 9947 9948 9949 9950 9951 9952 9953 9954 9955 9956 9957 9958 9959 9960 9961 9962 9963 9964 9965 9966 9967 9968 9969 9970 9971 9972 9973 9974 9975 9976 9977 9978 9979 9980 9981 9982 9983 9984 9985 9986 9987 9988 9989 9990 9991 9992 9993 9994 9995 9996 9997 9998 9999 10000 10001 10002 10003 10004 10005 10006 10007 10008 10009 10010 10011 10012 10013 10014 10015 10016 10017 10018 10019 10020 10021 10022 10023 10024 10025 10026 10027 10028 10029 10030 10031 10032 10033 10034 10035 10036 10037 10038 10039 10040 10041 10042 10043 10044 10045 10046 10047 10048 10049 10050 10051 10052 10053 10054 10055 10056 10057 10058 10059 10060 10061 10062 10063 10064 10065 10066 10067 10068 10069 10070 10071 10072 10073 10074 10075 10076 10077 10078 10079 10080 10081 10082 10083 10084 10085 10086 10087 10088 10089 10090 10091 10092 10093 10094 10095 10096 10097 10098 10099 10100 10101 10102 10103 10104 10105 10106 10107 10108 10109 10110 10111 10112 10113 10114 10115 10116 10117 10118 10119 10120 10121 10122 10123 10124 10125 10126 10127 10128 10129 10130 10131 10132 10133 10134 10135 10136 10137 10138 10139 10140 10141 10142 10143 10144 10145 10146 10147 10148 10149 10150 10151 10152 10153 10154 10155 10156 10157 10158 10159 10160 10161 10162 10163 10164 10165 10166 10167 10168 10169 10170 10171 10172 10173 10174 10175 10176 10177 10178 10179 10180 10181 10182 10183 10184 10185 10186 10187 10188 10189 10190 10191 10192 10193 10194 10195 10196 10197 10198 10199 10200 10201 10202 10203 10204 10205 10206 10207 10208 10209 10210 10211 10212 10213 10214 10215 10216 10217 10218 10219 10220 10221 10222 10223 10224 10225 10226 10227 10228 10229 10230 10231 10232 10233 10234 10235 10236 10237 10238 10239 10240 10241 10242 10243 10244 10245 10246 10247 10248 10249 10250 10251 10252 10253 10254 10255 10256 10257 10258 10259 10260 10261 10262 10263 10264 10265 10266 10267 10268 10269 10270 10271 10272 10273 10274 10275 10276 10277 10278 10279 10280 10281 10282 10283 10284 10285 10286 10287 10288 10289 10290 10291 10292 10293 10294 10295 10296 10297 10298 10299 10300 10301 10302 10303 10304 10305 10306 10307 10308 10309 10310 10311 10312 10313 10314 10315 10316 10317 10318 10319 10320 10321 10322 10323 10324 10325 10326 10327 10328 10329 10330 10331 10332 10333 10334 10335 10336 10337 10338 10339 10340 10341 10342 10343 10344 10345 10346 10347 10348 10349 10350 10351 10352 10353 10354 10355 10356 10357 10358 10359 10360 10361 10362 10363 10364 10365 10366 10367 10368 10369 10370 10371 10372 10373 10374 10375 10376 10377 10378 10379 10380 10381 10382 10383 10384 10385 10386 10387 10388 10389 10390 10391 10392 10393 10394 10395 10396 10397 10398 10399 10400 10401 10402 10403 10404 10405 10406 10407 10408 10409 10410 10411 10412 10413 10414 10415 10416 10417 10418 10419 10420 10421 10422 10423 10424 10425 10426 10427 10428 10429 10430 10431 10432 10433 10434 10435 10436 10437 10438 10439 10440 10441 10442 10443 10444 10445 10446 10447 10448 10449 10450 10451 10452 10453 10454 10455 10456 10457 10458 10459 10460 10461 10462 10463 10464 10465 10466 10467 10468 10469 10470 10471 10472 10473 10474 10475 10476 10477 10478 10479 10480 10481 10482 10483 10484 10485 10486 10487 10488 10489 10490 10491 10492 10493 10494 10495 10496 10497 10498 10499 10500 10501 10502 10503 10504 10505 10506 10507 10508 10509 10510 10511 10512 10513 10514 10515 10516 10517 10518 10519 10520 10521 10522 10523 10524 10525 10526 10527 10528 10529 10530 10531 10532 10533 10534 10535 10536 10537 10538 10539 10540 10541 10542 10543 10544 10545 10546 10547 10548 10549 10550 10551 10552 10553 10554 10555 10556 10557 10558 10559 10560 10561 10562 10563 10564 10565 10566 10567 10568 10569 10570 10571 10572 10573 10574 10575 10576 10577 10578 10579 10580 10581 10582 10583 10584 10585 10586 10587 10588 10589 10590 10591 10592 10593 10594 10595 10596 10597 10598 10599 10600 10601 10602 10603 10604 10605 10606 10607 10608 10609 10610 10611 10612 10613 10614 10615 10616 10617 10618 10619 10620 10621 10622 10623 10624 10625 10626 10627 10628 10629 10630 10631 10632 10633 10634 10635 10636 10637 10638 10639 10640 10641 10642 10643 10644 10645 10646 10647 10648 10649 10650 10651 10652 10653 10654 10655 10656 10657 10658 10659 10660 10661 10662 10663 10664 10665 10666 10667 10668 10669 10670 10671 10672 10673 10674 10675 10676 10677 10678 10679 10680 10681 10682 10683 10684 10685 10686 10687 10688 10689 10690 10691 10692 10693 10694 10695 10696 10697 10698 10699 10700 10701 10702 10703 10704 10705 10706 10707 10708 10709 10710 10711 10712 10713 10714 10715 10716 10717 10718 10719 10720 10721 10722 10723 10724 10725 10726 10727 10728 10729 10730 10731 10732 10733 10734 10735 10736 10737 10738 10739 10740 10741 10742 10743 10744 10745 10746 10747 10748 10749 10750 10751 10752 10753 10754 10755 10756 10757 10758 10759 10760 10761 10762 10763 10764 10765 10766 10767 10768 10769 10770 10771 10772 10773 10774 10775 10776 10777 10778 10779 10780 10781 10782 10783 10784 10785 10786 10787 10788 10789 10790 10791 10792 10793 10794 10795 10796 10797 10798 10799 10800 10801 10802 10803 10804 10805 10806 10807 10808 10809 10810 10811 10812 10813 10814 10815 10816 10817 10818 10819 10820 10821 10822 10823 10824 10825 10826 10827 10828 10829 10830 10831 10832 10833 10834 10835 10836 10837 10838 10839 10840 10841 10842 10843 10844 10845 10846 10847 10848 10849 10850 10851 10852 10853 10854 10855 10856 10857 10858 10859 10860 10861 10862 10863 10864 10865 10866 10867 10868 10869 10870 10871 10872 10873 10874 10875 10876 10877 10878 10879 10880 10881 10882 10883 10884 10885 10886 10887 10888 10889 10890 10891 10892 10893 10894 10895 10896 10897 10898 10899 10900 10901 10902 10903 10904 10905 10906 10907 10908 10909 10910 10911 10912 10913 10914 10915 10916 10917 10918 10919 10920 10921 10922 10923 10924 10925 10926 10927 10928 10929 10930 10931 10932 10933 10934 10935 10936 10937 10938 10939 10940 10941 10942 10943 10944 10945 10946 10947 10948 10949 10950 10951 10952 10953 10954 10955 10956 10957 10958 10959 10960 10961 10962 10963 10964 10965 10966 10967 10968 10969 10970 10971 10972 10973 10974 10975 10976 10977 10978 10979 10980 10981 10982 10983 10984 10985 10986 10987 10988 10989 10990 10991 10992 10993 10994 10995 10996 10997 10998 10999 11000 11001 11002 11003 11004 11005 11006 11007 11008 11009 11010 11011 11012 11013 11014 11015 11016 11017 11018 11019 11020 11021 11022 11023 11024 11025 11026 11027 11028 11029 11030 11031 11032 11033 11034 11035 11036 11037 11038 11039 11040 11041 11042 11043 11044 11045 11046 11047 11048 11049 11050 11051 11052 11053 11054 11055 11056 11057 11058 11059 11060 11061 11062 11063 11064 11065 11066 11067 11068 11069 11070 11071 11072 11073 11074 11075 11076 11077 11078 11079 11080 11081 11082 11083 11084 11085 11086 11087 11088 11089 11090 11091 11092 11093 11094 11095 11096 11097 11098 11099 11100 11101 11102 11103 11104 11105 11106 11107 11108 11109 11110 11111 11112 11113 11114 11115 11116 11117 11118 11119 11120 11121 11122 11123 11124 11125 11126 11127 11128 11129 11130 11131 11132 11133 11134 11135 11136 11137 11138 11139 11140 11141 11142 11143 11144 11145 11146 11147 11148 11149 11150 11151 11152 11153 11154 11155 11156 11157 11158 11159 11160 11161 11162 11163 11164 11165 11166 11167 11168 11169 11170 11171 11172 11173 11174 11175 11176 11177 11178 11179 11180 11181 11182 11183 11184 11185 11186 11187 11188 11189 11190 11191 11192 11193 11194 11195 11196 11197 11198 11199 11200 11201 11202 11203 11204 11205 11206 11207 11208 11209 11210 11211 11212 11213 11214 11215 11216 11217 11218 11219 11220 11221 11222 11223 11224 11225 11226 11227 11228 11229 11230 11231 11232 11233 11234 11235 11236 11237 11238 11239 11240 11241 11242 11243 11244 11245 11246 11247 11248 11249 11250 11251 11252 11253 11254 11255 11256 11257 11258 11259 11260 11261 11262 11263 11264 11265 11266 11267 11268 11269 11270 11271 11272 11273 11274 11275 11276 11277 11278 11279 11280 11281 11282 11283 11284 11285 11286 11287 11288 11289 11290 11291 11292 11293 11294 11295 11296 11297 11298 11299 11300 11301 11302 11303 11304 11305 11306 11307 11308 11309 11310 11311 11312 11313 11314 11315 11316 11317 11318 11319 11320 11321 11322 11323 11324 11325 11326 11327 11328 11329 11330 11331 11332 11333 11334 11335 11336 11337 11338 11339 11340 11341 11342 11343 11344 11345 11346 11347 11348 11349 11350 11351 11352 11353 11354 11355 11356 11357 11358 11359 11360 11361 11362 11363 11364 11365 11366 11367 11368 11369 11370 11371 11372 11373 11374 11375 11376 11377 11378 11379 11380 11381 11382 11383 11384 11385 11386 11387 11388 11389 11390 11391 11392 11393 11394 11395 11396 11397 11398 11399 11400 11401 11402 11403 11404 11405 11406 11407 11408 11409 11410 11411 11412 11413 11414 11415 11416 11417 11418 11419 11420 11421 11422 11423 11424 11425 11426 11427 11428 11429 11430 11431 11432 11433 11434 11435 11436 11437 11438 11439 11440 11441 11442 11443 11444 11445 11446 11447 11448 11449 11450 11451 11452 11453 11454 11455 11456 11457 11458 11459 11460 11461 11462 11463 11464 11465 11466 11467 11468 11469 11470 11471 11472 11473 11474 11475 11476 11477 11478 11479 11480 11481 11482 11483 11484 11485 11486 11487 11488 11489 11490 11491 11492 11493 11494 11495 11496 11497 11498 11499 11500 11501 11502 11503 11504 11505 11506 11507 11508 11509 11510 11511 11512 11513 11514 11515 11516 11517 11518 11519 11520 11521 11522 11523 11524 11525 11526 11527 11528 11529 11530 11531 11532 11533 11534 11535 11536 11537 11538 11539 11540 11541 11542 11543 11544 11545 11546 11547 11548 11549 11550 11551 11552 11553 11554 11555 11556 11557 11558 11559 11560 11561 11562 11563 11564 11565 11566 11567 11568 11569 11570 11571 11572 11573 11574 11575 11576 11577 11578 11579 11580 11581 11582 11583 11584 11585 11586 11587 11588 11589 11590 11591 11592 11593 11594 11595 11596 11597 11598 11599 11600 11601 11602 11603 11604 11605 11606 11607 11608 11609 11610 11611 11612 11613 11614 11615 11616 11617 11618 11619 11620 11621 11622 11623 11624 11625 11626 11627 11628 11629 11630 11631 11632 11633 11634 11635 11636 11637 11638 11639 11640 11641 11642 11643 11644 11645 11646 11647 11648 11649 11650 11651 11652 11653 11654 11655 11656 11657 11658 11659 11660 11661 11662 11663 11664 11665 11666 11667 11668 11669 11670 11671 11672 11673 11674 11675 11676 11677 11678 11679 11680 11681 11682 11683 11684 11685 11686 11687 11688 11689 11690 11691 11692 11693 11694 11695 11696 11697 11698 11699 11700 11701 11702 11703 11704 11705 11706 11707 11708 11709 11710 11711 11712 11713 11714 11715 11716 11717 11718 11719 11720 11721 11722 11723 11724 11725 11726 11727 11728 11729 11730 11731 11732 11733 11734 11735 11736 11737 11738 11739 11740 11741 11742 11743 11744 11745 11746 11747 11748 11749 11750 11751 11752 11753 11754 11755 11756 11757 11758 11759 11760 11761 11762 11763 11764 11765 11766 11767 11768 11769 11770 11771 11772 11773 11774 11775 11776 11777 11778 11779 11780 11781 11782 11783 11784 11785 11786 11787 11788 11789 11790 11791 11792 11793 11794 11795 11796 11797 11798 11799 11800 11801 11802 11803 11804 11805 11806 11807 11808 11809 11810 11811 11812 11813 11814 11815 11816 11817 11818 11819 11820 11821 11822 11823 11824 11825 11826 11827 11828 11829 11830 11831 11832 11833 11834 11835 11836 11837 11838 11839 11840 11841 11842 11843 11844 11845 11846 11847 11848 11849 11850 11851 11852 11853 11854 11855 11856 11857 11858 11859 11860 11861 11862 11863 11864 11865 11866 11867 11868 11869 11870 11871 11872 11873 11874 11875 11876 11877 11878 11879 11880 11881 11882 11883 11884 11885 11886 11887 11888 11889 11890 11891 11892 11893 11894 11895 11896 11897 11898 11899 11900 11901 11902 11903 11904 11905 11906 11907 11908 11909 11910 11911 11912 11913 11914 11915 11916 11917 11918 11919 11920 11921 11922 11923 11924 11925 11926 11927 11928 11929 11930 11931 11932 11933 11934 11935 11936 11937 11938 11939 11940 11941 11942 11943 11944 11945 11946 11947 11948 11949 11950 11951 11952 11953 11954 11955 11956 11957 11958 11959 11960 11961 11962 11963 11964 11965 11966 11967 11968 11969 11970 11971 11972 11973 11974 11975 11976 11977 11978 11979 11980 11981 11982 11983 11984 11985 11986 11987 11988 11989 11990 11991 11992 11993 11994 11995 11996 11997 11998 11999 12000 12001 12002 12003 12004 12005 12006 12007 12008 12009 12010 12011 12012 12013 12014 12015 12016 12017 12018 12019 12020 12021 12022 12023 12024 12025 12026 12027 12028 12029 12030 12031 12032 12033 12034 12035 12036 12037 12038 12039 12040 12041 12042 12043 12044 12045 12046 12047 12048 12049 12050 12051 12052 12053 12054 12055 12056 12057 12058 12059 12060 12061 12062 12063 12064 12065 12066 12067 12068 12069 12070 12071 12072 12073 12074 12075 12076 12077 12078 12079 12080 12081 12082 12083 12084 12085 12086 12087 12088 12089 12090 12091 12092 12093 12094 12095 12096 12097 12098 12099 12100 12101 12102 12103 12104 12105 12106 12107 12108 12109 12110 12111 12112 12113 12114 12115 12116 12117 12118 12119 12120 12121 12122 12123 12124 12125 12126 12127 12128 12129 12130 12131 12132 12133 12134 12135 12136 12137 12138 12139 12140 12141 12142 12143 12144 12145 12146 12147 12148 12149 12150 12151 12152 12153 12154 12155 12156 12157 12158 12159 12160 12161 12162 12163 12164 12165 12166 12167 12168 12169 12170 12171 12172 12173 12174 12175 12176 12177 12178 12179 12180 12181 12182 12183 12184 12185 12186 12187 12188 12189 12190 12191 12192 12193 12194 12195 12196 12197 12198 12199 12200 12201 12202 12203 12204 12205 12206 12207 12208 12209 12210 12211 12212 12213 12214 12215 12216 12217 12218 12219 12220 12221 12222 12223 12224 12225 12226 12227 12228 12229 12230 12231 12232 12233 12234 12235 12236 12237 12238 12239 12240 12241 12242 12243 12244 12245 12246 12247 12248 12249 12250 12251 12252 12253 12254 12255 12256 12257 12258 12259 12260 12261 12262 12263 12264 12265 12266 12267 12268 12269 12270 12271 12272 12273 12274 12275 12276 12277 12278 12279 12280 12281 12282 12283 12284 12285 12286 12287 12288 12289 12290 12291 12292 12293 12294 12295 12296 12297 12298 12299 12300 12301 12302 12303 12304 12305 12306 12307 12308 12309 12310 12311 12312 12313 12314 12315 12316 12317 12318 12319 12320 12321 12322 12323 12324 12325 12326 12327 12328 12329 12330 12331 12332 12333 12334 12335 12336 12337 12338 12339 12340 12341 12342 12343 12344 12345 12346 12347 12348 12349 12350 12351 12352 12353 12354 12355 12356 12357 12358 12359 12360 12361 12362 12363 12364 12365 12366 12367 12368 12369 12370 12371 12372 12373 12374 12375 12376 12377 12378 12379 12380 12381 12382 12383 12384 12385 12386 12387 12388 12389 12390 12391 12392 12393 12394 12395 12396 12397 12398 12399 12400 12401 12402 12403 12404 12405 12406 12407 12408 12409 12410 12411 12412 12413 12414 12415 12416 12417 12418 12419 12420 12421 12422 12423 12424 12425 12426 12427 12428 12429 12430 12431 12432 12433 12434 12435 12436 12437 12438 12439 12440 12441 12442 12443 12444 12445 12446 12447 12448 12449 12450 12451 12452 12453 12454 12455 12456 12457 12458 12459 12460 12461 12462 12463 12464 12465 12466 12467 12468 12469 12470 12471 12472 12473 12474 12475 12476 12477 12478 12479 12480 12481 12482 12483 12484 12485 12486 12487 12488 12489 12490 12491 12492 12493 12494 12495 12496 12497 12498 12499 12500 12501 12502 12503 12504 12505 12506 12507 12508 12509 12510 12511 12512 12513 12514 12515 12516 12517 12518 12519 12520 12521 12522 12523 12524 12525 12526 12527 12528 12529 12530 12531 12532 12533 12534 12535 12536 12537 12538 12539 12540 12541 12542 12543 12544 12545 12546 12547 12548 12549 12550 12551 12552 12553 12554 12555 12556 12557 12558 12559 12560 12561 12562 12563 12564 12565 12566 12567 12568 12569 12570 12571 12572 12573 12574 12575 12576 12577 12578 12579 12580 12581 12582 12583 12584 12585 12586 12587 12588 12589 12590 12591 12592 12593 12594 12595 12596 12597 12598 12599 12600 12601 12602 12603 12604 12605 12606 12607 12608 12609 12610 12611 12612 12613 12614 12615 12616 12617 12618 12619 12620 12621 12622 12623 12624 12625 12626 12627 12628 12629 12630 12631 12632 12633 12634 12635 12636 12637 12638 12639 12640 12641 12642 12643 12644 12645 12646 12647 12648 12649 12650 12651 12652 12653 12654 12655 12656 12657 12658 12659 12660 12661 12662 12663 12664 12665 12666 12667 12668 12669 12670 12671 12672 12673 12674 12675 12676 12677 12678 12679 12680 12681 12682 12683 12684 12685 12686 12687 12688 12689 12690 12691 12692 12693 12694 12695 12696 12697 12698 12699 12700 12701 12702 12703 12704 12705 12706 12707 12708 12709 12710 12711 12712 12713 12714 12715 12716 12717 12718 12719 12720 12721 12722 12723 12724 12725 12726 12727 12728 12729 12730 12731 12732 12733 12734 12735 12736 12737 12738 12739 12740 12741 12742 12743 12744 12745 12746 12747 12748 12749 12750 12751 12752 12753 12754 12755 12756 12757 12758 12759 12760 12761 12762 12763 12764 12765 12766 12767 12768 12769 12770 12771 12772 12773 12774 12775 12776 12777 12778 12779 12780 12781 12782 12783 12784 12785 12786 12787 12788 12789 12790 12791 12792 12793 12794 12795 12796 12797 12798 12799 12800 12801 12802 12803 12804 12805 12806 12807 12808 12809 12810 12811 12812 12813 12814 12815 12816 12817 12818 12819 12820 12821 12822 12823 12824 12825 12826 12827 12828 12829 12830 12831 12832 12833 12834 12835 12836 12837 12838 12839 12840 12841 12842 12843 12844 12845 12846 12847 12848 12849 12850 12851 12852 12853 12854 12855 12856 12857 12858 12859 12860 12861 12862 12863 12864 12865 12866 12867 12868 12869 12870 12871 12872 12873 12874 12875 12876 12877 12878 12879 12880 12881 12882 12883 12884 12885 12886 12887 12888 12889 12890 12891 12892 12893 12894 12895 12896 12897 12898 12899 12900 12901 12902 12903 12904 12905 12906 12907 12908 12909 12910 12911 12912 12913 12914 12915 12916 12917 12918 12919 12920 12921 12922 12923 12924 12925 12926 12927 12928 12929 12930 12931 12932 12933 12934 12935 12936 12937 12938 12939 12940 12941 12942 12943 12944 12945 12946 12947 12948 12949 12950 12951 12952 12953 12954 12955 12956 12957 12958 12959 12960 12961 12962 12963 12964 12965 12966 12967 12968 12969 12970 12971 12972 12973 12974 12975 12976 12977 12978 12979 12980 12981 12982 12983 12984 12985 12986 12987 12988 12989 12990 12991 12992 12993 12994 12995 12996 12997 12998 12999 13000 13001 13002 13003 13004 13005 13006 13007 13008 13009 13010 13011 13012 13013 13014 13015 13016 13017 13018 13019 13020 13021 13022 13023 13024 13025 13026 13027 13028 13029 13030 13031 13032 13033 13034 13035 13036 13037 13038 13039 13040 13041 13042 13043 13044 13045 13046 13047 13048 13049 13050 13051 13052 13053 13054 13055 13056 13057 13058 13059 13060 13061 13062 13063 13064 13065 13066 13067 13068 13069 13070 13071 13072 13073 13074 13075 13076 13077 13078 13079 13080 13081 13082 13083 13084 13085 13086 13087 13088 13089 13090 13091 13092 13093 13094 13095 13096 13097 13098 13099 13100 13101 13102 13103 13104 13105 13106 13107 13108 13109 13110 13111 13112 13113 13114 13115 13116 13117 13118 13119 13120 13121 13122 13123 13124 13125 13126 13127 13128 13129 13130 13131 13132 13133 13134 13135 13136 13137 13138 13139 13140 13141 13142 13143 13144 13145 13146 13147 13148 13149 13150 13151 13152 13153 13154 13155 13156 13157 13158 13159 13160 13161 13162 13163 13164 13165 13166 13167 13168 13169 13170 13171 13172 13173 13174 13175 13176 13177 13178 13179 13180 13181 13182 13183 13184 13185 13186 13187 13188 13189 13190 13191 13192 13193 13194 13195 13196 13197 13198 13199 13200 13201 13202 13203 13204 13205 13206 13207 13208 13209 13210 13211 13212 13213 13214 13215 13216 13217 13218 13219 13220 13221 13222 13223 13224 13225 13226 13227 13228 13229 13230 13231 13232 13233 13234 13235 13236 13237 13238 13239 13240 13241 13242 13243 13244 13245 13246 13247 13248 13249 13250 13251 13252 13253 13254 13255 13256 13257 13258 13259 13260 13261 13262 13263 13264 13265 13266 13267 13268 13269 13270 13271 13272 13273 13274 13275 13276 13277 13278 13279 13280 13281 13282 13283 13284 13285 13286 13287 13288 13289 13290 13291 13292 13293 13294 13295 13296 13297 13298 13299 13300 13301 13302 13303 13304 13305 13306 13307 13308 13309 13310 13311 13312 13313 13314 13315 13316 13317 13318 13319 13320 13321 13322 13323 13324 13325 13326 13327 13328 13329 13330 13331 13332 13333 13334 13335 13336 13337 13338 13339 13340 13341 13342 13343 13344 13345 13346 13347 13348 13349 13350 13351 13352 13353 13354 13355 13356 13357 13358 13359 13360 13361 13362 13363 13364 13365 13366 13367 13368 13369 13370 13371 13372 13373 13374 13375 13376 13377 13378 13379 13380 13381 13382 13383 13384 13385 13386 13387 13388 13389 13390 13391 13392 13393 13394 13395 13396 13397 13398 13399 13400 13401 13402 13403 13404 13405 13406 13407 13408 13409 13410 13411 13412 13413 13414 13415 13416 13417 13418 13419 13420 13421 13422 13423 13424 13425 13426 13427 13428 13429 13430 13431 13432 13433 13434 13435 13436 13437 13438 13439 13440 13441 13442 13443 13444 13445 13446 13447 13448 13449 13450 13451 13452 13453 13454 13455 13456 13457 13458 13459 13460 13461 13462 13463 13464 13465 13466 13467 13468 13469 13470 13471 13472 13473 13474 13475 13476 13477 13478 13479 13480 13481 13482 13483 13484 13485 13486 13487 13488 13489 13490 13491 13492 13493 13494 13495 13496 13497 13498 13499 13500 13501 13502 13503 13504 13505 13506 13507 13508 13509 13510 13511 13512 13513 13514 13515 13516 13517 13518 13519 13520 13521 13522 13523 13524 13525 13526 13527 13528 13529 13530 13531 13532 13533 13534 13535 13536 13537 13538 13539 13540 13541 13542 13543 13544 13545 13546 13547 13548 13549 13550 13551 13552 13553 13554 13555 13556 13557 13558 13559 13560 13561 13562 13563 13564 13565 13566 13567 13568 13569 13570 13571 13572 13573 13574 13575 13576 13577 13578 13579 13580 13581 13582 13583 13584 13585 13586 13587 13588 13589 13590 13591 13592 13593 13594 13595 13596 13597 13598 13599 13600 13601 13602 13603 13604 13605 13606 13607 13608 13609 13610 13611 13612 13613 13614 13615 13616 13617 13618 13619 13620 13621 13622 13623 13624 13625 13626 13627 13628 13629 13630 13631 13632 13633 13634 13635 13636 13637 13638 13639 13640 13641 13642 13643 13644 13645 13646 13647 13648 13649 13650 13651 13652 13653 13654 13655 13656 13657 13658 13659 13660 13661 13662 13663 13664 13665 13666 13667 13668 13669 13670 13671 13672 13673 13674 13675 13676 13677 13678 13679 13680 13681 13682 13683 13684 13685 13686 13687 13688 13689 13690 13691 13692 13693 13694 13695 13696 13697 13698 13699 13700 13701 13702 13703 13704 13705 13706 13707 13708 13709 13710 13711 13712 13713 13714 13715 13716 13717 13718 13719 13720 13721 13722 13723 13724 13725 13726 13727 13728 13729 13730 13731 13732 13733 13734 13735 13736 13737 13738 13739 13740 13741 13742 13743 13744 13745 13746 13747 13748 13749 13750 13751 13752 13753 13754 13755 13756 13757 13758 13759 13760 13761 13762 13763 13764 13765 13766 13767 13768 13769 13770 13771 13772 13773 13774 13775 13776 13777 13778 13779 13780 13781 13782 13783 13784 13785 13786 13787 13788 13789 13790 13791 13792 13793 13794 13795 13796 13797 13798 13799 13800 13801 13802 13803 </DataArray>
        <DataArray type="Float64" Name="stress" format="ascii" NumberOfComponents="9">74346184.81950027 -234613.8380323858 -234613.8380323858 3795412.884308457 0 0 0 0 0 74229793.52563706 -328535.31240447 -328535.31240447 3563546.862457539 0 0 0 0 0 73960883.40600444 -234450.7438781435 -234450.7438781435 3728987.162479495 0 0 0 0 0 74576779.48518397 -627409.2094193484 -627409.2094193484 3816842.365120523 0 0 0 0 0 73703336.6374864 -251120.8806170322 -251120.8806170322 3742359.290985671 0 0 0 0 0 73904596.80188756 -655472.9313274889 -655472.9313274889 3651346.204287277 0 0 0 0 0 74191661.60368864 -889533.1695587578 -889533.1695587578 3520067.45357451 0 0 0 0 0 73438930.97122975 -252999.5250993964 -252999.5250993964 3780910.674149556 0 0 0 0 0 73720561.21530391 -672497.6151589438 -672497.6151589438 3748775.825353818 0 0 0 0 0 74699846.416631 -1215606.437917375 -1215606.437917375 3832382.569911527 0 0 0 0 0 73053862.18738446 -273583.2638520317 -273583.2638520317 3777861.949202023 0 0 0 0 0 73356485.91335048 -722237.5749976303 -722237.5749976303 3761825.970114893 0 0 0 0 0 73798747.96092533 -1148236.990593121 -1148236.990593121 3790932.271298474 0 0 0 0 0 74252242.86484937 -1479174.474850405 -1479174.474850405 3474320.071907882 0 0 0 0 0 73763228.73783641 -1215150.17567862 -1215150.17567862 3567152.508638314 0 0 0 0 0 72762430.39567572 -281008.1835708023 -281008.1835708023 3813126.126089219 0 0 0 0 0 73127429.84601122 -707613.25482501 -707613.25482501 3802285.491263721 0 0 0 0 0 73245365.36398287 -1127814.937715592 -1127814.937715592 3685564.920398972 0 0 0 0 0 74810967.78358762 -1809146.383443263 -1809146.383443263 3779353.631637289 0 0 0 0 0 74353423.63881199 -2069588.833497482 -2069588.833497482 3409185.071832556 0 0 0 0 0 74220497.78460406 -1677391.446856048 -1677391.446856048 3800829.95758846 0 0 0 0 0 72393190.74210328 -292733.7567944925 -292733.7567944925 3828432.763530535 0 0 0 0 0 72669118.35855764 -806590.4695063629 -806590.4695063629 3769694.505466409 0 0 0 0 0 73166384.35450907 -1108720.125910881 -1108720.125910881 3823875.987052856 0 0 0 0 0 73525393.51392615 -1569819.917398063 -1569819.917398063 3804064.021814572 0 0 0 0 0 73936571.12129278 -1829561.537621556 -1829561.537621556 3523051.502715013 0 0 0 0 0 74932008.95310552 -2383654.945455278 -2383654.945455278 3671470.193460857 0 0 0 0 0 74502373.99635501 -2637869.177899361 -2637869.177899361 3327281.7916353 0 0 0 0 0 73395714.33276728 -1667418.571791386 -1667418.571791386 3575202.678691055 0 0 0 0 0 71946969.08676034 -276992.5397982226 -276992.5397982226 3787908.904870007 0 0 0 0 0 72833690.37374635 -904108.120835816 -904108.120835816 3970054.807347248 0 0 0 0 0 72589853.07100658 -1038403.419232543 -1038403.419232543 3736363.142518492 0 0 0 0 0 72855296.28322068 -1573292.199590401 -1573292.199590401 3646082.467700296 0 0 0 0 0 74438015.54590385 -2224560.630812809 -2224560.630812809 3748629.365354969 0 0 0 0 0 74034771.68789704 -2439576.826871437 -2439576.826871437 3396940.557749435 0 0 0 0 0 75114603.50348537 -2991007.866347665 -2991007.866347665 3644920.293416772 0 0 0 0 0 74748690.56355809 -3221624.184503016 -3221624.184503016 3244107.408720131 0 0 0 0 0 73814861.51523159 -2129366.441956367 -2129366.441956367 3719446.725277652 0 0 0 0 0 71699447.0808243 -279049.3347751692 -279049.3347751692 3842643.290201452 0 0 0 0 0 72267199.11194871 -759459.6079804598 -759459.6079804598 4033898.109884322 0 0 0 0 0 71989374.0154403 -921886.0860213891 -921886.0860213891 3716198.684997548 0 0 0 0 0 72881615.34929815 -1512486.483283471 -1512486.483283471 3849335.711216328 0 0 0 0 0 73133805.43810076 -2090560.506972714 -2090560.506972714 3766030.573855309 0 0 0 0 0 73711682.38507424 -2209301.617026838 -2209301.617026838 3544173.051157623 0 0 0 0 0 74533538.61098462 -2660995.760842348 -2660995.760842348 3644756.653403614 0 0 0 0 0 74145683.03287503 -3015419.216688542 -3015419.216688542 3353103.556731098 0 0 0 0 0 75319505.10746033 -3548118.915566904 -3548118.915566904 3526675.667493613 0 0 0 0 0 73158250.80788159 -2151019.751527511 -2151019.751527511 3572068.1699941 0 0 0 0 0 71657652.88292377 -339273.0852707703 -339273.0852707703 3993249.079764544 0 0 0 0 0 71184557.6970605 -770116.5034956818 -770116.5034956818 3711048.226650311 0 0 0 0 0 72417359.51212279 -1343238.851410124 -1343238.851410124 3965754.412123524 0 0 0 0 0 72139899.70942867 -1500075.263929154 -1500075.263929154 3659627.656460428 0 0 0 0 0 72452406.65835352 -2088948.323336624 -2088948.323336624 3605284.324675241 0 0 0 0 0 73943419.93240297 -2675449.824176403 -2675449.824176403 3553531.63421238 0 0 0 0 0 74702043.59687524 -3293015.321451654 -3293015.321451654 3600084.379357296 0 0 0 0 0 74950025.96782903 -3789779.461910588 -3789779.461910588 3117720.537500424 0 0 0 0 0 74332195.38778138 -3543345.215518714 -3543345.215518714 3230511.714998667 0 0 0 0 0 73458112.26995926 -2674938.717837811 -2674938.717837811 3679329.275485865 0 0 0 0 0 71053595.97623618 -348471.2862450196 -348471.2862450196 3905583.133744408 0 0 0 0 0 71746075.87721622 -1148144.192784058 -1148144.192784058 4028521.312675996 0 0 0 0 0 71413790.16224155 -1333329.148990545 -1333329.148990545 3684657.746302377 0 0 0 0 0 72556392.86220765 -1996604.073274627 -1996604.073274627 3854340.689213453 0 0 0 0 0 72865262.92247652 -2592334.361593304 -2592334.361593304 3756390.061513234 0 0 0 0 0 73541423.04055318 -2705066.334451204 -2705066.334451204 3537306.418280997 0 0 0 0 0 73802956.01132691 -3303537.107635523 -3303537.107635523 3340095.350655558 0 0 0 0 0 75543097.15826027 -4107054.435414766 -4107054.435414766 3347000.013992004 0 0 0 0 0 75009604.35379247 -3877406.288788107 -3877406.288788107 3462192.516212507 0 0 0 0 0 75214712.45459217 -4327240.458256893 -4327240.458256893 2981521.900585193 0 0 0 0 0 75579563.52199389 -4855439.089508019 -4855439.089508019 2847587.311173553 0 0 0 0 0 72827523.96384202 -2657243.185854512 -2657243.185854512 3533659.024113412 0 0 0 0 0 70642040.1983809 -360895.118075572 -360895.118075572 3922142.900056039 0 0 0 0 0 70752158.01836313 -1160950.814554085 -1160950.814554085 3752591.646952528 0 0 0 0 0 71888723.98516355 -1877276.027908989 -1877276.027908989 3920916.726284891 0 0 0 0 0 71758408.79756002 -1980119.556338621 -1980119.556338621 3656314.693277108 0 0 0 0 0 72126630.01307935 -2575232.735732398 -2575232.735732398 3581729.287172458 0 0 0 0 0 73878614.5788558 -3227041.751812757 -3227041.751812757 3577617.192357523 0 0 0 0 0 74319677.53680061 -3771671.398051936 -3771671.398051936 3458133.578644694 0 0 0 0 0 74606024.55392107 -4143486.986695889 -4143486.986695889 3073114.465241042 0 0 0 0 0 74097578.59306641 -3901020.464326561 -3901020.464326561 3200131.810359128 0 0 0 0 0 75775948.78755999 -4731373.529705666 -4731373.529705666 3159496.231099674 0 0 0 0 0 76124162.89661829 -5242933.972091652 -5242933.972091652 2998972.625206396 0 0 0 0 0 75928264.51108797 -5367060.561122911 -5367060.561122911 2682176.344777874 0 0 0 0 0 73204150.69626205 -3165211.092291053 -3165211.092291053 3646596.8551693 0 0 0 0 0 70340110.57698661 -338344.9576152362 -338344.9576152362 3991255.199350041 0 0 0 0 0 70836689.259435 -1062682.331604479 -1062682.331604479 4006682.957405036 0 0 0 0 0 71239260.76656966 -1748940.758358621 -1748940.758358621 3977353.866229658 0 0 0 0 0 71069858.21825355 -1863563.516778046 -1863563.516778046 3718162.347541434 0 0 0 0 0 72192255.65633425 -2496926.536991968 -2496926.536991968 3823132.243029427 0 0 0 0 0 72537299.62649935 -3095249.394721781 -3095249.394721781 3714129.486906093 0 0 0 0 0 73190172.52202852 -3226459.547429118 -3226459.547429118 3420965.369049325 0 0 0 0 0 73615644.32998788 -3775974.484777521 -3775974.484777521 3308499.76103935 0 0 0 0 0 74871103.14402804 -4263561.042311778 -4263561.042311778 3271006.384237928 0 0 0 0 0 74619959.80401282 -4265440.53659367 -4265440.53659367 3317634.166965202 0 0 0 0 0 75113563.76901731 -4785435.713125053 -4785435.713125053 2989097.65860434 0 0 0 0 0 75399913.87734437 -5299578.31535191 -5299578.31535191 2789007.791712926 0 0 0 0 0 76535517.87922755 -5734383.67537099 -5734383.67537099 2857014.732454376 0 0 0 0 0 76319471.87187915 -5871669.584419753 -5871669.584419753 2504152.724682912 0 0 0 0 0 76751824.26632161 -6375291.087390248 -6375291.087390248 2314477.487180568 0 0 0 0 0 72517066.35443226 -3157219.077313479 -3157219.077313479 3491570.79092534 0 0 0 0 0 69819163.8102863 -334564.0857245788 -334564.0857245788 3935879.650376404 0 0 0 0 0 70040610.91856363 -1046210.691698153 -1046210.691698153 3831749.756815571 0 0 0 0 0 70342112.56275479 -1732878.372602409 -1732878.372602409 3756813.761526007 0 0 0 0 0 71488785.01898977 -2401993.784409858 -2401993.784409858 3889224.65904341 0 0 0 0 0 71427056.60033968 -2483257.125893433 -2483257.125893433 3644922.534348696 0 0 0 0 0 71820497.48609297 -3086676.35254157 -3086676.35254157 3551844.690129764 0 0 0 0 0 73599418.5221106 -3725107.625562975 -3725107.625562975 3522991.648611643 0 0 0 0 0 73998190.04987666 -4271707.466644512 -4271707.466644512 3382448.701833555 0 0 0 0 0 74940624.7570793 -4773129.311895268 -4773129.311895268 3186123.58852853 0 0 0 0 0 74067902.83905296 -4296584.384273718 -4296584.384273718 3206877.817321958 0 0 0 0 0 75471790.74595708 -5238637.814448782 -5238637.814448782 2989656.354971095 0 0 0 0 0 75969641.30503233 -5607631.788014849 -5607631.788014849 3009480.681494225 0 0 0 0 0 75667311.12521541 -5817125.124200092 -5817125.124200092 2592382.514752971 0 0 0 0 0 76945152.45165351 -6250837.317955348 -6250837.317955348 2700066.090519457 0 0 0 0 0 77359897.22186273 -6742619.647425689 -6742619.647425689 2452133.766119745 0 0 0 0 0 77198710.00547603 -6846899.276100681 -6846899.276100681 2106628.400805288 0 0 0 0 0 72914881.54503524 -3675902.982397702 -3675902.982397702 3588133.339281892 0 0 0 0 0 69595652.9608373 -322897.9438967527 -322897.9438967527 4034813.943532677 0 0 0 0 0 70029502.63243698 -979364.253382056 -979364.253382056 4029338.058981969 0 0 0 0 0 70449297.70955496 -1631055.228237848 -1631055.228237848 4021648.170451109 0 0 0 0 0 70796887.52229653 -2300206.382682813 -2300206.382682813 3947626.013728464 0 0 0 0 0 70697148.93664795 -2390199.110392414 -2390199.110392414 3705988.793803824 0 0 0 0 0 71837141.51991555 -3024016.404629114 -3024016.404629114 3774929.422132122 0 0 0 0 0 72222920.72931868 -3627427.515353287 -3627427.515353287 3651686.561775588 0 0 0 0 0 72942182.98097913 -3726016.992434782 -3726016.992434782 3376168.339890201 0 0 0 0 0 73397214.93595886 -4280645.622505477 -4280645.622505477 3248599.46842396 0 0 0 0 0 74529099.13708776 -4796346.697744416 -4796346.697744416 3098293.262281687 0 0 0 0 0 74451794.54942062 -4792469.758557279 -4792469.758557279 3223137.869394917 0 0 0 0 0 75219037.42270865 -5262413.080747166 -5262413.080747166 2966091.445930431 0 0 0 0 0 75103863.70799497 -5652143.525943073 -5652143.525943073 2752975.023554478 0 0 0 0 0 76288366.13947059 -6089906.034190358 -6089906.034190358 2789640.137712577 0 0 0 0 0 76008203.74987918 -6306460.349050844 -6306460.349050844 2418356.63083412 0 0 0 0 0 76518551.69848749 -6773850.565623596 -6773850.565623596 2200258.500229743 0 0 0 0 0 77795943.32789156 -7201204.965241791 -7201204.965241791 2205751.791076213 0 0 0 0 0 72249448.08456807 -3676247.178668694 -3676247.178668694 3443020.851461888 0 0 0 0 0 69080489.61187929 -303051.5541679271 -303051.5541679271 3966439.903798953 0 0 0 0 0 69353787.72880191 -944501.9539418812 -944501.9539418812 3910463.943184299 0 0 0 0 0 69583505.94180137 -1608759.420043923 -1608759.420043923 3813616.859101268 0 0 0 0 0 69924516.84093855 -2288082.656730073 -2288082.656730073 3732881.271255038 0 0 0 0 0 71106364.51566748 -2958159.858746605 -2958159.858746605 3836021.711739102 0 0 0 0 0 71108913.86647469 -3018008.3669308 -3018008.3669308 3612354.088686245 0 0 0 0 0 71534627.80064932 -3626164.506071498 -3626164.506071498 3502267.383903468 0 0 0 0 0 73346848.33819522 -4242608.668661862 -4242608.668661862 3451469.828455676 0 0 0 0 0 73792470.0923195 -4787082.978775818 -4787082.978775818 3290765.600730553 0 0 0 0 0 74813837.12133354 -5288026.462856879 -5288026.462856879 3038083.739799902 0 0 0 0 0 73867141.98448612 -4808186.904581632 -4808186.904581632 3098123.428094073 0 0 0 0 0 75600606.93808848 -5835240.144946765 -5835240.144946765 2931779.052283043 0 0 0 0 0 75327243.2840078 -6137018.921752266 -6137018.921752266 2517666.034844125 0 0 0 0 0 76671003.95998697 -6675635.489931589 -6675635.489931589 2531323.39053985 0 0 0 0 0 77164071.26718894 -7167068.717380708 -7167068.717380708 2299949.687602527 0 0 0 0 0 77654178.9770914 -7293909.900604528 -7293909.900604528 1880362.216664746 0 0 0 0 0 77093325.29578598 -7232754.408911749 -7232754.408911749 1998951.019182102 0 0 0 0 0 72660872.1657767 -4212554.339861202 -4212554.339861202 3511910.661682708 0 0 0 0 0 68812085.82551953 -318889.2454405361 -318889.2454405361 4027902.082927687 0 0 0 0 0 69198054.47198205 -919384.6154971432 -919384.6154971432 4053503.768768406 0 0 0 0 0 69668424.72918768 -1519176.11541997 -1519176.11541997 4069240.092277158 0 0 0 0 0 70052995.25641623 -2179483.13762061 -2179483.13762061 4017181.468207397 0 0 0 0 0 70380197.57389189 -2875506.454588066 -2875506.454588066 3910722.435693351 0 0 0 0 0 70332601.67810692 -2946541.935562387 -2946541.935562387 3665141.595195496 0 0 0 0 0 71500553.5321738 -3580468.10178535 -3580468.10178535 3710308.717647387 0 0 0 0 0 71948862.88169359 -4183385.476593283 -4183385.476593283 3578365.56934039 0 0 0 0 0 72712998.28509609 -4250735.427196769 -4250735.427196769 3307814.127707211 0 0 0 0 0 73224913.2928168 -4793301.975112676 -4793301.975112676 3169732.145000712 0 0 0 0 0 74324030.66416034 -5328088.37595045 -5328088.37595045 2958493.323807842 0 0 0 0 0 74275470.08033706 -5301738.497241672 -5301738.497241672 3134056.884465263 0 0 0 0 0 74726676.06800911 -5862252.188633013 -5862252.188633013 2668791.542022139 0 0 0 0 0 75547544.88514382 -6234405.662644336 -6234405.662644336 2675153.847067583 0 0 0 0 0 75950542.60506503 -6720139.643916574 -6720139.643916574 2338409.414750825 0 0 0 0 0 76516245.74480815 -7205547.028310292 -7205547.028310292 2133256.123906065 0 0 0 0 0 78286988.82890281 -7639610.609055948 -7639610.609055948 1966472.387455488 0 0 0 0 0 77722685.29495117 -7586440.548593015 -7586440.548593015 2069540.797381112 0 0 0 0 0 78169414.09054339 -7717496.022716378 -7717496.022716378 1652644.391134688 0 0 0 0 0 78730923.21846737 -8099482.708933639 -8099482.708933639 1421094.70866858 0 0 0 0 0 71990354.51512322 -4227342.234798347 -4227342.234798347 3362002.978191081 0 0 0 0 0 68429224.23686548 -333364.2386029818 -333364.2386029818 4044600.832808013 0 0 0 0 0 68700411.55997638 -893924.2224427335 -893924.2224427335 4002699.590122664 0 0 0 0 0 68860683.3478484 -1498521.505447864 -1498521.505447864 3889232.705341878 0 0 0 0 0 69131194.80944562 -2169081.598348474 -2169081.598348474 3788698.118799857 0 0 0 0 0 69533039.21157771 -2871649.318023734 -2871649.318023734 3698211.588403016 0 0 0 0 0 70739758.85604818 -3536421.232514606 -3536421.232514606 3763686.716343198 0 0 0 0 0 70789795.06689383 -3571798.642686572 -3571798.642686572 3553186.693223823 0 0 0 0 0 71245587.74520507 -4189752.925878142 -4189752.925878142 3417085.680826567 0 0 0 0 0 73098881.02191678 -4784729.722854204 -4784729.722854204 3343553.114197479 0 0 0 0 0 73561671.61438736 -5317632.947248985 -5317632.947248985 3166631.40560929 0 0 0 0 0 74843825.91258362 -5775007.308979 -5775007.308979 2955993.237521628 0 0 0 0 0 73731904.38533282 -5305803.227323361 -5305803.227323361 3020068.355135918 0 0 0 0 0 75249728.34102803 -6252941.248008033 -6252941.248008033 2734829.003235455 0 0 0 0 0 75781313.57941501 -6726375.742943693 -6726375.742943693 2528281.481704661 0 0 0 0 0 76482409.93286413 -7178772.691447759 -7178772.691447759 2324180.8042023 0 0 0 0 0 77047231.03964716 -7606279.0660699 -7606279.0660699 2073370.54490644 0 0 0 0 0 77545184.65807365 -7701688.540190079 -7701688.540190079 1735557.216324021 0 0 0 0 0 77160836.53759511 -7614537.829776907 -7614537.829776907 1919691.026963236 0 0 0 0 0 78717238.35560149 -8085599.848235797 -8085599.848235797 1612488.410999902 0 0 0 0 0 79392938.29071607 -8381587.746102965 -8381587.746102965 1584862.363020841 0 0 0 0 0 79196742.62587522 -8501929.479567118 -8501929.479567118 1144836.234579954 0 0 0 0 0 72411204.2492656 -4776127.135835481 -4776127.135835481 3411546.465342726 0 0 0 0 0 67986120.74124987 -342911.4106846549 -342911.4106846549 4059896.843787732 0 0 0 0 0 68264043.64347491 -953143.6153991445 -953143.6153991445 3953103.983007666 0 0 0 0 0 68943519.1464007 -1408966.331146105 -1408966.331146105 4163784.922793676 0 0 0 0 0 69256618.52165565 -2063995.691487948 -2063995.691487948 4058453.993598808 0 0 0 0 0 69616476.94931415 -2781037.187580104 -2781037.187580104 3955093.993633783 0 0 0 0 0 69971792.33712073 -3473331.85436606 -3473331.85436606 3825808.103863688 0 0 0 0 0 70024233.40614274 -3519130.141308215 -3519130.141308215 3619831.425003623 0 0 0 0 0 71199545.28175026 -4148560.272673066 -4148560.272673066 3632169.432782834 0 0 0 0 0 71684585.93443538 -4762084.551928184 -4762084.551928184 3477465.465837346 0 0 0 0 0 72498695.07474351 -4798379.291206832 -4798379.291206832 3218176.126022677 0 0 0 0 0 73041783.38865906 -5333263.953286294 -5333263.953286294 3065431.620280056 0 0 0 0 0 74214080.3274066 -5817345.427966656 -5817345.427966656 2816118.659435287 0 0 0 0 0 74054615.26911327 -5817540.292944759 -5817540.292944759 2984122.011139267 0 0 0 0 0 74792828.45793262 -6302550.333183169 -6302550.333183169 2664604.038292543 0 0 0 0 0 75392983.15553176 -6768864.674471535 -6768864.674471535 2465947.273700599 0 0 0 0 0 75961758.39947145 -7214597.070302046 -7214597.070302046 2209283.174392662 0 0 0 0 0 76583248.66531494 -7660524.560189851 -7660524.560189851 1988122.915982889 0 0 0 0 0 78036053.83041495 -7849249.501906374 -7849249.501906374 1861303.078386605 0 0 0 0 0 77473814.84292276 -7962622.980269911 -7962622.980269911 1767198.815304714 0 0 0 0 0 78622570.82656907 -8155961.944063445 -8155961.944063445 1637082.148182677 0 0 0 0 0 78511705.37597808 -8473668.583327657 -8473668.583327657 1302837.480427633 0 0 0 0 0 79886685.0402291 -8774494.088671897 -8774494.088671897 1252751.32707447 0 0 0 0 0 79743970.56827208 -8852770.674400751 -8852770.674400751 878743.3315200674 0 0 0 0 0 81101799.54290131 -9499337.186210297 -9499337.186210297 389870.2276591756 0 0 0 0 0 80443878.07842615 -9181780.465258515 -9181780.465258515 645962.9695988684 0 0 0 0 0 71776414.85107917 -4788885.73421796 -4788885.73421796 3273390.652523031 0 0 0 0 0 67746205.02009724 -374746.9371515938 -374746.9371515938 4126593.355592145 0 0 0 0 0 68410354.67448804 -1059663.108141446 -1059663.108141446 4180857.791395067 0 0 0 0 0 67944981.53317252 -1393119.667898021 -1393119.667898021 3892678.502092175 0 0 0 0 0 68298030.49624145 -2035658.170568349 -2035658.170568349 3807187.810323778 0 0 0 0 0 68716722.36011107 -2768945.842164616 -2768945.842164616 3731366.316757174 0 0 0 0 0 69201879.3764876 -3468396.55849776 -3468396.55849776 3649314.379028314 0 0 0 0 0 70408075.26402584 -4132155.780915644 -4132155.780915644 3680599.172628971 0 0 0 0 0 70512638.13391967 -4154748.602641293 -4154748.602641293 3487093.728006585 0 0 0 0 0 71006639.48506568 -4780907.22564471 -4780907.22564471 3327780.113674413 0 0 0 0 0 72890056.74184456 -5337777.658494723 -5337777.658494723 3230502.665315751 0 0 0 0 0 73383759.12415873 -5862929.409131537 -5862929.409131537 3037994.767624532 0 0 0 0 0 74611623.35762744 -6309730.060832728 -6309730.060832728 2799916.331508353 0 0 0 0 0 73589978.53465974 -5841952.731800042 -5841952.731800042 2900295.963729427 0 0 0 0 0 75201637.51104093 -6792514.697488732 -6792514.697488732 2587286.493603733 0 0 0 0 0 75742037.40287763 -7240339.047425018 -7240339.047425018 2354268.956926024 0 0 0 0 0 76388077.68804385 -7675076.174040143 -7675076.174040143 2117656.814467689 0 0 0 0 0 77026869.01548475 -8077371.900803598 -8077371.900803598 1871354.207180018 0 0 0 0 0 77978098.77046157 -8263281.6157335 -8263281.6157335 1579225.279504768 0 0 0 0 0 77310054.71747744 -8022090.590725521 -8022090.590725521 1787616.691877126 0 0 0 0 0 79178519.46004249 -8666926.506949343 -8666926.506949343 1419048.900906795 0 0 0 0 0 78958182.44468333 -8853905.82931385 -8853905.82931385 969085.47386815 0 0 0 0 0 80388237.7792937 -9213559.831994912 -9213559.831994912 879649.1882113799 0 0 0 0 0 81012113.27608973 -9524873.810038345 -9524873.810038345 603268.5718679415 0 0 0 0 0 81646442.56974179 -9780757.643650839 -9780757.643650839 344274.069545667 0 0 0 0 0 81636556.71897903 -9783216.731565656 -9783216.731565656 87884.18970406313 0 0 0 0 0 72164444.88101569 -5357639.786156655 -5357639.786156655 3288404.319355112 0 0 0 0 0 67164122.17995545 -391145.5306329572 -391145.5306329572 4068170.603825871 0 0 0 0 0 67529824.78850213 -1089414.349047882 -1089414.349047882 3992883.070752372 0 0 0 0 0 68478674.15879269 -1910576.95981088 -1910576.95981088 4114358.99493646 0 0 0 0 0 68814497.22873282 -2667086.649177733 -2667086.649177733 4018463.049059897 0 0 0 0 0 69219048.74113883 -3400534.147580608 -3400534.147580608 3895521.982427694 0 0 0 0 0 69621732.76960501 -4098761.898298285 -4098761.898298285 3739684.881938452 0 0 0 0 0 69705271.1961606 -4130028.094722707 -4130028.094722707 3529971.007533246 0 0 0 0 0 70899573.7888703 -4758782.315568599 -4758782.315568599 3522639.754562336 0 0 0 0 0 71443552.35482137 -5369270.863423766 -5369270.863423766 3355450.712058682 0 0 0 0 0 72323964.93975787 -5354737.745250983 -5354737.745250983 3117391.729267271 0 0 0 0 0 72902724.43684666 -5883336.584903795 -5883336.584903795 2952609.689814168 0 0 0 0 0 74149147.78924859 -6335452.839001471 -6335452.839001471 2705416.450194733 0 0 0 0 0 73935816.41364239 -6362248.879437495 -6362248.879437495 2846789.344404793 0 0 0 0 0 74756037.30021212 -6824938.239310352 -6824938.239310352 2499808.544604316 0 0 0 0 0 75390774.72798322 -7282999.329128073 -7282999.329128073 2298299.391907228 0 0 0 0 0 76033186.89471683 -7715595.907946844 -7715595.907946844 2060954.749523901 0 0 0 0 0 76688644.4212196 -8124865.920343066 -8124865.920343066 1819314.052139394 0 0 0 0 0 77988201.79750654 -8323558.663812916 -8323558.663812916 1633951.637616233 0 0 0 0 0 77555903.03339827 -8439175.013518058 -8439175.013518058 1608375.206569957 0 0 0 0 0 78503264.24708696 -8730252.961016823 -8730252.961016823 1213402.894786145 0 0 0 0 0 79439879.26984192 -8985788.680530585 -8985788.680530585 1149655.145242673 0 0 0 0 0 79958494.90058129 -9261200.887785587 -9261200.887785587 775385.0138962886 0 0 0 0 0 80664360.60099141 -9572889.023427347 -9572889.023427347 518560.7847847578 0 0 0 0 0 81396517.95730205 -9813193.784480181 -9813193.784480181 284007.6369724319 0 0 0 0 0 82164358.80319594 -9941921.700046849 -9941921.700046849 156106.6890068671 0 0 0 0 0 71579998.55493213 -5376190.361959142 -5376190.361959142 3168525.373766828 0 0 0 0 0 66768682.62664012 -397806.7377491451 -397806.7377491451 4096931.322570255 0 0 0 0 0 67317349.03629579 -1111035.223375726 -1111035.223375726 4090246.505746069 0 0 0 0 0 67531682.47343726 -1898785.56555677 -1898785.56555677 3876074.292196461 0 0 0 0 0 67884796.07677883 -2658746.781209216 -2658746.781209216 3790786.53665236 0 0 0 0 0 68336275.52112141 -3395850.859384058 -3395850.859384058 3679951.615125583 0 0 0 0 0 68875560.16939843 -4096855.55118752 -4096855.55118752 3574312.959778924 0 0 0 0 0 70114801.04199569 -4756701.123888829 -4756701.123888829 3579843.584431206 0 0 0 0 0 70251386.36202218 -4766549.978094925 -4766549.978094925 3387881.124295838 0 0 0 0 0 70793800.43958512 -5389553.627549727 -5389553.627549727 3210447.203383541 0 0 0 0 0 72687176.46527316 -5910985.394862914 -5910985.394862914 3092755.112343415 0 0 0 0 0 73237054.67649412 -6431096.827939334 -6431096.827939334 2887763.800920264 0 0 0 0 0 74519224.56191778 -6857815.971157175 -6857815.971157175 2628248.638987355 0 0 0 0 0 73477908.37588742 -6393879.535191478 -6393879.535191478 2757722.308268782 0 0 0 0 0 75115964.55314767 -7332557.134988437 -7332557.134988437 2394797.969949903 0 0 0 0 0 75710823.61864746 -7773897.871132187 -7773897.871132187 2150014.904011207 0 0 0 0 0 76368179.46675412 -8192215.497113788 -8192215.497113788 1902072.67467507 0 0 0 0 0 77040203.22476645 -8578218.184324596 -8578218.184324596 1646800.293941365 0 0 0 0 0 78272037.23317811 -8773992.431487454 -8773992.431487454 1361173.70535405 0 0 0 0 0 77404140.49653162 -8483190.33416214 -8483190.33416214 1606311.573491476 0 0 0 0 0 78908651.26616788 -9085841.101712633 -9085841.101712633 1061622.664174609 0 0 0 0 0 79559106.97257416 -9370791.447939826 -9370791.447939826 840828.3978898855 0 0 0 0 0 80374586.08998944 -9658607.554015737 -9658607.554015737 583712.8344003742 0 0 0 0 0 81032802.89264268 -9912300.78579844 -9912300.78579844 296858.1726181839 0 0 0 0 0 81523624.52487171 -10086057.2006159 -10086057.2006159 -21211.62715602467 0 0 0 0 0 82058445.00835375 -10197723.970682 -10197723.970682 -206265.9074918276 0 0 0 0 0 82545656.79370487 -10031887.68622753 -10031887.68622753 -108983.4837927762 0 0 0 0 0 71952379.7288789 -5956513.49846461 -5956513.49846461 3143290.014848799 0 0 0 0 0 66283928.57462818 -395995.4604922108 -395995.4604922108 4082137.955537993 0 0 0 0 0 66872012.94924694 -1131915.823061849 -1131915.823061849 4090828.482129771 0 0 0 0 0 67494463.36714286 -1835668.393618182 -1835668.393618182 4117693.964178823 0 0 0 0 0 67994703.32681605 -2555351.844439881 -2555351.844439881 4071226.998059365 0 0 0 0 0 68402497.73542784 -3306196.935826533 -3306196.935826533 3954520.769452304 0 0 0 0 0 68841152.21431279 -4046511.514545682 -4046511.514545682 3806993.840494949 0 0 0 0 0 69292977.44123173 -4748719.759006913 -4748719.759006913 3631012.381899252 0 0 0 0 0 69422045.8229467 -4765095.325944235 -4765095.325944235 3430314.509725038 0 0 0 0 0 70634152.23123819 -5387867.335924966 -5387867.335924966 3391593.569730006 0 0 0 0 0 71221474.62045448 -5993019.367941421 -5993019.367941421 3206437.879761852 0 0 0 0 0 72171758.60235126 -5932590.563024648 -5932590.563024648 2995341.109255208 0 0 0 0 0 72778486.9925683 -6459032.27939933 -6459032.27939933 2808415.380417226 0 0 0 0 0 74087752.12805694 -6893968.803331855 -6893968.803331855 2549957.978449082 0 0 0 0 0 73831092.33534634 -6932541.714484842 -6932541.714484842 2677683.777947396 0 0 0 0 0 74738180.77037451 -7371634.943988947 -7371634.943988947 2331318.764574398 0 0 0 0 0 75408287.45507781 -7819130.413279808 -7819130.413279808 2108661.636697787 0 0 0 0 0 76097071.73265404 -8234034.08131761 -8234034.08131761 1865940.578129672 0 0 0 0 0 76800276.0344774 -8622324.187913965 -8622324.187913965 1618263.597419985 0 0 0 0 0 78060878.60567464 -8839487.850086505 -8839487.850086505 1344395.26472826 0 0 0 0 0 77682842.48957886 -8933901.512594523 -8933901.512594523 1381710.746031507 0 0 0 0 0 78783307.21242194 -9149517.133735312 -9149517.133735312 1082619.998034723 0 0 0 0 0 79508490.96743546 -9430215.340028621 -9430215.340028621 872208.5051511684 0 0 0 0 0 80164961.28344662 -9706891.593272548 -9706891.593272548 555119.0253073608 0 0 0 0 0 80896717.65751661 -9962970.70844621 -9962970.70844621 292139.9600988419 0 0 0 0 0 81688083.65795773 -10142950.42931006 -10142950.42931006 63471.53670931883 0 0 0 0 0 82545249.20175056 -10285527.74592626 -10285527.74592626 -53443.48062181123 0 0 0 0 0 82890804.8036643 -10383199.97917237 -10383199.97917237 -267216.0149029777 0 0 0 0 0 83088331.4852221 -10294700.676909 -10294700.676909 -421227.1210278177 0 0 0 0 0 71427667.32667316 -5978431.649390236 -5978431.649390236 3045150.265303989 0 0 0 0 0 65922694.82577385 -414747.0226151886 -414747.0226151886 4154672.311236065 0 0 0 0 0 66431947.45017108 -1117779.545177994 -1117779.545177994 4116163.716938726 0 0 0 0 0 66633264.5578274 -1800289.17275929 -1800289.17275929 3958937.569503988 0 0 0 0 0 67010020.35633264 -2534020.238833022 -2534020.238833022 3830734.722156096 0 0 0 0 0 67471074.82793203 -3300351.082956207 -3300351.082956207 3728218.686857043 0 0 0 0 0 67985694.51769064 -4049203.859365816 -4049203.859365816 3602694.284773961 0 0 0 0 0 68563826.77248369 -4755050.1028016 -4755050.1028016 3471586.101677458 0 0 0 0 0 69832503.29427207 -5410578.601729203 -5410578.601729203 3447151.4717205 0 0 0 0 0 70030661.0252901 -5401049.468227486 -5401049.468227486 3274716.567980685 0 0 0 0 0 70619772.58629875 -6019590.461802182 -6019590.461802182 3079443.422963128 0 0 0 0 0 72525195.38608296 -6501189.443586384 -6501189.443586384 2940558.157297594 0 0 0 0 0 73121771.5099171 -7016920.076735579 -7016920.076735579 2717358.116566245 0 0 0 0 0 74455066.65288395 -7422210.301946116 -7422210.301946116 2441313.169248626 0 0 0 0 0 73389262.75780517 -6966988.19042888 -6966988.19042888 2595665.882421616 0 0 0 0 0 75088915.8307026 -7886336.841241034 -7886336.841241034 2193654.560508315 0 0 0 0 0 75738040.59500366 -8316330.095743079 -8316330.095743079 1935572.011642722 0 0 0 0 0 76411123.50902922 -8717579.468488691 -8717579.468488691 1670283.311740018 0 0 0 0 0 77109305.7773549 -9091737.306287836 -9091737.306287836 1400727.050200982 0 0 0 0 0 78348105.87401764 -9253230.482092943 -9253230.482092943 1110060.936707457 0 0 0 0 0 77520352.50480214 -8982403.250210237 -8982403.250210237 1377290.56380229 0 0 0 0 0 79081507.34058814 -9562280.952093216 -9562280.952093216 849781.1310338328 0 0 0 0 0 79746774.23469664 -9827851.074293865 -9827851.074293865 580919.1007042219 0 0 0 0 0 80516786.65873408 -10079564.36199576 -10079564.36199576 311029.7360576293 0 0 0 0 0 81212022.91106571 -10296422.77327021 -10296422.77327021 29284.14905628612 0 0 0 0 0 81824242.52107663 -10463708.62619656 -10463708.62619656 -250708.7574399207 0 0 0 0 0 82399170.71725985 -10446062.81323565 -10446062.81323565 -429264.1032064041 0 0 0 0 0 83427856.63807869 -10556421.32599645 -10556421.32599645 -684461.2133678452 0 0 0 0 0 83645479.33697677 -10494419.14539405 -10494419.14539405 -732874.018024375 0 0 0 0 0 71779825.20911729 -6576280.836203456 -6576280.836203456 2984370.635411078 0 0 0 0 0 65379027.46272527 -422384.9871475715 -422384.9871475715 4155386.31050089 0 0 0 0 0 65776200.15325799 -1181004.975834943 -1181004.975834943 4039789.131908405 0 0 0 0 0 66696261.82175039 -1722287.422696948 -1722287.422696948 4195950.463993472 0 0 0 0 0 67155170.28410293 -2420395.534233124 -2420395.534233124 4122851.783889396 0 0 0 0 0 67549019.24000449 -3206449.408278299 -3206449.408278299 4006573.263611024 0 0 0 0 0 68004209.96578509 -3976578.961044156 -3976578.961044156 3864320.978159427 0 0 0 0 0 68495747.28655694 -4716664.018948262 -4716664.018948262 3697488.075602999 0 0 0 0 0 69010726.8282923 -5420435.488793734 -5420435.488793734 3502010.45627195 0 0 0 0 0 69172377.40417768 -5424277.218023168 -5424277.218023168 3308065.587838981 0 0 0 0 0 70398655.66370374 -6042838.655764506 -6042838.655764506 3244824.987163062 0 0 0 0 0 71028616.60748282 -6641585.500109562 -6641585.500109562 3031262.13880387 0 0 0 0 0 72044986.58160231 -6528114.126777604 -6528114.126777604 2850137.112227221 0 0 0 0 0 72705594.86735585 -7046831.303792603 -7046831.303792603 2650044.288205502 0 0 0 0 0 74057943.49198708 -7459766.19780505 -7459766.19780505 2372141.157142844 0 0 0 0 0 73768168.46216258 -7510643.821808301 -7510643.821808301 2488211.063080444 0 0 0 0 0 74751052.05590232 -7927599.071989981 -7927599.071989981 2141157.044685036 0 0 0 0 0 75461583.11794138 -8362388.748110272 -8362388.748110272 1901000.369114459 0 0 0 0 0 76189745.57897721 -8764599.733419297 -8764599.733419297 1649526.743597662 0 0 0 0 0 76930256.36541097 -9138687.951629801 -9138687.951629801 1390001.169014159 0 0 0 0 0 78245897.11550868 -9304865.911446042 -9304865.911446042 1120865.554115658 0 0 0 0 0 77795233.6516483 -9429719.308876375 -9429719.308876375 1125741.01693064 0 0 0 0 0 78980820.29068042 -9604016.359539347 -9604016.359539347 853512.686049692 0 0 0 0 0 79721364.35111998 -9877793.433883511 -9877793.433883511 608466.4219436181 0 0 0 0 0 80444800.23312864 -10127760.29499666 -10127760.29499666 323830.5675160759 0 0 0 0 0 81190173.84892149 -10347339.24156461 -10347339.24156461 60454.44354042222 0 0 0 0 0 81963802.03771792 -10511156.3749061 -10511156.3749061 -179509.8021689434 0 0 0 0 0 83053072.89055145 -10633561.71740804 -10633561.71740804 -427194.9759222963 0 0 0 0 0 83713513.59621404 -10609509.91151771 -10609509.91151771 -581055.4656125132 0 0 0 0 0 84299758.03772424 -10701730.33817661 -10701730.33817661 -779188.381264849 0 0 0 0 0 82900509.30897219 -10749702.18932329 -10749702.18932329 -796248.1225433388 0 0 0 0 0 84354717.01844034 -10677031.80489286 -10677031.80489286 -1000978.022330281 0 0 0 0 0 85106291.62233119 -10819963.67383313 -10819963.67383313 -1256854.070969952 0 0 0 0 0 71281186.73864438 -6605964.68632694 -6605964.68632694 2886904.881516582 0 0 0 0 0 64745362.60840889 -404761.9252622745 -404761.9252622745 4097317.766168118 0 0 0 0 0 66100662.08304059 -1346757.883790725 -1346757.883790725 4321220.765757514 0 0 0 0 0 65638384.12700734 -1607703.725532194 -1607703.725532194 3935357.559272065 0 0 0 0 0 66109923.56231298 -2388341.421553674 -2388341.421553674 3856960.861075582 0 0 0 0 0 66579624.60027893 -3193331.802053395 -3193331.802053395 3766265.482535637 0 0 0 0 0 67098850.86646918 -3972362.353984725 -3972362.353984725 3645025.902297695 0 0 0 0 0 67671631.59834039 -4721756.894344995 -4721756.894344995 3502652.872231146 0 0 0 0 0 68298983.88168561 -5436322.780608332 -5436322.780608332 3345505.103067258 0 0 0 0 0 69584629.48364431 -6085339.325462051 -6085339.325462051 3287634.531618308 0 0 0 0 0 69823360.736174 -6060370.336206822 -6060370.336206822 3131022.501667373 0 0 0 0 0 70486671.67846242 -6669055.211213975 -6669055.211213975 2926237.376811213 0 0 0 0 0 72372730.43214078 -7112802.921227413 -7112802.921227413 2748647.13737786 0 0 0 0 0 73031578.55517425 -7615419.068313777 -7615419.068313777 2516642.325680587 0 0 0 0 0 74423922.11964284 -7994597.99976981 -7994597.99976981 2234708.069735201 0 0 0 0 0 73363743.38273865 -7552071.072130162 -7552071.072130162 2419930.054418033 0 0 0 0 0 75097135.47033072 -8446083.722570907 -8446083.722570907 1971036.777105768 0 0 0 0 0 75788144.4424113 -8864146.53371056 -8864146.53371056 1698691.110978646 0 0 0 0 0 76499116.02785717 -9251449.773666125 -9251449.773666125 1420176.4719875 0 0 0 0 0 77221487.98715791 -9607936.53484522 -9607936.53484522 1137879.438446577 0 0 0 0 0 78505744.26767871 -9738967.52080974 -9738967.52080974 846311.4568138249 0 0 0 0 0 77681325.8970914 -9480537.752678087 -9480537.752678087 1133173.942709405 0 0 0 0 0 79234075.16619588 -10024840.71655521 -10024840.71655521 567515.4194115452 0 0 0 0 0 79933042.65050781 -10274000.40036266 -10274000.40036266 286071.9140571271 0 0 0 0 0 80683975.90172149 -10502602.84195214 -10502602.84195214 7411.63708410042 0 0 0 0 0 81409424.28252937 -10696085.37844908 -10696085.37844908 -268330.2382563619 0 0 0 0 0 82221500.37863508 -10868476.31442792 -10868476.31442792 -528285.5735088325 0 0 0 0 0 82566689.616927 -10717534.5428918 -10717534.5428918 -586982.4443312879 0 0 0 0 0 83580030.19083549 -10837010.96737413 -10837010.96737413 -1043159.343518521 0 0 0 0 0 83474408.36646877 -10833544.89056667 -10833544.89056667 -639862.7149174896 0 0 0 0 0 84808363.24169751 -10949322.01864724 -10949322.01864724 -1234764.92747863 0 0 0 0 0 85445173.50885637 -11074850.42842985 -11074850.42842985 -1535754.616899664 0 0 0 0 0 85756021.72778885 -10952126.83162081 -10952126.83162081 -1542203.310730318 0 0 0 0 0 71633064.93515351 -7206835.191742561 -7206835.191742561 2791283.828526063 0 0 0 0 0 64460224.99989715 -405576.0740368394 -405576.0740368394 4227300.665371582 0 0 0 0 0 65068638.41004172 -1233464.265969375 -1233464.265969375 4269521.703649417 0 0 0 0 0 64917466.58281241 -1348907.368512117 -1348907.368512117 3967947.72283235 0 0 0 0 0 66231258.99942982 -2279774.748972799 -2279774.748972799 4152806.93742667 0 0 0 0 0 66676505.68202157 -3092323.437853706 -3092323.437853706 4051640.240159304 0 0 0 0 0 67132803.68768373 -3892704.60932478 -3892704.60932478 3915845.463333157 0 0 0 0 0 67637217.71497944 -4666963.335241547 -4666963.335241547 3749665.426293834 0 0 0 0 0 68178855.85094634 -5410685.023572613 -5410685.023572613 3557469.234887545 0 0 0 0 0 68756853.51932037 -6113545.177134288 -6113545.177134288 3345373.343669396 0 0 0 0 0 68970256.1271648 -6102130.352731049 -6102130.352731049 3169211.250483836 0 0 0 0 0 70208821.51032172 -6706330.128338035 -6706330.128338035 3072381.839728086 0 0 0 0 0 70877497.23965196 -7299791.155139103 -7299791.155139103 2837562.162489229 0 0 0 0 0 71971241.23028608 -7141796.836996415 -7141796.836996415 2691333.769248316 0 0 0 0 0 72670197.72865756 -7652505.994865382 -7652505.994865382 2464231.927096736 0 0 0 0 0 74069182.70863409 -8037085.160345387 -8037085.160345387 2179032.969995589 0 0 0 0 0 73732055.84614652 -8106215.633661077 -8106215.633661077 2272419.199176358 0 0 0 0 0 74801247.27696286 -8491138.08540985 -8491138.08540985 1931062.969067657 0 0 0 0 0 75552480.11352129 -8911950.094338374 -8911950.094338374 1675034.924794318 0 0 0 0 0 76317830.13508907 -9300782.417253116 -9300782.417253116 1410523.790331191 0 0 0 0 0 77094591.25536036 -9657547.453233181 -9657547.453233181 1141402.493726568 0 0 0 0 0 78441144.75500503 -9790249.73920927 -9790249.73920927 865860.8557725007 0 0 0 0 0 77951975.88356541 -9930899.1211928 -9930899.1211928 851510.5705546307 0 0 0 0 0 79205680.55210337 -10073353.64868916 -10073353.64868916 593909.5652976815 0 0 0 0 0 79971217.22297779 -10326302.90439141 -10326302.90439141 330847.2814071452 0 0 0 0 0 80736043.28046022 -10550251.52583092 -10550251.52583092 52303.53709307613 0 0 0 0 0 81504485.43960391 -10744119.73695933 -10744119.73695933 -212909.0923127049 0 0 0 0 0 82259650.73239696 -10919289.39378221 -10919289.39378221 -484437.1911348579 0 0 0 0 0 82888800.71990117 -11013173.91730332 -11013173.91730332 -830231.8630727523 0 0 0 0 0 84189352.08979748 -10909178.59327569 -10909178.59327569 -914979.2209859098 0 0 0 0 0 83438414.90144955 -11093592.18645291 -11093592.18645291 -1110152.959184873 0 0 0 0 0 84782530.41583751 -11000777.5667725 -11000777.5667725 -1236977.870152355 0 0 0 0 0 85473988.44205934 -11138227.47653802 -11138227.47653802 -1513931.437559883 0 0 0 0 0 86149642.84406893 -11186824.14997905 -11186824.14997905 -1794422.544213479 0 0 0 0 0 86492194.67129228 -11061759.34456087 -11061759.34456087 -1799050.539086188 0 0 0 0 0 87085583.75752859 -11163433.16243024 -11163433.16243024 -2094744.828599636 0 0 0 0 0 71201304.37984732 -7239896.350841623 -7239896.350841623 2720732.526006683 0 0 0 0 0 63782605.82768983 -352017.1085105875 -352017.1085105875 4086160.900439022 0 0 0 0 0 63899155.37846336 -1249959.538621736 -1249959.538621736 3957357.628348128 0 0 0 0 0 65376139.47659513 -2121425.365869527 -2121425.365869527 4205038.311068306 0 0 0 0 0 65223300.08583101 -2247015.021838135 -2247015.021838135 3889692.412963418 0 0 0 0 0 65661040.92209987 -3070524.614275326 -3070524.614275326 3794410.585497861 0 0 0 0 0 66180635.91969451 -3883939.064626805 -3883939.064626805 3682625.543533326 0 0 0 0 0 66759339.36001164 -4669150.034976861 -4669150.034976861 3541597.854580749 0 0 0 0 0 67389473.48158553 -5423326.47047167 -5423326.47047167 3377715.963328422 0 0 0 0 0 68066487.72381641 -6128128.241109283 -6128128.241109283 3195811.581023019 0 0 0 0 0 69389185.84015748 -6766278.127072218 -6766278.127072218 3117334.766981776 0 0 0 0 0 69649121.56890853 -6730494.678913038 -6730494.678913038 2965293.093825023 0 0 0 0 0 70374698.06747398 -7326559.367254199 -7326559.367254199 2743420.007563788 0 0 0 0 0 72295731.49807023 -7733874.847662491 -7733874.847662491 2548128.449513962 0 0 0 0 0 72992162.4371419 -8234088.478342264 -8234088.478342264 2293994.489383708 0 0 0 0 0 74428450.93290955 -8576157.298890974 -8576157.298890974 2005541.157533894 0 0 0 0 0 73375525.28912634 -8149274.655455456 -8149274.655455456 2215362.936706172 0 0 0 0 0 75142655.46409507 -9013220.854452327 -9013220.854452327 1726359.910355975 0 0 0 0 0 75874378.88154742 -9416994.564758582 -9416994.564758582 1440585.559301685 0 0 0 0 0 76620561.89678028 -9787957.235013522 -9787957.235013522 1149712.795307671 0 0 0 0 0 77378028.49734506 -10126314.79090991 -10126314.79090991 855446.9113344603 0 0 0 0 0 78694596.00216514 -10224337.71574228 -10224337.71574228 562764.5076022191 0 0 0 0 0 77879752.87510887 -9982340.865847768 -9982340.865847768 869309.8207068729 0 0 0 0 0 79440999.7095243 -10489117.1641661 -10489117.1641661 274676.0951987817 0 0 0 0 0 80186049.39228414 -10721297.83010903 -10721297.83010903 -14128.23599325664 0 0 0 0 0 80935351.08177504 -10926290.9840521 -10926290.9840521 -300891.8709078473 0 0 0 0 0 81689058.07216944 -11105231.62455491 -11105231.62455491 -583950.7101496551 0 0 0 0 0 82421971.47365266 -11253298.51082236 -11253298.51082236 -862688.90938818 0 0 0 0 0 83002116.51436281 -11066322.84542805 -11066322.84542805 -769492.9896456106 0 0 0 0 0 84216659.36386462 -11211706.07703964 -11211706.07703964 -1316471.076843057 0 0 0 0 0 83788500.48539954 -11168947.79622156 -11168947.79622156 -974103.467694079 0 0 0 0 0 85006655.08935317 -11317557.66070816 -11317557.66070816 -1582307.880452466 0 0 0 0 0 85706116.86456096 -11387147.46949822 -11387147.46949822 -1832687.267190731 0 0 0 0 0 85991655.28791694 -11270660.60850836 -11270660.60850836 -1847147.82143681 0 0 0 0 0 86822497.00166732 -11321158.58067226 -11321158.58067226 -2049727.002560439 0 0 0 0 0 87454821.62679739 -11398650.69587404 -11398650.69587404 -2356008.218665068 0 0 0 0 0 87732109.03253388 -11227429.80365912 -11227429.80365912 -2369166.241612026 0 0 0 0 0 71538738.08715859 -7852982.29878367 -7852982.29878367 2579464.885633792 0 0 0 0 0 63441513.73674645 -396189.0545704581 -396189.0545704581 4089213.115900182 0 0 0 0 0 64172867.68418247 -1064825.681832222 -1064825.681832222 4383418.306869827 0 0 0 0 0 64550006.11027253 -1917836.130574291 -1917836.130574291 4273005.036377681 0 0 0 0 0 64236247.78191205 -2093405.157041781 -2093405.157041781 3932891.394207062 0 0 0 0 0 65770033.17457013 -2959340.114921763 -2959340.114921763 4105056.264978696 0 0 0 0 0 66233204.70389327 -3795036.515449211 -3795036.515449211 3969112.585672663 0 0 0 0 0 66744055.74914268 -4604934.481082819 -4604934.481082819 3805991.085111043 0 0 0 0 0 67307860.31400563 -5384184.140906234 -5384184.140906234 3616830.124281366 0 0 0 0 0 67914679.63534915 -6121629.448387422 -6121629.448387422 3403874.68894953 0 0 0 0 0 68542925.73667321 -6807957.629037015 -6807957.629037015 3165504.27964936 0 0 0 0 0 68791267.94599354 -6779286.191557629 -6779286.191557629 2999811.363608323 0 0 0 0 0 70077429.74964064 -7373430.629256542 -7373430.629256542 2880026.201850862 0 0 0 0 0 70790885.32549252 -7959550.188842678 -7959550.188842678 2628794.592234638 0 0 0 0 0 71924301.21437466 -7771816.650823854 -7771816.650823854 2495996.447611407 0 0 0 0 0 72661988.76537938 -8275019.013092491 -8275019.013092491 2251349.695815924 0 0 0 0 0 74115781.72857513 -8621604.618230054 -8621604.618230054 1961646.151838862 0 0 0 0 0 73728960.45383154 -8711171.963405298 -8711171.963405298 2036076.511163214 0 0 0 0 0 74891187.95130928 -9060746.967196964 -9060746.967196964 1698711.461149626 0 0 0 0 0 75681825.31656721 -9466461.859738458 -9466461.859738458 1428326.006095479 0 0 0 0 0 76485172.18167451 -9838581.865451558 -9838581.865451558 1151883.576470853 0 0 0 0 0 77297428.11392899 -10177620.05305261 -10177620.05305261 871156.806426272 0 0 0 0 0 78670313.3950469 -10276090.31849868 -10276090.31849868 592272.0876751727 0 0 0 0 0 78143497.03194194 -10432141.06915466 -10432141.06915466 558837.9752912052 0 0 0 0 0 79463749.48283267 -10539538.67440841 -10539538.67440841 314515.4327207814 0 0 0 0 0 80256597.60505693 -10773136.48048563 -10773136.48048563 38032.29655786423 0 0 0 0 0 81049208.51451148 -10975667.95268141 -10975667.95268141 -240067.3148142804 0 0 0 0 0 81835910.54652925 -11153071.14329978 -11153071.14329978 -516249.5405327523 0 0 0 0 0 82617158.97248466 -11299441.40685324 -11299441.40685324 -784616.3317619364 0 0 0 0 0 83167018.4398907 -11379009.97611916 -11379009.97611916 -1137322.895884088 0 0 0 0 0 84524713.28801744 -11247899.96680786 -11247899.96680786 -1218396.525402419 0 0 0 0 0 83900459.49562903 -11473482.22744993 -11473482.22744993 -1394497.05830625 0 0 0 0 0 85234470.83964857 -11332356.50494899 -11332356.50494899 -1513801.556023359 0 0 0 0 0 85987364.0876898 -11410497.63962078 -11410497.63962078 -1746943.880868416 0 0 0 0 0 86586553.22910294 -11455213.99375425 -11455213.99375425 -1941077.364579486 0 0 0 0 0 86610008.80788819 -11376419.23885136 -11376419.23885136 -2130365.591075659 0 0 0 0 0 87354256.29156175 -11428672.46871081 -11428672.46871081 -2383594.240395171 0 0 0 0 0 88132079.62857515 -11445915.909867 -11445915.909867 -2620582.15267154 0 0 0 0 0 71153148.64935516 -7887636.705645982 -7887636.705645982 2521779.982496098 0 0 0 0 0 63423639.81287902 -478774.4758687301 -478774.4758687301 4300241.422516511 0 0 0 0 0 62752633.04774716 -1065182.215086245 -1065182.215086245 3975773.197847822 0 0 0 0 0 63164482.74300189 -1848536.937452468 -1848536.937452468 3882424.739210586 0 0 0 0 0 64833594.31639803 -2827473.927353716 -2827473.927353716 4144266.284956815 0 0 0 0 0 64698029.59159368 -2942619.652009024 -2942619.652009024 3841131.2974813 0 0 0 0 0 65228149.21499407 -3783548.661772141 -3783548.661772141 3722003.33903531 0 0 0 0 0 65815377.44506825 -4602206.802716911 -4602206.802716911 3582469.457884504 0 0 0 0 0 66456721.35158101 -5389877.329138745 -5389877.329138745 3417534.398988296 0 0 0 0 0 67148401.62948966 -6133908.193822137 -6133908.193822137 3230374.115274738 0 0 0 0 0 67894991.65363452 -6821751.321775413 -6821751.321775413 3035364.587327553 0 0 0 0 0 69231717.92232843 -7445642.737131376 -7445642.737131376 2923644.95081888 0 0 0 0 0 69535813.65401731 -7397654.96214442 -7397654.96214442 2780291.133662256 0 0 0 0 0 70298150.77325444 -7993883.461657849 -7993883.461657849 2535745.076142667 0 0 0 0 0 72257729.8152014 -8371975.214602951 -8371975.214602951 2325440.636448203 0 0 0 0 0 72993319.53965931 -8857592.371540966 -8857592.371540966 2054703.086312953 0 0 0 0 0 74470972.62809569 -9164254.638830157 -9164254.638830157 1752232.738219163 0 0 0 0 0 73403653.02213882 -8753696.834155127 -8753696.834155127 1987300.367161104 0 0 0 0 0 75226637.74925765 -9585746.031756327 -9585746.031756327 1459506.158811391 0 0 0 0 0 75997464.4117087 -9972595.229472062 -9972595.229472062 1160926.316004093 0 0 0 0 0 76780355.12394609 -10325580.227104 -10325580.227104 858244.3799210862 0 0 0 0 0 77572457.04714406 -10644882.37369704 -10644882.37369704 553135.2316716445 0 0 0 0 0 78915242.23927744 -10706754.748064 -10706754.748064 261563.4699130906 0 0 0 0 0 78115583.16405876 -10484042.95744139 -10484042.95744139 587526.4315312845 0 0 0 0 0 79689658.79244985 -10950619.3254589 -10950619.3254589 -34720.00960244799 0 0 0 0 0 80463013.54547609 -11163105.87729408 -11163105.87729408 -329708.9581174967 0 0 0 0 0 81239520.06273802 -11347548.66985147 -11347548.66985147 -621237.0270445525 0 0 0 0 0 82006542.16963655 -11502690.1927738 -11502690.1927738 -908124.6276295763 0 0 0 0 0 82768610.88866252 -11627941.67192655 -11627941.67192655 -1190715.310351361 0 0 0 0 0 83397212.2570775 -11417251.43474866 -11417251.43474866 -1056309.309846798 0 0 0 0 0 84625413.8495599 -11548573.79136915 -11548573.79136915 -1656794.999206934 0 0 0 0 0 84170385.85597421 -11513225.58059118 -11513225.58059118 -1302869.809523616 0 0 0 0 0 85340264.34895813 -11612029.37248277 -11612029.37248277 -1917619.713957762 0 0 0 0 0 85936996.02391113 -11597525.42446769 -11597525.42446769 -2184090.696022736 0 0 0 0 0 87064068.82691754 -11608714.57752084 -11608714.57752084 -2360664.115008377 0 0 0 0 0 87720485.16576874 -11650937.06484032 -11650937.06484032 -2641921.196762003 0 0 0 0 0 88438415.79635251 -11266734.87506922 -11266734.87506922 -2619056.385943482 0 0 0 0 0 88033575.06729706 -11488278.87580429 -11488278.87580429 -2651673.326062063 0 0 0 0 0 71496283.06382911 -8514146.08778213 -8514146.08778213 2352120.699112372 0 0 0 0 0 62509106.06909694 -500973.4295663027 -500973.4295663027 4133776.934417859 0 0 0 0 0 63554104.35297838 -1626960.979166354 -1626960.979166354 4319118.135867468 0 0 0 0 0 63877670.72776438 -2657915.276745387 -2657915.276745387 4187270.938185507 0 0 0 0 0 63709725.72773074 -2790181.989738182 -2790181.989738182 3853779.978438293 0 0 0 0 0 65296945.52595544 -3688428.170522615 -3688428.170522615 4016149.6851583 0 0 0 0 0 65814208.6917608 -4531784.561190677 -4531784.561190677 3855668.683022824 0 0 0 0 0 66386554.11862066 -5344592.098137733 -5344592.098137733 3668356.828727189 0 0 0 0 0 67007933.85542897 -6118992.352459116 -6118992.352459116 3455894.910272238 0 0 0 0 0 67655372.49601263 -6845295.313994723 -6845295.313994723 3211855.052227769 0 0 0 0 0 68355132.0200616 -7515567.609625379 -7515567.609625379 2960319.100070494 0 0 0 0 0 68661525.69303353 -7465296.93356187 -7465296.93356187 2815887.702303384 0 0 0 0 0 69976549.74242182 -8052916.354750609 -8052916.354750609 2668570.477121501 0 0 0 0 0 70740713.86321011 -8636427.42193931 -8636427.42193931 2391927.369711048 0 0 0 0 0 71908606.08320308 -8410145.916151838 -8410145.916151838 2273045.607670143 0 0 0 0 0 72706402.35597759 -8897774.359679924 -8897774.359679924 2023314.01116287 0 0 0 0 0 74203746.34278058 -9210370.142077563 -9210370.142077563 1719836.177712189 0 0 0 0 0 73772862.19354329 -9315781.579433484 -9315781.579433484 1777322.231501041 0 0 0 0 0 75022171.63712111 -9634718.096354909 -9634718.096354909 1444048.060890546 0 0 0 0 0 75852416.78499953 -10023423.06287938 -10023423.06287938 1160921.941809389 0 0 0 0 0 76692757.5284889 -10377269.36354972 -10377269.36354972 872536.873640982 0 0 0 0 0 77540023.14049271 -10696906.18949613 -10696906.18949613 580831.0845202217 0 0 0 0 0 78937108.90792078 -10758314.58805097 -10758314.58805097 301946.2225073082 0 0 0 0 0 78370520.86695509 -10930972.53124333 -10930972.53124333 247158.2188651965 0 0 0 0 0 79759039.41126575 -11001265.82991394 -11001265.82991394 16355.99312528788 0 0 0 0 0 80579820.14371186 -11213102.25449265 -11213102.25449265 -267758.1306506092 0 0 0 0 0 81395714.90765719 -11395572.22096195 -11395572.22096195 -551211.9506104182 0 0 0 0 0 82206630.5733989 -11548294.317013 -11548294.317013 -829256.2927405084 0 0 0 0 0 83012027.23604329 -11671618.05873314 -11671618.05873314 -1102842.041315169 0 0 0 0 0 83538353.75632787 -11732204.98742317 -11732204.98742317 -1465443.116962266 0 0 0 0 0 84927187.04246694 -11587093.59673341 -11587093.59673341 -1558132.542447289 0 0 0 0 0 84292675.84476787 -11808927.50710206 -11808927.50710206 -1736009.3111432 0 0 0 0 0 85670007.04037274 -11638436.91940276 -11638436.91940276 -1822226.19095033 0 0 0 0 0 86436684.14342815 -11643255.8333413 -11643255.8333413 -2076088.413290243 0 0 0 0 0 87063931.06620152 -11653011.20274656 -11653011.20274656 -2354745.17536549 0 0 0 0 0 87759462.51259798 -11700725.58630362 -11700725.58630362 -2620098.224184779 0 0 0 0 0 88803745.21479821 -11494712.19250568 -11494712.19250568 -2903556.382827769 0 0 0 0 0 88477117.2887259 -11697083.35790831 -11697083.35790831 -2868283.243710971 0 0 0 0 0 89165569.49453281 -11284359.13597855 -11284359.13597855 -2854913.233255143 0 0 0 0 0 89844128.16768138 -11286851.55494152 -11286851.55494152 -3096471.868356496 0 0 0 0 0 71122454.47467031 -8552784.629046135 -8552784.629046135 2290302.668065704 0 0 0 0 0 62011900.0602536 -499815.1656559685 -499815.1656559685 4169995.471548471 0 0 0 0 0 62202908.69246966 -1615311.65909344 -1615311.65909344 3963315.103696905 0 0 0 0 0 62691213.55460393 -2625599.364107256 -2625599.364107256 3886908.640824382 0 0 0 0 0 64333563.99917113 -3566255.820174376 -3566255.820174376 4060927.841993907 0 0 0 0 0 64243391.09511345 -3671219.866607754 -3671219.866607754 3752957.264034424 0 0 0 0 0 64837573.92446815 -4524932.953462255 -4524932.953462255 3617874.709019804 0 0 0 0 0 65489340.14461626 -5346304.906445702 -5346304.906445702 3455319.887208827 0 0 0 0 0 66196749.00553211 -6129060.380920338 -6129060.380920338 3267295.082260393 0 0 0 0 0 66979016.95348397 -6859631.621788017 -6859631.621788017 3070413.836527475 0 0 0 0 0 67781658.30989251 -7533423.677518575 -7533423.677518575 2853415.135361082 0 0 0 0 0 69116689.89949839 -8143000.344285042 -8143000.344285042 2698550.797597528 0 0 0 0 0 69459925.41407661 -8081324.834737177 -8081324.834737177 2570220.211798857 0 0 0 0 0 70282128.66720019 -8675451.912063051 -8675451.912063051 2307159.169970959 0 0 0 0 0 72229732.99759327 -9018504.856273858 -9018504.856273858 2064966.904189045 0 0 0 0 0 73021002.11998625 -9483405.485776497 -9483405.485776497 1783178.386840415 0 0 0 0 0 74554307.09582058 -9756650.680394396 -9756650.680394396 1477821.167152113 0 0 0 0 0 73499501.92124604 -9364524.608986903 -9364524.608986903 1745258.072932498 0 0 0 0 0 75350224.80872613 -10161075.94093578 -10161075.94093578 1170803.548825214 0 0 0 0 0 76159916.48444046 -10529623.47932845 -10529623.47932845 859591.9390412037 0 0 0 0 0 76979452.06760938 -10862763.66535999 -10862763.66535999 545849.2839282994 0 0 0 0 0 77805563.18198182 -11161244.09281163 -11161244.09281163 230733.4175442734 0 0 0 0 0 79172289.97889425 -11184745.2393064 -11184745.2393064 -58132.64802378337 0 0 0 0 0 78390948.2714718 -10982869.06581151 -10982869.06581151 287396.1288239105 0 0 0 0 0 79974721.5060955 -11406742.13161751 -11406742.13161751 -361548.6502930287 0 0 0 0 0 80775943.13083784 -11597842.7703656 -11597842.7703656 -661979.5057847043 0 0 0 0 0 81573294.4656361 -11758958.93375002 -11758958.93375002 -957933.1064951691 0 0 0 0 0 82364696.11448473 -11890471.22957731 -11890471.22957731 -1248889.841467053 0 0 0 0 0 83153982.50686397 -11994954.64043117 -11994954.64043117 -1534495.728023271 0 0 0 0 0 83810688.60010347 -11769861.81279117 -11769861.81279117 -1374760.736409445 0 0 0 0 0 85030291.51841846 -11859441.74107737 -11859441.74107737 -2005125.178414658 0 0 0 0 0 84595832.60884203 -11847002.39457188 -11847002.39457188 -1637678.848181905 0 0 0 0 0 85751944.75436954 -11884390.39182372 -11884390.39182372 -2266506.312393931 0 0 0 0 0 86510015.69069296 -11900863.0283604 -11900863.0283604 -2472506.408736016 0 0 0 0 0 87275209.90910466 -11912448.6138791 -11912448.6138791 -2724843.095278242 0 0 0 0 0 88011695.3724795 -11905920.53159592 -11905920.53159592 -2956024.35010951 0 0 0 0 0 88704000.59772782 -11546793.40045834 -11546793.40045834 -2949650.652514006 0 0 0 0 0 88273252.10385706 -11752829.01188519 -11752829.01188519 -2940816.251520589 0 0 0 0 0 89356666.5722373 -11523129.04346672 -11523129.04346672 -3249493.27209557 0 0 0 0 0 90065407.56025831 -11485604.49744831 -11485604.49744831 -3454242.689206232 0 0 0 0 0 90468867.00035474 -11270656.53895407 -11270656.53895407 -3344288.83682128 0 0 0 0 0 71474047.89812128 -9177808.991330888 -9177808.991330888 2084947.51083076 0 0 0 0 0 61472354.60752828 -500186.9148650687 -500186.9148650687 4180530.804977709 0 0 0 0 0 62209678.81915562 -1522164.92069889 -1522164.92069889 4228684.002590775 0 0 0 0 0 62901172.68261342 -2481427.032979691 -2481427.032979691 4214244.650154578 0 0 0 0 0 63340763.32749579 -3430907.439965619 -3430907.439965619 4101540.825004824 0 0 0 0 0 63222619.07797594 -3546303.921200638 -3546303.921200638 3782040.132084586 0 0 0 0 0 64853634.43502962 -4446777.179143829 -4446777.179143829 3902351.841966514 0 0 0 0 0 65431821.96188804 -5295340.926827982 -5295340.926827982 3714402.89795611 0 0 0 0 0 66064165.17574637 -6106608.431593301 -6106608.431593301 3498689.806173114 0 0 0 0 0 66736058.6283692 -6877679.759629067 -6877679.759629067 3258047.17135563 0 0 0 0 0 67432825.5217202 -7596594.345373139 -7596594.345373139 2988133.129733036 0 0 0 0 0 68197228.09659435 -8256734.696292357 -8256734.696292357 2719324.658228733 0 0 0 0 0 68601337.07758459 -8173685.469319178 -8173685.469319178 2607000.995418161 0 0 0 0 0 69907241.98319981 -8750396.030278759 -8750396.030278759 2423128.070789059 0 0 0 0 0 70716944.47471151 -9329541.692751858 -9329541.692751858 2120310.361019847 0 0 0 0 0 71959301.05766758 -9057342.445796091 -9057342.445796091 2042059.246662735 0 0 0 0 0 72798472.89874475 -9528770.279728666 -9528770.279728666 1767769.026229068 0 0 0 0 0 74335684.17034619 -9805996.93506101 -9805996.93506101 1459193.114938397 0 0 0 0 0 73854747.57131396 -9931898.178582244 -9931898.178582244 1491837.155823434 0 0 0 0 0 75194963.42548668 -10211989.02011043 -10211989.02011043 1168407.986397786 0 0 0 0 0 76064749.23881841 -10581495.76348551 -10581495.76348551 872203.3615592484 0 0 0 0 0 76941617.62027 -10914951.63166256 -10914951.63166256 572339.4618972249 0 0 0 0 0 77824054.07805717 -11213279.56362839 -11213279.56362839 270603.0663670306 0 0 0 0 0 79242655.47818829 -11235867.91159462 -11235867.91159462 -6506.462324640933 0 0 0 0 0 78635726.66889174 -11425650.26160909 -11425650.26160909 -83690.75750940734 0 0 0 0 0 80092791.85105105 -11456686.71477483 -11456686.71477483 -299349.5088390679 0 0 0 0 0 80939198.67700793 -11646191.42360376 -11646191.42360376 -590047.5539153347 0 0 0 0 0 81779751.99149074 -11805069.56811965 -11805069.56811965 -877215.5344529932 0 0 0 0 0 82613641.75604124 -11934233.10447065 -11934233.10447065 -1159638.692793733 0 0 0 0 0 83438914.94680001 -12036197.09979466 -12036197.09979466 -1438365.242835176 0 0 0 0 0 83938902.31864497 -12076145.38371453 -12076145.38371453 -1812622.437578587 0 0 0 0 0 85363105.66441981 -11900317.46295345 -11900317.46295345 -1897806.187522623 0 0 0 0 0 84706800.69463126 -12132033.30863124 -12132033.30863124 -2082651.980089103 0 0 0 0 0 86117790.6089348 -11926056.29941503 -11926056.29941503 -2150768.152648762 0 0 0 0 0 86869797.39685582 -11921688.80838373 -11921688.80838373 -2375018.844370966 0 0 0 0 0 87575837.62579356 -11915869.74084751 -11915869.74084751 -2642051.010879534 0 0 0 0 0 88291665.93992426 -11916764.11509481 -11916764.11509481 -2874645.673809662 0 0 0 0 0 89263041.58421502 -11713266.33801857 -11713266.33801857 -3095412.54375121 0 0 0 0 0 88832304.96139966 -11908360.82481799 -11908360.82481799 -3060524.750527061 0 0 0 0 0 89774758.29092818 -11515032.96444403 -11515032.96444403 -3138984.028010017 0 0 0 0 0 90295125.81179097 -11474792.06831582 -11474792.06831582 -3385109.16805098 0 0 0 0 0 90727702.45608941 -11453134.02067107 -11453134.02067107 -3659870.224956346 0 0 0 0 0 91078124.20536545 -11239933.08678045 -11239933.08678045 -3585939.356426175 0 0 0 0 0 91703279.38183656 -11185453.63220688 -11185453.63220688 -3811174.092877365 0 0 0 0 0 71173453.4659251 -9220567.500011742 -9220567.500011742 2049605.807791247 0 0 0 0 0 60846088.52529881 -485693.1590213023 -485693.1590213023 4134587.703002086 0 0 0 0 0 61236998.36196506 -1472099.396678601 -1472099.396678601 4037592.918085242 0 0 0 0 0 61645337.59261882 -2440050.890899806 -2440050.890899806 3899638.247443737 0 0 0 0 0 62169201.33423895 -3409612.367979192 -3409612.367979192 3810469.631181154 0 0 0 0 0 63857273.46986192 -4350269.40483171 -4350269.40483171 3946237.651086771 0 0 0 0 0 63822607.84439147 -4436795.90415429 -4436795.90415429 3649358.730335505 0 0 0 0 0 64486136.19925188 -5295013.686635863 -5295013.686635863 3488363.830082008 0 0 0 0 0 65207426.65011291 -6115814.567550936 -6115814.567550936 3300175.336396823 0 0 0 0 0 65982120.42545916 -6896530.090906958 -6896530.090906958 3089356.103205042 0 0 0 0 0 66836762.37592366 -7616464.746547353 -7616464.746547353 2871370.55562486 0 0 0 0 0 67687972.8097275 -8285080.399194291 -8285080.399194291 2629727.829353563 0 0 0 0 0 69019109.5770953 -8879745.263723141 -8879745.263723141 2435985.388017708 0 0 0 0 0 69434290.01178491 -8789565.884415755 -8789565.884415755 2336009.140453202 0 0 0 0 0 70316009.46126838 -9372425.089345442 -9372425.089345442 2052177.980020031 0 0 0 0 0 72273503.53906386 -9667893.37482935 -9667893.37482935 1790830.303035385 0 0 0 0 0 73105984.91718352 -10124565.87632809 -10124565.87632809 1487522.414041305 0 0 0 0 0 74678834.11009872 -10353258.08667818 -10353258.08667818 1179855.187383528 0 0 0 0 0 73639544.95919608 -9981243.742264858 -9981243.742264858 1472747.408828534 0 0 0 0 0 75515572.45983894 -10738411.99631121 -10738411.99631121 859385.753719439 0 0 0 0 0 76363647.12831947 -11086066.88142325 -11086066.88142325 536488.5996234688 0 0 0 0 0 77219472.86991692 -11397372.16780476 -11397372.16780476 212441.1116812041 0 0 0 0 0 78079137.05852656 -11673311.1095007 -11673311.1095007 -111689.708697171 0 0 0 0 0 79467140.05069911 -11656868.18796602 -11656868.18796602 -396195.4289499085 0 0 0 0 0 78706999.82805228 -11477009.5326519 -11477009.5326519 -31695.88714758773 0 0 0 0 0 80297734.82367113 -11855804.62957856 -11855804.62957856 -705593.3196177025 0 0 0 0 0 81123958.54528259 -12023230.87505288 -12023230.87505288 -1010752.505092643 0 0 0 0 0 81945261.36910969 -12160356.07245675 -12160356.07245675 -1310666.895488544 0 0 0 0 0 82761186.67402424 -12268891.74248832 -12268891.74248832 -1604614.926380153 0 0 0 0 0 83570053.35869926 -12351125.3227743 -12351125.3227743 -1891499.019294733 0 0 0 0 0 84252095.58193552 -12113795.15225801 -12113795.15225801 -1712183.71082316 0 0 0 0 0 85456840.71513015 -12161658.96696411 -12161658.96696411 -2343860.365726131 0 0 0 0 0 85049638.84402174 -12167126.71381451 -12167126.71381451 -1976890.50472431 0 0 0 0 0 86198148.50661324 -12168244.74298421 -12168244.74298421 -2595579.191791749 0 0 0 0 0 86937488.32539441 -12154417.44194868 -12154417.44194868 -2833186.194024607 0 0 0 0 0 87663780.67071696 -12139551.90121482 -12139551.90121482 -3068299.370471086 0 0 0 0 0 88247383.3249663 -12058309.50104636 -12058309.50104636 -3301325.314204011 0 0 0 0 0 89171314.740996 -11716822.23326249 -11716822.23326249 -3410121.396320123 0 0 0 0 0 88851287.33476497 -11802509.92258937 -11802509.92258937 -3255789.307489926 0 0 0 0 0 89712089.76505098 -11729859.40004595 -11729859.40004595 -3643451.745738565 0 0 0 0 0 90472707.87255333 -11681559.97260346 -11681559.97260346 -3694073.884986657 0 0 0 0 0 90774806.30628987 -11471436.42955786 -11471436.42955786 -3649049.149576603 0 0 0 0 0 91321063.62275693 -11412559.61296956 -11412559.61296956 -3922268.877614283 0 0 0 0 0 91930278.65680566 -11341232.7579168 -11341232.7579168 -4147497.471033215 0 0 0 0 0 92327591.52438681 -11114607.43409456 -11114607.43409456 -4024267.393100792 0 0 0 0 0 71501588.18733221 -9856233.738524199 -9856233.738524199 1796414.713510678 0 0 0 0 0 60373211.51636043 -490560.0849529182 -490560.0849529182 4159311.088384371 0 0 0 0 0 61071453.98160328 -1433110.436386065 -1433110.436386065 4206390.570973915 0 0 0 0 0 61702268.44513448 -2340197.382949311 -2340197.382949311 4191357.880789568 0 0 0 0 0 62313096.01111954 -3286597.25245929 -3286597.25245929 4125694.549351902 0 0 0 0 0 62826749.49587381 -4245008.35627166 -4245008.35627166 3979584.850415404 0 0 0 0 0 62770649.23651869 -4338680.304302214 -4338680.304302214 3679698.135185198 0 0 0 0 0 64442241.13965163 -5237269.880944941 -5237269.880944941 3758730.067852193 0 0 0 0 0 65086404.44364646 -6086715.552424201 -6086715.552424201 3542718.677722458 0 0 0 0 0 65785599.90527806 -6896109.186686375 -6896109.186686375 3300543.006146943 0 0 0 0 0 66526658.1483911 -7660507.174023159 -7660507.174023159 3033743.326889956 0 0 0 0 0 67273741.63917913 -8370178.528852304 -8370178.528852304 2744408.376098481 0 0 0 0 0 68113716.72402163 -9018119.037202407 -9018119.037202407 2451796.384784213 0 0 0 0 0 68570581.36971238 -8909947.418283345 -8909947.418283345 2361614.637319713 0 0 0 0 0 69884153.85366704 -9469170.54791484 -9469170.54791484 2144610.364341211 0 0 0 0 0 70745713.92000608 -10033234.91822305 -10033234.91822305 1819519.004621432 0 0 0 0 0 72045544.61454733 -9714974.340137962 -9714974.340137962 1776848.641994102 0 0 0 0 0 72924250.88236988 -10172764.61654294 -10172764.61654294 1483263.388657744 0 0 0 0 0 74511386.82784329 -10404852.95537891 -10404852.95537891 1174967.881569932 0 0 0 0 0 73974564.80321817 -10552718.18898852 -10552718.18898852 1183315.230688121 0 0 0 0 0 75412498.2298767 -10790385.24943548 -10790385.24943548 870183.8861910984 0 0 0 0 0 76321169.13039112 -11138393.17575539 -11138393.17575539 561982.3847273311 0 0 0 0 0 77233907.28381357 -11449638.46298517 -11449638.46298517 251448.3348696487 0 0 0 0 0 78150318.38606398 -11724791.91909731 -11724791.91909731 -59640.03356085069 0 0 0 0 0 79588335.81445029 -11706988.25780601 -11706988.25780601 -333122.2559002947 0 0 0 0 0 78940554.42153096 -11914297.80884317 -11914297.80884317 -433816.1823517893 0 0 0 0 0 80465786.62254508 -11904276.884446 -11904276.884446 -632448.9058829002 0 0 0 0 0 81337400.20492397 -12069692.24450922 -12069692.24450922 -928132.0261075028 0 0 0 0 0 82201180.80279867 -12204399.04195461 -12204399.04195461 -1219559.652955923 0 0 0 0 0 83055289.32047397 -12310311.23603461 -12310311.23603461 -1506171.202032158 0 0 0 0 0 83897398.60516065 -12389418.19613249 -12389418.19613249 -1787242.644997362 0 0 0 0 0 84367264.41786993 -12408246.46330663 -12408246.46330663 -2169716.704280329 0 0 0 0 0 85831532.11217043 -12193274.13611788 -12193274.13611788 -2232846.419582844 0 0 0 0 0 85147320.00625463 -12438973.94531185 -12438973.94531185 -2438559.726461129 0 0 0 0 0 86603559.78324133 -12194173.58800798 -12194173.58800798 -2481210.314713243 0 0 0 0 0 87358879.99356413 -12176452.78385165 -12176452.78385165 -2717401.842642147 0 0 0 0 0 88086655.26839618 -12146441.45837698 -12146441.45837698 -2959796.258840824 0 0 0 0 0 88820156.22102346 -12086935.69923891 -12086935.69923891 -3195128.596898892 0 0 0 0 0 89722915.43466744 -11733470.66338085 -11733470.66338085 -3299883.474896549 0 0 0 0 0 89201107.60004781 -11982722.72167138 -11982722.72167138 -3482180.030107822 0 0 0 0 0 90368058.16070804 -11715309.72152247 -11715309.72152247 -3463533.824684188 0 0 0 0 0 90271854.69830665 -11737254.82109724 -11737254.82109724 -3777348.485854253 0 0 0 0 0 91117870.25031179 -11660942.95339904 -11660942.95339904 -3952874.947123424 0 0 0 0 0 91444557.60025477 -11420685.69677017 -11420685.69677017 -3884837.361699004 0 0 0 0 0 92169641.42139859 -11338917.66985202 -11338917.66985202 -4076874.621003688 0 0 0 0 0 92565251.05453753 -11246092.7862615 -11246092.7862615 -4336742.457025366 0 0 0 0 0 92937314.78399639 -11028082.22637365 -11028082.22637365 -4228681.59595977 0 0 0 0 0 93541198.91606039 -10922135.76332223 -10922135.76332223 -4421215.392351398 0 0 0 0 0 71267745.13158192 -9900226.309610451 -9900226.309610451 1778935.445308637 0 0 0 0 0 59797354.01459511 -456338.0469248147 -456338.0469248147 4124771.280362978 0 0 0 0 0 60201406.39711591 -1375020.047907824 -1375020.047907824 4046242.923865002 0 0 0 0 0 60608212.65140007 -2286886.72721568 -2286886.72721568 3934104.822544303 0 0 0 0 0 61073252.57875419 -3252710.825220267 -3252710.825220267 3808212.33795136 0 0 0 0 0 61678008.8215718 -4225163.466493504 -4225163.466493504 3692719.894065381 0 0 0 0 0 63414936.37023844 -5170586.454880958 -5170586.454880958 3796174.309646571 0 0 0 0 0 63444290.92548129 -5234304.700821374 -5234304.700821374 3518455.302721742 0 0 0 0 0 64180234.15693438 -6092383.269282846 -6092383.269282846 3330260.377902039 0 0 0 0 0 64972607.07699926 -6910319.737934581 -6910319.737934581 3116140.212820427 0 0 0 0 0 65816561.06852347 -7684624.909813182 -7684624.909813182 2878943.51229724 0 0 0 0 0 66718900.48329031 -8392646.246593436 -8392646.246593436 2639299.223335654 0 0 0 0 0 67634499.6873157 -9049650.726308169 -9049650.726308169 2367277.163433411 0 0 0 0 0 68980145.01652065 -9625976.598439731 -9625976.598439731 2154200.282902996 0 0 0 0 0 69451697.01682836 -9511067.05485335 -9511067.05485335 2068127.266908418 0 0 0 0 0 70399300.1788699 -10078073.49615866 -10078073.49615866 1766516.193494953 0 0 0 0 0 72364001.55572401 -10331137.86131988 -10331137.86131988 1490304.21877274 0 0 0 0 0 73237603.78818396 -10766127.40837678 -10766127.40837678 1174418.334180244 0 0 0 0 0 74846204.36579281 -10952398.34168395 -10952398.34168395 856233.2743371563 0 0 0 0 0 73801571.50972866 -10601009.09888604 -10601009.09888604 1174785.175082801 0 0 0 0 0 75723887.96954355 -11315141.99733473 -11315141.99733473 524723.1957189407 0 0 0 0 0 76609649.93824328 -11639919.72500897 -11639919.72500897 191304.9959066257 0 0 0 0 0 77501816.50018352 -11927551.82015263 -11927551.82015263 -141948.067333201 0 0 0 0 0 78394589.72688942 -12179045.9413685 -12179045.9413685 -474129.6403581607 0 0 0 0 0 79801171.15995273 -12121384.79142458 -12121384.79142458 -752586.8507929026 0 0 0 0 0 79064945.07825434 -11964556.18845636 -11964556.18845636 -369886.7963802865 0 0 0 0 0 80658104.59439492 -12295719.55642175 -12295719.55642175 -1067040.625820816 0 0 0 0 0 81509592.46034299 -12438428.6811459 -12438428.6811459 -1376056.928834961 0 0 0 0 0 82354512.00187859 -12551101.17867763 -12551101.17867763 -1678663.705832701 0 0 0 0 0 83191083.50368135 -12635534.62559721 -12635534.62559721 -1973906.47232596 0 0 0 0 0 84016304.22754814 -12693213.28773881 -12693213.28773881 -2260600.762713594 0 0 0 0 0 84724852.76573588 -12442813.72044329 -12442813.72044329 -2060798.558420865 0 0 0 0 0 85914675.14268741 -12444284.59187913 -12444284.59187913 -2699046.36681071 0 0 0 0 0 85535977.2313475 -12470157.87930923 -12470157.87930923 -2324615.26053096 0 0 0 0 0 86672755.57504861 -12429781.21451896 -12429781.21451896 -2951306.304975928 0 0 0 0 0 87410908.09093833 -12394808.61574017 -12394808.61574017 -3196107.282266143 0 0 0 0 0 88107685.99356256 -12335606.71746282 -12335606.71746282 -3439923.989936202 0 0 0 0 0 88817841.91487984 -12265486.40067657 -12265486.40067657 -3620424.361451497 0 0 0 0 0 89768186.78546177 -11911219.36417307 -11911219.36417307 -3682715.012711509 0 0 0 0 0 89467039.23543176 -11998361.83237829 -11998361.83237829 -3400880.018274259 0 0 0 0 0 90847891.48171584 -11828696.30706929 -11828696.30706929 -3875102.699571387 0 0 0 0 0 90912655.81913224 -11698489.07976656 -11698489.07976656 -4025025.6234594 0 0 0 0 0 91670473.96119364 -11588055.65592147 -11588055.65592147 -4259970.115035454 0 0 0 0 0 92304702.50428213 -11467592.0858271 -11467592.0858271 -4441711.348792691 0 0 0 0 0 92738033.60369571 -11245811.2658341 -11245811.2658341 -4284907.184031404 0 0 0 0 0 93167457.12243582 -11148975.59435977 -11148975.59435977 -4547322.603924143 0 0 0 0 0 93726082.14657992 -11025447.14321981 -11025447.14321981 -4761737.206872826 0 0 0 0 0 94182831.0242019 -10798088.17442945 -10798088.17442945 -4588299.306300974 0 0 0 0 0 71594606.45366776 -10546114.40493532 -10546114.40493532 1487662.064190432 0 0 0 0 0 59228997.78123865 -497398.0303968895 -497398.0303968895 4101085.453909162 0 0 0 0 0 59891065.7895221 -1393216.757947322 -1393216.757947322 4180458.949803969 0 0 0 0 0 60576093.5142905 -2225775.655447237 -2225775.655447237 4175495.093299393 0 0 0 0 0 61192716.70918905 -3133324.873507518 -3133324.873507518 4139540.4306289 0 0 0 0 0 61763027.42277053 -4120766.285315769 -4120766.285315769 4002777.558167687 0 0 0 0 0 62351717.45000157 -5091700.761341673 -5091700.761341673 3824252.569063734 0 0 0 0 0 62362779.00574952 -5162376.206080726 -5162376.206080726 3539443.501414941 0 0 0 0 0 64070576.96284854 -6057941.653680793 -6057941.653680793 3581703.677659824 0 0 0 0 0 64786039.38958459 -6904640.731956204 -6904640.731956204 3339630.987817982 0 0 0 0 0 65555276.47845536 -7707847.761328979 -7707847.761328979 3071685.268167038 0 0 0 0 0 66365105.023739 -8462491.87263657 -8462491.87263657 2788256.671616001 0 0 0 0 0 67176551.77321857 -9163021.523249188 -9163021.523249188 2479497.68532298 0 0 0 0 0 68041693.90020123 -9793547.679112058 -9793547.679112058 2145918.681502834 0 0 0 0 0 68567210.89515774 -9656503.714624589 -9656503.714624589 2088997.065930545 0 0 0 0 0 69909029.4985851 -10198188.75670517 -10198188.75670517 1834568.447036562 0 0 0 0 0 70829739.88391605 -10743910.67064222 -10743910.67064222 1495832.434028247 0 0 0 0 0 72171366.64036128 -10376706.80856025 -10376706.80856025 1479065.007889896 0 0 0 0 0 73110697.38593295 -10813427.12446143 -10813427.12446143 1183352.485315163 0 0 0 0 0 74734909.34070668 -11003014.1343427 -11003014.1343427 864090.5284070668 0 0 0 0 0 74150287.01066273 -11169519.05970428 -11169519.05970428 851660.9344378873 0 0 0 0 0 75676692.02669051 -11367017.04237036 -11367017.04237036 548784.3732918511 0 0 0 0 0 76623921.42279427 -11692006.81103962 -11692006.81103962 230193.2605304137 0 0 0 0 0 77572051.26765823 -11979220.74921437 -11979220.74921437 -90031.87652908277 0 0 0 0 0 78521055.69541833 -12229512.15384583 -12229512.15384583 -409589.0630327294 0 0 0 0 0 79974905.3861911 -12170016.15329327 -12170016.15329327 -677979.4634207812 0 0 0 0 0 79286351.58242257 -12394947.86462375 -12394947.86462375 -802847.6871742866 0 0 0 0 0 80878707.71188928 -12342268.88021909 -12342268.88021909 -982656.9218883608 0 0 0 0 0 81774203.40855896 -12482535.54637636 -12482535.54637636 -1282831.021632711 0 0 0 0 0 82659113.38136742 -12592414.1939085 -12592414.1939085 -1577788.248304625 0 0 0 0 0 83531438.32116634 -12673701.10828659 -12673701.10828659 -1866627.890805534 0 0 0 0 0 84389071.49691135 -12727775.03025334 -12727775.03025334 -2148036.677773342 0 0 0 0 0 84826641.89874727 -12724714.40513739 -12724714.40513739 -2537797.735396326 0 0 0 0 0 86331073.27777107 -12472603.35014074 -12472603.35014074 -2580379.895839386 0 0 0 0 0 85620547.60072717 -12730462.23504403 -12730462.23504403 -2805262.349660296 0 0 0 0 0 87111355.59766759 -12454521.68887488 -12454521.68887488 -2829707.813339179 0 0 0 0 0 87868176.95087165 -12419407.59025577 -12419407.59025577 -3070427.331123038 0 0 0 0 0 88605298.9608061 -12360473.79091889 -12360473.79091889 -3304102.031134516 0 0 0 0 0 89338013.72495736 -12271733.29850856 -12271733.29850856 -3498002.213648368 0 0 0 0 0 90189766.94481486 -11921255.71348013 -11921255.71348013 -3572512.455293896 0 0 0 0 0 89510392.98888426 -12183675.38203962 -12183675.38203962 -3853555.745580087 0 0 0 0 0 90813561.26373279 -11860226.29202973 -11860226.29202973 -3892378.303519025 0 0 0 0 0 91527284.73308907 -11778155.44189505 -11778155.44189505 -4027480.788984686 0 0 0 0 0 92076329.09027898 -11589454.68696326 -11589454.68696326 -4150946.707396923 0 0 0 0 0 92663522.55741391 -11461698.36905096 -11461698.36905096 -4338700.898499575 0 0 0 0 0 92958744.10220583 -11371219.5882244 -11371219.5882244 -4600104.993147511 0 0 0 0 0 93320314.2871002 -11153203.89002082 -11153203.89002082 -4501889.218929351 0 0 0 0 0 93931288.35281144 -11035052.44373533 -11035052.44373533 -4701026.349163454 0 0 0 0 0 94220402.23739205 -10886106.47878298 -10886106.47878298 -4975486.983149294 0 0 0 0 0 94669917.998825 -10682850.81168471 -10682850.81168471 -4787208.532361298 0 0 0 0 0 71385059.35347614 -10591917.65046663 -10591917.65046663 1469703.027060332 0 0 0 0 0 58664702.96351632 -489269.9545558738 -489269.9545558738 4133647.907994461 0 0 0 0 0 59143873.78796807 -1317462.489532843 -1317462.489532843 4055658.062000918 0 0 0 0 0 59530636.61781666 -2156012.78694805 -2156012.78694805 3948790.102102238 0 0 0 0 0 59927324.6491156 -3094666.351707892 -3094666.351707892 3816708.616745608 0 0 0 0 0 60538776.01683181 -4091124.764198425 -4091124.764198425 3690426.656504425 0 0 0 0 0 61239059.65069342 -5076069.397900775 -5076069.397900775 3547814.049706429 0 0 0 0 0 63016160.43749662 -6019195.799960831 -6019195.799960831 3612780.956988957 0 0 0 0 0 63113261.06829021 -6059045.074912298 -6059045.074912298 3353882.770854038 0 0 0 0 0 63923846.55093782 -6914289.056267175 -6914289.056267175 3140280.230991366 0 0 0 0 0 64790333.69285762 -7725739.816084298 -7725739.816084298 2901190.405177456 0 0 0 0 0 65687020.53008003 -8487249.61403423 -8487249.61403423 2636861.242186476 0 0 0 0 0 66645555.42318288 -9190376.041473141 -9190376.041473141 2374093.651777199 0 0 0 0 0 67687387.43405011 -9819289.201063493 -9819289.201063493 2102540.396884402 0 0 0 0 0 69012278.67977464 -10370440.35287187 -10370440.35287187 1839559.082755009 0 0 0 0 0 69539975.01152991 -10240188.71806938 -10240188.71806938 1774610.697922885 0 0 0 0 0 70541851.50566728 -10788582.43112713 -10788582.43112713 1456141.242841844 0 0 0 0 0 72472990.85653274 -10997515.606657 -10997515.606657 1152076.483865251 0 0 0 0 0 73400282.73664388 -11404736.61066483 -11404736.61066483 823837.6598338806 0 0 0 0 0 75059489.17625017 -11549478.07015377 -11549478.07015377 510501.9709234789 0 0 0 0 0 74042132.60047817 -11222467.6908348 -11222467.6908348 861771.6821000894 0 0 0 0 0 75976935.42374283 -11889074.603936 -11889074.603936 167317.1963954863 0 0 0 0 0 76899747.8355619 -12189358.64240485 -12189358.64240485 -176190.9385865732 0 0 0 0 0 77827117.76370591 -12451495.54270617 -12451495.54270617 -517700.0799097975 0 0 0 0 0 78752402.74203108 -12676731.84080304 -12676731.84080304 -856512.8995685391 0 0 0 0 0 80175000.89682393 -12576453.55753904 -12576453.55753904 -1126906.396138097 0 0 0 0 0 79465520.25408116 -12443660.21578387 -12443660.21578387 -726887.841864512 0 0 0 0 0 81058042.85140727 -12724956.50736406 -12724956.50736406 -1445299.225195403 0 0 0 0 0 81933519.92510168 -12841895.57444233 -12841895.57444233 -1756940.879990853 0 0 0 0 0 82799717.92292808 -12928920.546454 -12928920.546454 -2060842.930493035 0 0 0 0 0 83654289.091941 -12987653.45566394 -12987653.45566394 -2355985.516044451 0 0 0 0 0 84494569.33871044 -13019441.08491255 -13019441.08491255 -2641646.651140604 0 0 0 0 0 85230494.4852396 -12755500.50551435 -12755500.50551435 -2420515.13902031 0 0 0 0 0 86402988.01130717 -12713908.26999245 -12713908.26999245 -3063529.726280886 0 0 0 0 0 86054325.15486345 -12757821.25963381 -12757821.25963381 -2683269.284473864 0 0 0 0 0 87168207.13400844 -12677366.02044471 -12677366.02044471 -3311502.999068405 0 0 0 0 0 87907991.90899214 -12618754.51198379 -12618754.51198379 -3547764.599141515 0 0 0 0 0 88632075.41238055 -12539263.48102165 -12539263.48102165 -3772225.884971452 0 0 0 0 0 89346958.05245136 -12439396.51093648 -12439396.51093648 -3982811.655189707 0 0 0 0 0 90297656.52324672 -12089463.40420997 -12089463.40420997 -4037922.585062199 0 0 0 0 0 90040565.67484602 -12174221.48467743 -12174221.48467743 -3727590.359220947 0 0 0 0 0 90898011.07314713 -11968122.27873769 -11968122.27873769 -4287035.531209107 0 0 0 0 0 91436155.43280177 -11807856.78109051 -11807856.78109051 -4389426.595284667 0 0 0 0 0 92072640.48662506 -11686662.8998576 -11686662.8998576 -4575080.954946727 0 0 0 0 0 92693785.22344343 -11575135.03355986 -11575135.03355986 -4758854.151726793 0 0 0 0 0 93089391.34770443 -11362105.45208428 -11362105.45208428 -4559745.056146045 0 0 0 0 0 93541975.97731245 -11266022.53113705 -11266022.53113705 -4809652.64875353 0 0 0 0 0 94290328.97801079 -11133173.45969818 -11133173.45969818 -4984424.236914256 0 0 0 0 0 94757600.99197315 -10866418.18865764 -10866418.18865764 -4885991.605111464 0 0 0 0 0 94901186.46415472 -10728424.19095313 -10728424.19095313 -5039191.597957507 0 0 0 0 0 95219039.39834063 -10535931.46847091 -10535931.46847091 -4952634.259884199 0 0 0 0 0 95807767.0904704 -10376535.45920533 -10376535.45920533 -5091044.643181833 0 0 0 0 0 71716969.33795676 -11229968.33023366 -11229968.33023366 1137572.714153884 0 0 0 0 0 58003925.62585711 -514196.5330812212 -514196.5330812212 4132676.237114208 0 0 0 0 0 58630880.31847738 -1443231.479245207 -1443231.479245207 3983216.194056174 0 0 0 0 0 59541942.75387029 -2080225.071877214 -2080225.071877214 4247200.731897512 0 0 0 0 0 60084045.89649412 -2971088.488419902 -2971088.488419902 4144521.604208863 0 0 0 0 0 60630639.81151745 -3981286.815918479 -3981286.815918479 4015439.623267004 0 0 0 0 0 61247085.60738122 -4997486.347656761 -4997486.347656761 3842946.784143853 0 0 0 0 0 61922461.57653175 -5968280.976900717 -5968280.976900717 3635763.602798621 0 0 0 0 0 62004469.05063713 -6014609.70572326 -6014609.70572326 3368095.106819755 0 0 0 0 0 63745610.11491678 -6904407.810532868 -6904407.810532868 3371118.891000262 0 0 0 0 0 64533650.07742715 -7745394.117192061 -7745394.117192061 3102800.272460523 0 0 0 0 0 65373184.70548986 -8536431.052399343 -8536431.052399343 2811126.93111673 0 0 0 0 0 66232432.13139681 -9274282.298979996 -9274282.298979996 2494527.427901718 0 0 0 0 0 67125191.15195957 -9957553.867150014 -9957553.867150014 2161011.943241654 0 0 0 0 0 68036174.47192758 -10578570.43526413 -10578570.43526413 1813266.74549245 0 0 0 0 0 68654996.82059053 -10412854.87196893 -10412854.87196893 1787383.264541622 0 0 0 0 0 69978397.66508402 -10936681.06865717 -10936681.06865717 1490028.032924851 0 0 0 0 0 70955890.02370527 -11457419.31375665 -11457419.31375665 1137604.431995613 0 0 0 0 0 72369255.60480531 -11044099.84352894 -11044099.84352894 1169534.310593649 0 0 0 0 0 73349732.83484681 -11456036.86690028 -11456036.86690028 851325.0882783358 0 0 0 0 0 75009388.45512958 -11601958.03453974 -11601958.03453974 534250.2499111579 0 0 0 0 0 74368054.3586722 -11791728.69535264 -11791728.69535264 491064.3725632326 0 0 0 0 0 75990267.25392751 -11941458.79526767 -11941458.79526767 206179.3524903269 0 0 0 0 0 76974622.9967431 -12240971.42435833 -12240971.42435833 -123137.0833135952 0 0 0 0 0 77956715.7456495 -12502045.51297845 -12502045.51297845 -452377.1442074372 0 0 0 0 0 78936623.76208606 -12725424.95008258 -12725424.95008258 -779371.263462469 0 0 0 0 0 80403106.91161707 -12623008.88249834 -12623008.88249834 -1040729.230700787 0 0 0 0 0 79673964.7302366 -12865789.99621394 -12865789.99621394 -1190580.346842427 0 0 0 0 0 81331882.32498464 -12768956.72506253 -12768956.72506253 -1349940.619724562 0 0 0 0 0 82249558.91918004 -12882989.93840428 -12882989.93840428 -1653482.702578901 0 0 0 0 0 83153976.28697677 -12966777.4956677 -12966777.4956677 -1950463.732318681 0 0 0 0 0 84043163.10711776 -13021884.12413331 -13021884.12413331 -2239792.508002497 0 0 0 0 0 84915684.00910668 -13049841.74499799 -13049841.74499799 -2520400.577926332 0 0 0 0 0 85317921.71734573 -13025075.44819866 -13025075.44819866 -2916932.893519631 0 0 0 0 0 86859820.50983025 -12737809.60717303 -12737809.60717303 -2938089.932932038 0 0 0 0 0 86125128.11705995 -13006556.20542888 -13006556.20542888 -3181749.011476265 0 0 0 0 0 87645861.21459074 -12697260.94698438 -12697260.94698438 -3183983.625516441 0 0 0 0 0 88411278.31224366 -12634221.76958167 -12634221.76958167 -3416981.816243934 0 0 0 0 0 89160722.00666623 -12548812.70734859 -12548812.70734859 -3640538.546220824 0 0 0 0 0 89889941.83177987 -12446570.7224078 -12446570.7224078 -3848101.084739499 0 0 0 0 0 90706703.8383083 -12091050.44856336 -12091050.44856336 -3926548.029868079 0 0 0 0 0 90060005.76836996 -12340086.96662018 -12340086.96662018 -4185816.128584482 0 0 0 0 0 91369800.34383617 -11983989.64506001 -11983989.64506001 -4166616.49429632 0 0 0 0 0 92033111.52961813 -11818087.21384886 -11818087.21384886 -4258924.767654731 0 0 0 0 0 92630749.38128044 -11676770.08108938 -11676770.08108938 -4449726.406462322 0 0 0 0 0 93196354.83030188 -11541318.58207495 -11541318.58207495 -4615199.933503699 0 0 0 0 0 93423473.30790848 -11490810.97662821 -11490810.97662821 -4804801.712811745 0 0 0 0 0 93677229.64742236 -11257136.23915323 -11257136.23915323 -4768705.875065311 0 0 0 0 0 94348264.60902932 -10993342.69772009 -10993342.69772009 -5086248.733446477 0 0 0 0 0 94312807.29648516 -11129260.12014043 -11129260.12014043 -4977331.032311841 0 0 0 0 0 94724078.4747954 -10789503.33229909 -10789503.33229909 -5122416.163648521 0 0 0 0 0 95358987.1171073 -10612386.97581488 -10612386.97581488 -5288177.262386677 0 0 0 0 0 95947683.00633129 -10417555.47870391 -10417555.47870391 -5376488.659603154 0 0 0 0 0 96294051.46072517 -10215185.46403014 -10215185.46403014 -5244865.528334701 0 0 0 0 0 71590741.33067103 -11278506.13134256 -11278506.13134256 1145521.861241785 0 0 0 0 0 57308540.93447783 -411033.0140752383 -411033.0140752383 4021242.940280877 0 0 0 0 0 58781709.1760619 -1550023.718939353 -1550023.718939353 4204929.719507728 0 0 0 0 0 58148123.84125849 -1981539.647926233 -1981539.647926233 3883140.787595965 0 0 0 0 0 58724667.6837627 -2896437.727043253 -2896437.727043253 3780909.711706107 0 0 0 0 0 59360651.52326212 -3946794.992664866 -3946794.992664866 3688946.170954791 0 0 0 0 0 60071486.32884641 -4973833.993973501 -4973833.993973501 3546065.692484562 0 0 0 0 0 60851412.7651476 -5957180.469957434 -5957180.469957434 3372377.210449511 0 0 0 0 0 62665176.31276368 -6895079.036088733 -6895079.036088733 3395242.997587553 0 0 0 0 0 62834386.77930393 -6909409.88927477 -6909409.88927477 3156913.754878875 0 0 0 0 0 63722651.82670645 -7758445.793008493 -7758445.793008493 2917964.874881363 0 0 0 0 0 64664240.26029138 -8557010.795737745 -8557010.795737745 2653546.533560378 0 0 0 0 0 65650348.55409684 -9304514.096035181 -9304514.096035181 2375441.467390972 0 0 0 0 0 66672204.43308047 -9994981.767268002 -9994981.767268002 2081229.367866017 0 0 0 0 0 67769101.58452216 -10615533.43901588 -10615533.43901588 1788251.246007884 0 0 0 0 0 69074251.27110341 -11149125.09618296 -11149125.09618296 1471930.196243122 0 0 0 0 0 69708467.09746796 -10983464.66451688 -10983464.66451688 1458640.058078729 0 0 0 0 0 70746957.84733194 -11506744.63877068 -11506744.63877068 1120053.322484487 0 0 0 0 0 72660443.42319751 -11658603.58249465 -11658603.58249465 798942.7230020772 0 0 0 0 0 73635368.67296426 -12049643.21008897 -12049643.21008897 454221.3200684209 0 0 0 0 0 75317765.90504517 -12146296.9171417 -12146296.9171417 138575.798068354 0 0 0 0 0 74319666.70450673 -11843397.78882185 -11843397.78882185 513474.3760031901 0 0 0 0 0 76276453.14269826 -12459323.62674399 -12459323.62674399 -214212.0189560777 0 0 0 0 0 77236058.2110019 -12732630.66249635 -12732630.66249635 -565884.0754365969 0 0 0 0 0 78197452.52686287 -12967109.73606184 -12967109.73606184 -914419.0806901061 0 0 0 0 0 79154046.13759606 -13163991.84963311 -13163991.84963311 -1258413.772906019 0 0 0 0 0 80589832.95566864 -13020267.39698649 -13020267.39698649 -1518706.271819049 0 0 0 0 0 79909809.94645987 -12912261.77037572 -12912261.77037572 -1102612.908938698 0 0 0 0 0 81497645.49518912 -13141643.18308361 -13141643.18308361 -1839735.673795421 0 0 0 0 0 82395209.87779501 -13231518.50928759 -13231518.50928759 -2152707.828393769 0 0 0 0 0 83280528.99448024 -13291545.43663187 -13291545.43663187 -2456617.302467484 0 0 0 0 0 84151466.35361566 -13323409.81570857 -13323409.81570857 -2750687.59120706 0 0 0 0 0 85005440.44741429 -13328543.31990341 -13328543.31990341 -3034191.937079368 0 0 0 0 0 85769572.81387055 -13051658.60399742 -13051658.60399742 -2791175.517167428 0 0 0 0 0 86916976.3396605 -12966303.53943201 -12966303.53943201 -3435835.636290933 0 0 0 0 0 86603726.64135478 -13029180.92428811 -13029180.92428811 -3052186.305131565 0 0 0 0 0 87687679.06566083 -12904365.22602558 -12904365.22602558 -3678065.960053239 0 0 0 0 0 88438136.23962125 -12820597.51303938 -12820597.51303938 -3909512.277444849 0 0 0 0 0 89176116.22193526 -12719777.05341407 -12719777.05341407 -4128004.688925183 0 0 0 0 0 89895777.30057454 -12603815.95231489 -12603815.95231489 -4336642.26417159 0 0 0 0 0 90729054.61871046 -12214720.44839693 -12214720.44839693 -4390637.852506243 0 0 0 0 0 90592879.59745456 -12335583.6509399 -12335583.6509399 -4060616.006874486 0 0 0 0 0 91358220.04937959 -12072387.51337864 -12072387.51337864 -4558725.197546594 0 0 0 0 0 92001687.38626093 -11917958.56592296 -11917958.56592296 -4712520.073752907 0 0 0 0 0 92618341.78472149 -11781711.1743089 -11781711.1743089 -4848454.281518777 0 0 0 0 0 93113490.04889569 -11588176.85359913 -11588176.85359913 -4957508.816937952 0 0 0 0 0 93960003.19915327 -11393047.51417079 -11393047.51417079 -5123650.395866184 0 0 0 0 0 94936225.86172684 -10983318.49225091 -10983318.49225091 -5031986.794175367 0 0 0 0 0 94396125.38859874 -11204734.26686852 -11204734.26686852 -5280073.037607925 0 0 0 0 0 95349135.01285461 -10807491.23684946 -10807491.23684946 -5139099.874626654 0 0 0 0 0 95768947.27266522 -10581610.0310569 -10581610.0310569 -5182686.760359799 0 0 0 0 0 96115691.64073849 -10430876.67454793 -10430876.67454793 -5332258.121712537 0 0 0 0 0 96366192.1254686 -10252864.19804974 -10252864.19804974 -5554102.45623417 0 0 0 0 0 96726470.4759583 -10052666.26220351 -10052666.26220351 -5399402.101243306 0 0 0 0 0 71894655.1253162 -11919080.46111602 -11919080.46111602 765513.756596311 0 0 0 0 0 56797307.41200175 -492670.9997870891 -492670.9997870891 3979704.980761636 0 0 0 0 0 57649747.61433748 -1499403.036911761 -1499403.036911761 3967366.378173195 0 0 0 0 0 58975478.83084175 -2733581.983932447 -2733581.983932447 4160588.961664091 0 0 0 0 0 59440630.27618004 -3838076.853165907 -3838076.853165907 4020198.568721048 0 0 0 0 0 60092139.76977845 -4888429.508185583 -4888429.508185583 3853803.151598958 0 0 0 0 0 60785723.75685678 -5903317.725908645 -5903317.725908645 3651411.941406875 0 0 0 0 0 61542254.37488627 -6875078.391543133 -6875078.391543133 3412706.60516561 0 0 0 0 0 61700067.69515055 -6895076.618427806 -6895076.618427806 3164701.670578232 0 0 0 0 0 63470771.70158675 -7775367.054970094 -7775367.054970094 3124707.672599253 0 0 0 0 0 64332006.04224442 -8605854.800119674 -8605854.800119674 2827321.377791055 0 0 0 0 0 65228797.26117997 -9386801.870292531 -9386801.870292531 2508368.785351872 0 0 0 0 0 66161301.41974121 -10113155.27732266 -10113155.27732266 2165642.106271314 0 0 0 0 0 67136063.12190554 -10780052.22928901 -10780052.22928901 1810073.231329488 0 0 0 0 0 68115935.74568167 -11385290.51820455 -11385290.51820455 1437520.15626487 0 0 0 0 0 68827601.30261712 -11194529.62246592 -11194529.62246592 1450713.648224458 0 0 0 0 0 70098147.27645048 -11685922.90639591 -11685922.90639591 1112118.095947855 0 0 0 0 0 71143152.59172767 -12175517.16310146 -12175517.16310146 751561.2264315906 0 0 0 0 0 72613656.67654182 -11709936.00216655 -11709936.00216655 828865.2275192433 0 0 0 0 0 73640957.94975452 -12100205.18716148 -12100205.18716148 493662.2693318467 0 0 0 0 0 75331709.23724057 -12197969.2518798 -12197969.2518798 177267.7920614096 0 0 0 0 0 74638671.27536719 -12408880.52492729 -12408880.52492729 107064.0882263187 0 0 0 0 0 76350827.73718569 -12510536.07025893 -12510536.07025893 -161600.9555836606 0 0 0 0 0 77371446.41633254 -12782556.97642533 -12782556.97642533 -499526.7667888045 0 0 0 0 0 78387736.74720018 -13015368.68898199 -13015368.68898199 -836124.5218441865 0 0 0 0 0 79397727.31443387 -13210056.73032684 -13210056.73032684 -1168853.007648881 0 0 0 0 0 80873605.66403164 -13064069.86764442 -13064069.86764442 -1421108.457521632 0 0 0 0 0 80104270.44431506 -13324723.91042555 -13324723.91042555 -1596633.059182787 0 0 0 0 0 81825609.65941706 -13182416.0703602 -13182416.0703602 -1733645.439215386 0 0 0 0 0 82763795.469717 -13268948.73502337 -13268948.73502337 -2039201.469050895 0 0 0 0 0 83685977.43827404 -13325328.93531347 -13325328.93531347 -2336792.295081861 0 0 0 0 0 84590536.36981386 -13353270.78434932 -13353270.78434932 -2625469.819849038 0 0 0 0 0 85476051.56933758 -13354234.69767436 -13354234.69767436 -2904342.582741888 0 0 0 0 0 85841652.33217911 -13308224.67482245 -13308224.67482245 -3306188.615476514 0 0 0 0 0 87417412.05536439 -12984673.79886882 -12984673.79886882 -3303799.191767094 0 0 0 0 0 86660528.57798509 -13264465.35306466 -13264465.35306466 -3566698.624490537 0 0 0 0 0 88210578.94374667 -12918075.50688 -12918075.50688 -3543804.097742589 0 0 0 0 0 88983650.37438351 -12830308.72720173 -12830308.72720173 -3772745.064217652 0 0 0 0 0 89735800.45619859 -12724280.79057256 -12724280.79057256 -3991462.858765653 0 0 0 0 0 90462509.42782149 -12605156.8975174 -12605156.8975174 -4200054.417600069 0 0 0 0 0 91261886.29982345 -12216987.53734821 -12216987.53734821 -4259455.288058246 0 0 0 0 0 90590978.08880469 -12476141.99585305 -12476141.99585305 -4531704.443525549 0 0 0 0 0 91929116.29802516 -12062763.01137392 -12062763.01137392 -4433089.015122944 0 0 0 0 0 92572338.97467253 -11906478.86110164 -11906478.86110164 -4584100.701827282 0 0 0 0 0 93182649.35798541 -11742513.32414219 -11742513.32414219 -4730502.842004057 0 0 0 0 0 93770279.97850332 -11571039.21988048 -11571039.21988048 -4921084.125149073 0 0 0 0 0 94300312.14769007 -11366953.36405094 -11366953.36405094 -5029988.300486398 0 0 0 0 0 94845762.88423069 -10978230.82398908 -10978230.82398908 -5373042.177712222 0 0 0 0 0 94881370.99662161 -11194979.18822415 -11194979.18822415 -5168059.878489506 0 0 0 0 0 95257525.67292698 -10780998.46254407 -10780998.46254407 -5429537.873297816 0 0 0 0 0 95729239.08551395 -10618198.41047798 -10618198.41047798 -5463460.368961381 0 0 0 0 0 96434016.16463162 -10459296.64327725 -10459296.64327725 -5502352.906356164 0 0 0 0 0 96783183.83404404 -10229654.57295004 -10229654.57295004 -5462253.295010005 0 0 0 0 0 97005687.40546232 -10098956.1206596 -10098956.1206596 -5596517.103661414 0 0 0 0 0 97761211.56581894 -9658028.917120438 -9658028.917120438 -5611001.981672168 0 0 0 0 0 97413475.98820895 -9823088.402154129 -9823088.402154129 -5462061.190039092 0 0 0 0 0 71844529.99392514 -11968002.04805438 -11968002.04805438 792950.5391509809 0 0 0 0 0 56472037.24502045 -494353.1397314076 -494353.1397314076 4074859.833296875 0 0 0 0 0 57315834.40267653 -1554436.659572993 -1554436.659572993 4175702.093474859 0 0 0 0 0 57514406.85453963 -2690581.456352266 -2690581.456352266 3786860.550000064 0 0 0 0 0 58148437.72109771 -3801249.568647541 -3801249.568647541 3688849.672051874 0 0 0 0 0 58864185.66790596 -4860288.308649357 -4860288.308649357 3541066.015513299 0 0 0 0 0 59651623.85729667 -5886039.999435539 -5886039.999435539 3368744.723223576 0 0 0 0 0 60519055.43186847 -6869341.572447575 -6869341.572447575 3164351.724619121 0 0 0 0 0 62365943.09505412 -7798037.542063246 -7798037.542063246 3141735.7412111 0 0 0 0 0 62611889.46399968 -7785055.234058605 -7785055.234058605 2926157.999001028 0 0 0 0 0 63579622.8182729 -8624866.761291021 -8624866.761291021 2659856.444707703 0 0 0 0 0 64593667.12988769 -9414039.099786853 -9414039.099786853 2371942.99002836 0 0 0 0 0 65668400.62429737 -10144120.06695264 -10144120.06695264 2070497.438357195 0 0 0 0 0 66772394.87515385 -10820890.13545994 -10820890.13545994 1751909.867402622 0 0 0 0 0 67929161.06025071 -11429871.75431274 -11429871.75431274 1433616.993178781 0 0 0 0 0 69217824.04617307 -11936518.57607115 -11936518.57607115 1084607.362881412 0 0 0 0 0 69915594.04208396 -11731112.00281925 -11731112.00281925 1102219.16435147 0 0 0 0 0 71000725.70968008 -12224061.35725109 -12224061.35725109 748706.9837593817 0 0 0 0 0 72903725.01161291 -12323393.50946983 -12323393.50946983 413896.0594566853 0 0 0 0 0 73914895.25922093 -12688753.41369761 -12688753.41369761 57263.00140777692 0 0 0 0 0 75630150.55839658 -12736106.20256355 -12736106.20256355 -254950.9135638803 0 0 0 0 0 74651623.23974203 -12459895.34389017 -12459895.34389017 144178.0667660128 0 0 0 0 0 76626181.13256598 -13021502.60309074 -13021502.60309074 -617223.9614332067 0 0 0 0 0 77621601.61813299 -13265911.69926087 -13265911.69926087 -976252.656872544 0 0 0 0 0 78614236.35900909 -13471194.70718468 -13471194.70718468 -1330915.769848733 0 0 0 0 0 79600893.14443576 -13638484.73234766 -13638484.73234766 -1679195.244422765 0 0 0 0 0 81046023.28669687 -13450680.282254 -13450680.282254 -1927357.825512416 0 0 0 0 0 80398727.59743886 -13368101.98356132 -13368101.98356132 -1496769.45331955 0 0 0 0 0 81976915.56270285 -13543640.70474756 -13543640.70474756 -2249652.669407811 0 0 0 0 0 82894805.22681393 -13605192.04594206 -13605192.04594206 -2562447.821872109 0 0 0 0 0 83797597.13997237 -13637141.25557219 -13637141.25557219 -2865045.684746034 0 0 0 0 0 84683813.16600755 -13641246.97585917 -13641246.97585917 -3156636.989884469 0 0 0 0 0 85550799.50756754 -13618965.25583038 -13618965.25583038 -3436432.235996333 0 0 0 0 0 86340478.17595558 -13329658.87497943 -13329658.87497943 -3172562.899249269 0 0 0 0 0 87459918.80030875 -13198450.11965302 -13198450.11965302 -3815363.070869479 0 0 0 0 0 87183491.74978626 -13281525.75726625 -13281525.75726625 -3430340.307814817 0 0 0 0 0 88238737.92438231 -13111204.77958235 -13111204.77958235 -4052335.924857285 0 0 0 0 0 88998681.69666484 -13004844.81273313 -13004844.81273313 -4277190.131595415 0 0 0 0 0 89740251.88685986 -12882952.09217486 -12882952.09217486 -4489348.274254811 0 0 0 0 0 90455626.72502278 -12746047.96782536 -12746047.96782536 -4688747.616929724 0 0 0 0 0 91242041.48796098 -12326617.39666641 -12326617.39666641 -4715909.175867694 0 0 0 0 0 91161077.50541237 -12472461.86691079 -12472461.86691079 -4398358.068144522 0 0 0 0 0 91907153.72952062 -12170211.14298505 -12170211.14298505 -4882908.420524103 0 0 0 0 0 92540087.52513546 -12002953.44963485 -12002953.44963485 -5041711.957149214 0 0 0 0 0 93114131.99643445 -11812315.92933091 -11812315.92933091 -5209159.052085523 0 0 0 0 0 93696549.49252689 -11629520.3097316 -11629520.3097316 -5305481.118251607 0 0 0 0 0 94260189.74646632 -11444440.07761985 -11444440.07761985 -5459900.882384433 0 0 0 0 0 95445671.45348261 -10985116.25188788 -10985116.25188788 -5279101.098709839 0 0 0 0 0 94824231.20182341 -11225270.78394932 -11225270.78394932 -5567592.938854772 0 0 0 0 0 95931452.49758978 -10771367.31198427 -10771367.31198427 -5348687.320402765 0 0 0 0 0 96208800.80017471 -10570905.28982527 -10570905.28982527 -5412551.313171326 0 0 0 0 0 96396344.38034423 -10365906.970046 -10365906.970046 -5669871.974506246 0 0 0 0 0 96164805.39752182 -10503054.73152911 -10503054.73152911 -5590811.972659482 0 0 0 0 0 96691192.32384728 -10201399.92225771 -10201399.92225771 -5751864.893349681 0 0 0 0 0 96996645.45671391 -9992785.30233586 -9992785.30233586 -5702255.702100788 0 0 0 0 0 97387427.17557037 -9875427.750504274 -9875427.750504274 -5828417.149796152 0 0 0 0 0 97824549.36888145 -9692528.711554024 -9692528.711554024 -5931703.631774723 0 0 0 0 0 98205416.25491881 -9459467.041106926 -9459467.041106926 -5715560.874684577 0 0 0 0 0 72145113.37588085 -12613371.38500065 -12613371.38500065 371137.8865925814 0 0 0 0 0 55578950.30611642 -573157.7493269091 -573157.7493269091 3950988.270401156 0 0 0 0 0 55768385.15991071 -1573552.472468677 -1573552.472468677 3775696.621417502 0 0 0 0 0 57680637.48049916 -2546286.419451374 -2546286.419451374 4136113.587840119 0 0 0 0 0 58310702.60445885 -3676125.027685912 -3676125.027685912 3995717.012377466 0 0 0 0 0 58890757.56117142 -4770639.344799866 -4770639.344799866 3858754.672602936 0 0 0 0 0 59602157.3090892 -5824325.500542236 -5824325.500542236 3660285.675970378 0 0 0 0 0 60373990.10693996 -6843099.889021773 -6843099.889021773 3422646.886515796 0 0 0 0 0 61216001.36866017 -7811414.57144947 -7811414.57144947 3151358.851356301 0 0 0 0 0 61454989.35787595 -7802584.763210297 -7802584.763210297 2927283.739839593 0 0 0 0 0 63250624.4734338 -8669686.855539221 -8669686.855539221 2842191.260146377 0 0 0 0 0 64188794.11698475 -9488577.560599819 -9488577.560599819 2517044.856622302 0 0 0 0 0 65168584.75253102 -10253581.84813514 -10253581.84813514 2169956.645300189 0 0 0 0 0 66169297.83757066 -10965980.02562447 -10965980.02562447 1801787.575420033 0 0 0 0 0 67216949.84223101 -11619000.42039385 -11619000.42039385 1421491.963282444 0 0 0 0 0 68277518.25103478 -12198198.23951635 -12198198.23951635 1037761.886938583 0 0 0 0 0 69032428.22301754 -11980557.11036258 -11980557.11036258 1073918.677986496 0 0 0 0 0 70280641.56226453 -12436975.09801388 -12436975.09801388 709353.3607885309 0 0 0 0 0 71387406.32703346 -12892460.34167117 -12892460.34167117 335349.1709164794 0 0 0 0 0 72901374.57436483 -12372597.07886389 -12372597.07886389 450727.0309251291 0 0 0 0 0 73980664.43173382 -12738460.01842002 -12738460.01842002 108979.9311493516 0 0 0 0 0 75702212.66332841 -12786669.76720558 -12786669.76720558 -203358.7740472559 0 0 0 0 0 74959142.02631381 -13020762.0502964 -13020762.0502964 -300407.0626584808 0 0 0 0 0 76762160.02165468 -13070984.83026011 -13070984.83026011 -551051.4721492069 0 0 0 0 0 77817838.90088005 -13313788.56904568 -13313788.56904568 -896790.7875443529 0 0 0 0 0 78867414.08614172 -13516807.1428578 -13516807.1428578 -1239393.659796479 0 0 0 0 0 79906067.92928453 -13681410.17504163 -13681410.17504163 -1577063.469629469 0 0 0 0 0 81386706.93638302 -13491053.95405654 -13491053.95405654 -1818497.886777081 0 0 0 0 0 80577952.02603737 -13769416.86322331 -13769416.86322331 -2019956.092049671 0 0 0 0 0 82360209.46454766 -13580526.91964805 -13580526.91964805 -2132991.435610497 0 0 0 0 0 83316771.16495353 -13638290.1374997 -13638290.1374997 -2439135.381622623 0 0 0 0 0 84254995.20118716 -13666214.03772928 -13666214.03772928 -2736025.505248733 0 0 0 0 0 85172999.34219046 -13665962.05828875 -13665962.05828875 -3022924.984998595 0 0 0 0 0 86069549.45426334 -13639107.47103395 -13639107.47103395 -3298831.101709711 0 0 0 0 0 86398641.57658888 -13571908.65976458 -13571908.65976458 -3704026.207417727 0 0 0 0 0 88004325.0671953 -13210900.58001996 -13210900.58001996 -3676878.994442125 0 0 0 0 0 87226246.62085985 -13501637.41741595 -13501637.41741595 -3958969.919641291 0 0 0 0 0 88803435.86593348 -13119239.5122288 -13119239.5122288 -3911946.535480929 0 0 0 0 0 89579620.24332765 -13008530.86587967 -13008530.86587967 -4135862.848382932 0 0 0 0 0 90331286.29762879 -12881825.23750923 -12881825.23750923 -4348746.684237907 0 0 0 0 0 91056790.86981919 -12740248.40903973 -12740248.40903973 -4549035.141837155 0 0 0 0 0 91840494.26711906 -12319159.50524965 -12319159.50524965 -4578879.486593924 0 0 0 0 0 91141091.10641015 -12592202.00299979 -12592202.00299979 -4874703.746692369 0 0 0 0 0 92500789.57500048 -12155149.48684837 -12155149.48684837 -4751311.202592027 0 0 0 0 0 93130069.91426486 -11987543.9879462 -11987543.9879462 -4911186.595598467 0 0 0 0 0 93731943.38626648 -11805351.1583325 -11805351.1583325 -5066281.291696089 0 0 0 0 0 94326612.41531265 -11598018.56957011 -11598018.56957011 -5176376.800881021 0 0 0 0 0 94881974.13324328 -11405148.17285035 -11405148.17285035 -5338043.459382945 0 0 0 0 0 95355104.69352458 -10981533.97030995 -10981533.97030995 -5637209.955605611 0 0 0 0 0 95421803.06650516 -11196772.46383619 -11196772.46383619 -5455066.618710384 0 0 0 0 0 95843685.93783446 -10699844.38832223 -10699844.38832223 -5611830.387735107 0 0 0 0 0 96820189.665746 -10308614.36608225 -10308614.36608225 -5619334.761532499 0 0 0 0 0 96515415.36531849 -10528244.62551847 -10528244.62551847 -5722369.633863424 0 0 0 0 0 97291143.9278917 -10178766.71162931 -10178766.71162931 -5683015.010362988 0 0 0 0 0 97562001.43827519 -9978424.2065787 -9978424.2065787 -5723374.36618806 0 0 0 0 0 97637228.58397251 -9821230.45962571 -9821230.45962571 -5734720.151776628 0 0 0 0 0 98185073.49567208 -9645109.386748666 -9645109.386748666 -5828333.694833596 0 0 0 0 0 98271422.68663241 -9471123.896545604 -9471123.896545604 -6010988.123940936 0 0 0 0 0 98644876.77482182 -9249955.697733713 -9249955.697733713 -5806211.756850164 0 0 0 0 0 72145667.93974788 -12660838.73061882 -12660838.73061882 406732.6095341654 0 0 0 0 0 54811593.48224927 -523034.9449275264 -523034.9449275264 3883191.687157632 0 0 0 0 0 56842558.52724173 -2018477.338095992 -2018477.338095992 4250568.083019205 0 0 0 0 0 56062554.44804955 -2406396.671473697 -2406396.671473697 3699438.152989946 0 0 0 0 0 56957020.53829932 -3615490.756643014 -3615490.756643014 3631235.961110991 0 0 0 0 0 57624862.10913005 -4743277.768184847 -4743277.768184847 3535008.104261249 0 0 0 0 0 58405070.10035272 -5803459.313071053 -5803459.313071053 3359724.302864532 0 0 0 0 0 59288920.22038841 -6832067.878006907 -6832067.878006907 3155962.598899914 0 0 0 0 0 60249480.6904416 -7810430.509439595 -7810430.509439595 2919767.226002222 0 0 0 0 0 62123795.75818344 -8726069.356357248 -8726069.356357248 2850385.984492645 0 0 0 0 0 62451285.66688202 -8683560.60145646 -8683560.60145646 2660711.643092217 0 0 0 0 0 63500877.67812376 -9511006.461565875 -9511006.461565875 2368056.136207338 0 0 0 0 0 64589473.62115822 -10286619.83948379 -10286619.83948379 2051196.763431538 0 0 0 0 0 65725398.91266786 -11004251.7621928 -11004251.7621928 1721349.887938464 0 0 0 0 0 66901609.61907084 -11659336.69764388 -11659336.69764388 1374659.324953258 0 0 0 0 0 68110617.90453739 -12235598.27962285 -12235598.27962285 1031612.314144225 0 0 0 0 0 69407110.95875978 -12710429.83310909 -12710429.83310909 660501.7666006959 0 0 0 0 0 70183054.77542341 -12480881.37169318 -12480881.37169318 721798.8759932381 0 0 0 0 0 71309767.68475829 -12938861.80104402 -12938861.80104402 346892.2231975443 0 0 0 0 0 73189869.77525806 -12990020.5168688 -12990020.5168688 2627.556539769344 0 0 0 0 0 74242973.05157115 -13323796.94946416 -13323796.94946416 -366636.3530277971 0 0 0 0 0 75990872.22531097 -13318440.5148273 -13318440.5148273 -672611.8252005825 0 0 0 0 0 75036443.85477403 -13070327.97520457 -13070327.97520457 -248722.2900661578 0 0 0 0 0 77023936.03292347 -13573662.03656309 -13573662.03656309 -1042609.911297813 0 0 0 0 0 78054119.9900967 -13787672.86459064 -13787672.86459064 -1408134.112121977 0 0 0 0 0 79077642.28482105 -13962052.55136641 -13962052.55136641 -1767348.698785619 0 0 0 0 0 80092951.03970608 -14098059.12507019 -14098059.12507019 -2118259.603598362 0 0 0 0 0 81543703.84321269 -13865712.17299322 -13865712.17299322 -2352198.924250544 0 0 0 0 0 80932156.02949615 -13809052.64520404 -13809052.64520404 -1908366.086948737 0 0 0 0 0 82496121.45939925 -13928689.99345843 -13928689.99345843 -2673925.472998317 0 0 0 0 0 83432504.98627914 -13960838.63691698 -13960838.63691698 -2985148.202403383 0 0 0 0 0 84351483.03873935 -13963744.34615834 -13963744.34615834 -3284995.590811372 0 0 0 0 0 85251243.44284965 -13939180.9164246 -13939180.9164246 -3572698.458556759 0 0 0 0 0 86129876.23919846 -13888784.24882391 -13888784.24882391 -3847641.15284944 0 0 0 0 0 86943265.4145098 -13587555.34325331 -13587555.34325331 -3563408.819481088 0 0 0 0 0 88032967.33453144 -13409810.83901432 -13409810.83901432 -4201618.598923001 0 0 0 0 0 87793527.94801076 -13512698.65342216 -13512698.65342216 -3816117.462729714 0 0 0 0 0 88818415.8970869 -13298148.70346683 -13298148.70346683 -4431598.558460829 0 0 0 0 0 89582525.67694218 -13169023.17365723 -13169023.17365723 -4648642.189224099 0 0 0 0 0 90322790.8798255 -13024253.19485252 -13024253.19485252 -4852392.678120316 0 0 0 0 0 91035230.45467266 -12863475.56342902 -12863475.56342902 -5042868.998865272 0 0 0 0 0 91811401.99392448 -12425146.26349715 -12425146.26349715 -5049139.965462678 0 0 0 0 0 91758114.76912233 -12582276.92142346 -12582276.92142346 -4735257.625820244 0 0 0 0 0 92466820.70018695 -12250466.62226778 -12250466.62226778 -5209783.329671836 0 0 0 0 0 93083749.7082326 -12062364.95965187 -12062364.95965187 -5358142.939151881 0 0 0 0 0 93676963.68578662 -11862033.31616039 -11862033.31616039 -5493706.735641707 0 0 0 0 0 94265041.03574459 -11651615.35503722 -11651615.35503722 -5622854.061121527 0 0 0 0 0 94816733.26905145 -11439688.66221766 -11439688.66221766 -5738385.0389013 0 0 0 0 0 95968077.52086239 -10952458.1686084 -10952458.1686084 -5539376.074590678 0 0 0 0 0 95346290.76583903 -11204857.52564736 -11204857.52564736 -5836353.609074418 0 0 0 0 0 96354261.29042679 -10732414.33995265 -10732414.33995265 -5714760.323762436 0 0 0 0 0 96843223.01554206 -10366432.92486491 -10366432.92486491 -5901288.478491727 0 0 0 0 0 96389819.36354399 -10572956.51454814 -10572956.51454814 -5785393.553877637 0 0 0 0 0 97200258.35077867 -10108031.69097005 -10108031.69097005 -5919573.599630057 0 0 0 0 0 97807665.09649497 -9876582.554850247 -9876582.554850247 -6035401.559532659 0 0 0 0 0 98199075.45252018 -9646219.627505425 -9646219.627505425 -6108584.359836739 0 0 0 0 0 98618266.38122824 -9439883.013903107 -9439883.013903107 -5909515.079244527 0 0 0 0 0 98727206.982169 -9267121.656955723 -9267121.656955723 -6067217.109952048 0 0 0 0 0 72429464.95551586 -13297508.59173375 -13297508.59173375 -65185.50459501947 0 0 0 0 0 54286300.24597522 -553467.7004229575 -553467.7004229575 3923787.581891339 0 0 0 0 0 55352405.96613733 -1727834.628285733 -1727834.628285733 4125336.152653503 0 0 0 0 0 54687807.41438659 -2056476.415481655 -2056476.415481655 3609214.228910305 0 0 0 0 0 56895846.74738694 -3537989.344208774 -3537989.344208774 3918417.294758968 0 0 0 0 0 57683208.84120687 -4644076.800731913 -4644076.800731913 3858949.179848176 0 0 0 0 0 58377823.16086841 -5732086.327524837 -5732086.327524837 3665720.755517537 0 0 0 0 0 59156856.42200802 -6800040.257217993 -6800040.257217993 3423196.670776527 0 0 0 0 0 60018177.86870993 -7815392.726997175 -7815392.726997175 3150985.840092388 0 0 0 0 0 60950058.42823131 -8774462.530197248 -8774462.530197248 2848901.813690463 0 0 0 0 0 61274849.51864196 -8734215.627271472 -8734215.627271472 2653169.794309289 0 0 0 0 0 63090696.34828074 -9585558.83023393 -9585558.83023393 2523322.884121357 0 0 0 0 0 64109830.59315868 -10389094.2240516 -10389094.2240516 2173812.921894833 0 0 0 0 0 65174615.86958693 -11134901.94462569 -11134901.94462569 1804568.523524936 0 0 0 0 0 66275081.23180394 -11821130.76215711 -11821130.76215711 1418056.734530229 0 0 0 0 0 67396780.0683323 -12444388.86708714 -12444388.86708714 1021123.170310598 0 0 0 0 0 68502158.12011749 -12991126.34051187 -12991126.34051187 616374.7696627062 0 0 0 0 0 69297528.79560846 -12751218.28717776 -12751218.28717776 667689.2434298694 0 0 0 0 0 70538638.09303851 -13176605.51597909 -13176605.51597909 283789.6643421082 0 0 0 0 0 71691395.99207774 -13605314.315777 -13605314.315777 -114404.0079679365 0 0 0 0 0 73267173.30077016 -13039670.34012315 -13039670.34012315 58438.68056920169 0 0 0 0 0 74385861.040613 -13371725.40991477 -13371725.40991477 -298372.5799052633 0 0 0 0 0 76128927.48085445 -13367446.86853116 -13367446.86853116 -606265.4296956534 0 0 0 0 0 75329367.26430556 -13624440.59847412 -13624440.59847412 -734864.3348029978 0 0 0 0 0 77225815.12355702 -13620836.44608465 -13620836.44608465 -962275.5614676009 0 0 0 0 0 78316717.90941451 -13832582.35883474 -13832582.35883474 -1314839.484251132 0 0 0 0 0 79397778.3143913 -14003966.1978788 -14003966.1978788 -1662340.409787245 0 0 0 0 0 80463448.52451849 -14136733.31334057 -14136733.31334057 -2003398.957365555 0 0 0 0 0 81943768.57638717 -13901682.10689062 -13901682.10689062 -2232168.803534135 0 0 0 0 0 81095788.64299485 -14197921.444018 -14197921.444018 -2460591.273598244 0 0 0 0 0 82935522.79442413 -13960972.81701866 -13960972.81701866 -2546997.712823135 0 0 0 0 0 83908673.55422653 -13988953.98099097 -13988953.98099097 -2852274.561109298 0 0 0 0 0 84860965.76770212 -13987374.03788474 -13987374.03788474 -3147209.520348729 0 0 0 0 0 85790478.05124642 -13958131.1117631 -13958131.1117631 -3430931.54559656 0 0 0 0 0 86696197.52661605 -13902985.98213549 -13902985.98213549 -3702671.074144435 0 0 0 0 0 86986860.64445768 -13814189.930003 -13814189.930003 -4109394.827984812 0 0 0 0 0 88619731.56095593 -13416163.24107291 -13416163.24107291 -4057119.431210847 0 0 0 0 0 87821776.05273862 -13717159.47763987 -13717159.47763987 -4357824.702713133 0 0 0 0 0 89421739.39944036 -13299905.03227659 -13299905.03227659 -4286256.254878394 0 0 0 0 0 90198410.89595686 -13166109.1221279 -13166109.1221279 -4503465.734834734 0 0 0 0 0 90948732.7802154 -13016472.46428914 -13016472.46428914 -4707994.507284702 0 0 0 0 0 91673043.602916 -12851235.61622422 -12851235.61622422 -4898960.967152849 0 0 0 0 0 92434946.73849596 -12410349.32234308 -12410349.32234308 -4910307.420119088 0 0 0 0 0 91724198.9145309 -12688673.37907505 -12688673.37907505 -5219653.38342502 0 0 0 0 0 93085090.2661593 -12230632.55634001 -12230632.55634001 -5075546.460049436 0 0 0 0 0 93709297.00004594 -12039480.30233141 -12039480.30233141 -5224572.38645679 0 0 0 0 0 94313021.83825842 -11832954.99725486 -11832954.99725486 -5361531.197249542 0 0 0 0 0 94889632.11943133 -11625074.74285487 -11625074.74285487 -5491635.091031759 0 0 0 0 0 95442765.89052151 -11405562.2315422 -11405562.2315422 -5611929.193586553 0 0 0 0 0 95955029.80709921 -11000695.39841118 -11000695.39841118 -5907442.185696757 0 0 0 0 0 95986971.98215237 -11171751.37450377 -11171751.37450377 -5715091.209133391 0 0 0 0 0 96400069.47138201 -10745616.06930188 -10745616.06930188 -5708440.8932305 0 0 0 0 0 97351388.69083336 -10321833.75278034 -10321833.75278034 -5808571.184562929 0 0 0 0 0 96936952.30736017 -10592407.02234509 -10592407.02234509 -5793483.930009051 0 0 0 0 0 97791195.33392398 -10070703.39398148 -10070703.39398148 -5876138.907403078 0 0 0 0 0 98185888.70326047 -9831490.813668322 -9831490.813668322 -5926110.993231495 0 0 0 0 0 98630566.77654839 -9613422.008155813 -9613422.008155813 -5994799.365695614 0 0 0 0 0 98621622.54898986 -9425498.631343978 -9425498.631343978 -6181714.833750225 0 0 0 0 0 99051960.66998768 -9045384.500773894 -9045384.500773894 -5891401.98721581 0 0 0 0 0 98953197.00593451 -9238660.526638558 -9238660.526638558 -5997439.126007424 0 0 0 0 0 99495934.39808603 -8825036.005226631 -8825036.005226631 -5950552.921645194 0 0 0 0 0 72522377.62014496 -13345228.60122338 -13345228.60122338 -7393.582084619631 0 0 0 0 0 53652049.15576003 -481473.0553029366 -481473.0553029366 3873298.530332705 0 0 0 0 0 53724385.65730412 -1628858.24379558 -1628858.24379558 3656251.887409479 0 0 0 0 0 55954789.10726884 -2713561.974964021 -2713561.974964021 4118954.263677964 0 0 0 0 0 56057971.905846 -3560531.660845224 -3560531.660845224 3789711.224151709 0 0 0 0 0 56427716.54544913 -4658491.692109654 -4658491.692109654 3548085.273993553 0 0 0 0 0 57106325.93774323 -5717831.436602215 -5717831.436602215 3350253.091237845 0 0 0 0 0 58008069.6800617 -6785074.319236769 -6785074.319236769 3138155.510161984 0 0 0 0 0 58994088.14540521 -7808342.20669289 -7808342.20669289 2901576.899765604 0 0 0 0 0 60048844.36027222 -8776668.240849871 -8776668.240849871 2635158.481730457 0 0 0 0 0 61944716.82606563 -9675895.680313142 -9675895.680313142 2518847.217041649 0 0 0 0 0 62357194.93035734 -9601765.639382806 -9601765.639382806 2359133.4287238 0 0 0 0 0 63489550.13230857 -10411855.67008954 -10411855.67008954 2041118.34551946 0 0 0 0 0 64664183.19584106 -11163726.86733126 -11163726.86733126 1701872.544548799 0 0 0 0 0 65874289.97196815 -11856198.88889921 -11856198.88889921 1346115.021858986 0 0 0 0 0 67107397.50962546 -12481130.86163959 -12481130.86163959 977352.9605787519 0 0 0 0 0 68379574.79711479 -13030063.46795705 -13030063.46795705 620739.5436290685 0 0 0 0 0 69671349.75712152 -13471580.08146976 -13471580.08146976 222446.9778116801 0 0 0 0 0 70487557.62899958 -13218344.34751073 -13218344.34751073 302726.6981909671 0 0 0 0 0 71698280.35535897 -13650043.94951657 -13650043.94951657 -82883.90865427622 0 0 0 0 0 73535129.66636795 -13643851.69236849 -13643851.69236849 -440337.8729169769 0 0 0 0 0 74629271.43621062 -13948496.29771984 -13948496.29771984 -817637.2466079107 0 0 0 0 0 76402330.0150068 -13890615.72550623 -13890615.72550623 -1114294.458533115 0 0 0 0 0 75483255.0798336 -13671770.29619907 -13671770.29619907 -666147.8748327025 0 0 0 0 0 77472333.65633786 -14113858.01111883 -14113858.01111883 -1490953.162976017 0 0 0 0 0 78536135.10369928 -14295877.94271943 -14295877.94271943 -1861579.865387139 0 0 0 0 0 79589483.99804355 -14437561.00377505 -14437561.00377505 -2223524.805249281 0 0 0 0 0 80630771.31901468 -14541048.47077817 -14541048.47077817 -2575727.491540739 0 0 0 0 0 82083338.61345363 -14262772.97625938 -14262772.97625938 -2791638.070151714 0 0 0 0 0 81513558.5280914 -14233145.92508002 -14233145.92508002 -2336712.771227562 0 0 0 0 0 83054908.79245482 -14295063.65113388 -14295063.65113388 -3111863.600279689 0 0 0 0 0 84008444.58039723 -14296555.57599564 -14296555.57599564 -3419941.057670926 0 0 0 0 0 84941608.59969333 -14269390.34485654 -14269390.34485654 -3715469.604257779 0 0 0 0 0 85852833.5105709 -14215362.92980192 -14215362.92980192 -3997905.220837028 0 0 0 0 0 86741240.662075 -14136154.84890635 -14136154.84890635 -4266583.477898224 0 0 0 0 0 87577153.03734541 -13823667.38836538 -13823667.38836538 -3962146.121938479 0 0 0 0 0 88634248.78774306 -13599715.3908015 -13599715.3908015 -4593044.269435251 0 0 0 0 0 88432246.54465356 -13721698.31461664 -13721698.31461664 -4208978.238480709 0 0 0 0 0 89423438.85584804 -13463586.20665175 -13463586.20665175 -4814678.597381941 0 0 0 0 0 90188155.1176279 -13310792.78409212 -13310792.78409212 -5022530.646410555 0 0 0 0 0 90926528.88169511 -13142198.57136505 -13142198.57136505 -5216619.334130727 0 0 0 0 0 91639761.6566349 -12959177.90078874 -12959177.90078874 -5396846.070021054 0 0 0 0 0 92394368.50707655 -12503350.20934559 -12503350.20934559 -5383587.371781885 0 0 0 0 0 92371892.95661677 -12671617.4494697 -12671617.4494697 -5076759.056202148 0 0 0 0 0 93037260.29885077 -12307527.01708528 -12307527.01708528 -5533764.178733836 0 0 0 0 0 93651120.71604502 -12098534.90555177 -12098534.90555177 -5671580.73513927 0 0 0 0 0 94251221.92791474 -11883268.99591063 -11883268.99591063 -5798515.022083025 0 0 0 0 0 94818652.47191697 -11658579.45310528 -11658579.45310528 -5913963.91495611 0 0 0 0 0 95364624.04336061 -11425092.76363064 -11425092.76363064 -6019729.545537753 0 0 0 0 0 96485214.75540258 -10952437.71827548 -10952437.71827548 -5805048.688419995 0 0 0 0 0 95926431.34639676 -11199693.58807277 -11199693.58807277 -6104650.457871811 0 0 0 0 0 96434593.38412766 -10778938.33818122 -10778938.33818122 -6054017.67160828 0 0 0 0 0 97253681.2660477 -10293190.22096941 -10293190.22096941 -6149350.072617427 0 0 0 0 0 96827235.02443168 -10520745.43940176 -10520745.43940176 -6067317.707733501 0 0 0 0 0 97716170.07891805 -10061565.53274491 -10061565.53274491 -6173014.821483118 0 0 0 0 0 98140737.63376099 -9832364.766844846 -9832364.766844846 -6252130.344731015 0 0 0 0 0 98575614.04683635 -9587066.888226861 -9587066.888226861 -6281280.433822724 0 0 0 0 0 99042460.1238271 -9399582.452315671 -9399582.452315671 -6067198.161403364 0 0 0 0 0 99130183.30643529 -9048790.570817443 -9048790.570817443 -6151684.623823473 0 0 0 0 0 99157752.63225181 -9276588.937875411 -9276588.937875411 -6182870.57354856 0 0 0 0 0 99467276.91294627 -8801485.020432323 -8801485.020432323 -6237379.880904803 0 0 0 0 0 99851488.05648954 -8608374.786461584 -8608374.786461584 -6021498.500608844 0 0 0 0 0 72798404.26432329 -13981382.79678582 -13981382.79678582 -517782.127355902 0 0 0 0 0 52880794.4644872 -589666.322207108 -589666.322207108 3785290.605035867 0 0 0 0 0 53620285.91221359 -1614367.808215192 -1614367.808215192 3783369.040764774 0 0 0 0 0 54500471.53804132 -2394955.643087311 -2394955.643087311 4060607.927242007 0 0 0 0 0 54879391.60068252 -3661378.162556798 -3661378.162556798 3554476.882067955 0 0 0 0 0 53826645.19604795 -2805481.177100382 -2805481.177100382 3481207.955203811 0 0 0 0 0 56402574.29619267 -4591305.940716491 -4591305.940716491 3849414.44851458 0 0 0 0 0 57106452.68794897 -5648410.909424783 -5648410.909424783 3628891.192594556 0 0 0 0 0 57889004.95651049 -6752244.828570207 -6752244.828570207 3397085.899449635 0 0 0 0 0 58769679.19479185 -7810730.777985168 -7810730.777985168 3135241.703925072 0 0 0 0 0 59727291.98860441 -8814737.092430873 -8814737.092430873 2835768.012405342 0 0 0 0 0 60750650.26727515 -9760190.001404716 -9760190.001404716 2504474.777370628 0 0 0 0 0 61165014.33396565 -9686782.041634932 -9686782.041634932 2340013.597750675 0 0 0 0 0 62995106.88470151 -10518417.30771864 -10518417.30771864 2164138.210852757 0 0 0 0 0 64094117.40035672 -11300957.80204742 -11300957.80204742 1788336.078364995 0 0 0 0 0 65234341.50032939 -12022562.28069297 -12022562.28069297 1395548.092283499 0 0 0 0 0 66410177.46040647 -12680935.68353463 -12680935.68353463 990585.7647394794 0 0 0 0 0 67580474.21301118 -13270248.98504144 -13270248.98504144 571083.0934373395 0 0 0 0 0 68761202.43581137 -13782598.14848196 -13782598.14848196 153985.2205068751 0 0 0 0 0 69635680.72448044 -13512098.99819467 -13512098.99819467 246795.7937273126 0 0 0 0 0 70857889.99389233 -13909204.14320846 -13909204.14320846 -179146.2485374831 0 0 0 0 0 72062877.50055493 -14308548.52343033 -14308548.52343033 -587767.3149310873 0 0 0 0 0 73675221.76669632 -13690474.04336012 -13690474.04336012 -373603.276806063 0 0 0 0 0 74844008.66552182 -13994742.8334389 -13994742.8334389 -734472.1703218862 0 0 0 0 0 76614204.93279602 -13937201.60336069 -13937201.60336069 -1031975.579846005 0 0 0 0 0 75754548.49904591 -14218138.02944032 -14218138.02944032 -1195090.247820225 0 0 0 0 0 77745586.4401412 -14158157.56213528 -14158157.56213528 -1395522.679084509 0 0 0 0 0 78868737.72824924 -14337343.90661682 -14337343.90661682 -1753846.607480012 0 0 0 0 0 79976267.8760339 -14475579.4579707 -14475579.4579707 -2105212.277167598 0 0 0 0 0 81065935.93171825 -14575090.16641878 -14575090.16641878 -2448426.811837995 0 0 0 0 0 82543025.87980528 -14294022.44743476 -14294022.44743476 -2660635.677232306 0 0 0 0 0 81656625.22111639 -14608077.68922234 -14608077.68922234 -2916949.083461984 0 0 0 0 0 83552578.72947033 -14321927.13981458 -14321927.13981458 -2974792.753682414 0 0 0 0 0 84539657.0007391 -14318894.52168917 -14318894.52168917 -3277836.223911747 0 0 0 0 0 85503442.96956159 -14286935.73516929 -14286935.73516929 -3569308.937782258 0 0 0 0 0 86442469.21792252 -14227906.74418106 -14227906.74418106 -3848496.75118173 0 0 0 0 0 87355224.20787711 -14143741.70450458 -14143741.70450458 -4114790.443917759 0 0 0 0 0 87605898.72488832 -14033666.62966534 -14033666.62966534 -4521027.472029898 0 0 0 0 0 89261639.41860738 -13599384.678427 -13599384.678427 -4443408.793860854 0 0 0 0 0 88446608.05200905 -13909856.89082798 -13909856.89082798 -4761574.329515811 0 0 0 0 0 90064326.09673505 -13458440.70201299 -13458440.70201299 -4665039.252677883 0 0 0 0 0 90839975.64883371 -13300719.07207538 -13300719.07207538 -4873603.134039395 0 0 0 0 0 91588006.92301039 -13127263.33336609 -13127263.33336609 -5068659.952831576 0 0 0 0 0 92308883.37424619 -12939588.87660387 -12939588.87660387 -5250281.107467684 0 0 0 0 0 93042777.22645338 -12481552.81563373 -12481552.81563373 -5243969.800168206 0 0 0 0 0 92329000.05249654 -12764108.08384394 -12764108.08384394 -5563376.654190104 0 0 0 0 0 93686861.88980915 -12280998.71995157 -12280998.71995157 -5396859.119230106 0 0 0 0 0 94305571.37268008 -12068691.51649744 -12068691.51649744 -5535975.930657368 0 0 0 0 0 94899968.02519283 -11849404.8482575 -11849404.8482575 -5666494.357386714 0 0 0 0 0 95469758.57862875 -11621646.42855326 -11621646.42855326 -5783382.619806592 0 0 0 0 0 96020493.4616296 -11384681.91827067 -11384681.91827067 -5890439.756033081 0 0 0 0 0 96401604.31693636 -10958433.05017329 -10958433.05017329 -6192213.65715814 0 0 0 0 0 96537135.24509762 -11155242.76248848 -11155242.76248848 -5989335.177273052 0 0 0 0 0 96956138.30910909 -10737576.2340537 -10737576.2340537 -5938781.401056494 0 0 0 0 0 97872069.62925248 -10248544.05175517 -10248544.05175517 -6031899.548989968 0 0 0 0 0 97439236.29074988 -10491868.48094346 -10491868.48094346 -5963743.179922098 0 0 0 0 0 98296596.55765399 -10001508.35658552 -10001508.35658552 -6075124.044525073 0 0 0 0 0 98698855.85470167 -9762090.648107843 -9762090.648107843 -6141504.882185432 0 0 0 0 0 99085405.65160051 -9528827.574428301 -9528827.574428301 -6190432.642298504 0 0 0 0 0 98944542.47445878 -9338940.761038059 -9338940.761038059 -6282199.348770283 0 0 0 0 0 99294344.83829294 -9031160.978321481 -9031160.978321481 -6100492.034303082 0 0 0 0 0 99935851.46871468 -8758591.530131482 -8758591.530131482 -6153535.665856332 0 0 0 0 0 99961780.50485708 -8604738.581422303 -8604738.581422303 -6234663.989828786 0 0 0 0 0 100222339.6461783 -8383776.007257566 -8383776.007257566 -6073400.055593791 0 0 0 0 0 72951502.32208043 -14025482.38445152 -14025482.38445152 -450160.0313003123 0 0 0 0 0 52349918.83500489 -522386.3132364497 -522386.3132364497 3738686.571574626 0 0 0 0 0 53239180.2546797 -1607336.691880884 -1607336.691880884 3833729.645941976 0 0 0 0 0 52598514.65442539 -2445198.050424346 -2445198.050424346 3487595.761680623 0 0 0 0 0 55718408.89974076 -4006120.283136359 -4006120.283136359 3974556.699963129 0 0 0 0 0 54935211.02507628 -3371745.570707032 -3371745.570707032 3979701.472999502 0 0 0 0 0 54891864.69402415 -4577569.694595993 -4577569.694595993 3402291.611136298 0 0 0 0 0 55721099.05454556 -5583169.435464207 -5583169.435464207 3238646.425721854 0 0 0 0 0 56673084.78570517 -6713326.0041711 -6713326.0041711 3080238.151669156 0 0 0 0 0 57686167.40148573 -7791928.110233068 -7791928.110233068 2863706.684080624 0 0 0 0 0 58770698.15175879 -8808653.04724047 -8808653.04724047 2603164.192542234 0 0 0 0 0 59921452.76284497 -9764412.763002623 -9764412.763002623 2309281.377727251 0 0 0 0 0 61833441.14055022 -10644449.73190692 -10644449.73190692 2145882.410457009 0 0 0 0 0 62334832.54294511 -10536947.84368086 -10536947.84368086 2018970.500818773 0 0 0 0 0 63550911.51620059 -11325884.68595842 -11325884.68595842 1675384.976899858 0 0 0 0 0 64806181.82133139 -12051752.8620696 -12051752.8620696 1313175.304061058 0 0 0 0 0 66094429.56738367 -12713044.08368992 -12713044.08368992 936077.4717982706 0 0 0 0 0 67415338.61497585 -13305780.90070129 -13305780.90070129 557783.742398903 0 0 0 0 0 68757030.28938857 -13819729.49402697 -13819729.49402697 183029.2059460716 0 0 0 0 0 69986286.16508538 -14236051.16417768 -14236051.16417768 -269274.9752045578 0 0 0 0 0 70900706.5569309 -13952285.05875872 -13952285.05875872 -138879.776543589 0 0 0 0 0 72154866.66030115 -14353097.67796019 -14353097.67796019 -535824.2012087223 0 0 0 0 0 73936112.95093307 -14294935.29240134 -14294935.29240134 -906554.2656988057 0 0 0 0 0 75075070.32258131 -14564238.70141017 -14564238.70141017 -1294633.274806408 0 0 0 0 0 76866893.06290366 -14450936.87645346 -14450936.87645346 -1580757.321730094 0 0 0 0 0 75988847.9411869 -14262844.42017885 -14262844.42017885 -1108727.749638355 0 0 0 0 0 77973001.16209133 -14640526.78958141 -14640526.78958141 -1961769.952178014 0 0 0 0 0 79068861.83447075 -14788075.79576942 -14788075.79576942 -2334537.945099915 0 0 0 0 0 80150709.7027979 -14894824.97712305 -14894824.97712305 -2696729.974909737 0 0 0 0 0 81218005.80481641 -14963650.4650153 -14963650.4650153 -3047995.179986612 0 0 0 0 0 82665088.94585793 -14640262.23127699 -14640262.23127699 -3245959.434632696 0 0 0 0 0 82136686.98104101 -14637724.29192884 -14637724.29192884 -2782231.118909338 0 0 0 0 0 83653948.70629996 -14640273.69886851 -14640273.69886851 -3562318.828880581 0 0 0 0 0 84622192.04135235 -14610274.7500789 -14610274.7500789 -3865683.995752268 0 0 0 0 0 85567599.87340052 -14552222.40238205 -14552222.40238205 -4155419.079201814 0 0 0 0 0 86488694.68124397 -14468068.41845707 -14468068.41845707 -4430950.819853646 0 0 0 0 0 87384706.29944994 -14359712.22352266 -14359712.22352266 -4691766.436619072 0 0 0 0 0 88241000.96566132 -14036191.59493846 -14036191.59493846 -4367691.780227884 0 0 0 0 0 89262244.84259689 -13766575.7964031 -13766575.7964031 -4987963.494050627 0 0 0 0 0 89099087.3168553 -13907308.8905999 -13907308.8905999 -4607426.973054628 0 0 0 0 0 90052422.90414053 -13605626.946138 -13605626.946138 -5200043.195823307 0 0 0 0 0 90816038.01833084 -13428573.34105066 -13428573.34105066 -5397681.667875869 0 0 0 0 0 91553108.9616207 -13236734.38301419 -13236734.38301419 -5580951.745167881 0 0 0 0 0 92264238.00480731 -13032198.90682803 -13032198.90682803 -5750033.329681704 0 0 0 0 0 92991315.62974462 -12557952.59512517 -12557952.59512517 -5715735.020813528 0 0 0 0 0 93001247.11969393 -12739967.75925116 -12739967.75925116 -5419385.951348071 0 0 0 0 0 93626792.43060319 -12341343.80185957 -12341343.80185957 -5855072.361499192 0 0 0 0 0 94239298.85462032 -12116209.50506427 -12116209.50506427 -5982664.983387185 0 0 0 0 0 94827011.01042314 -11883042.3113641 -11883042.3113641 -6097916.911444384 0 0 0 0 0 95389856.07982716 -11642088.31216803 -11642088.31216803 -6202129.616616873 0 0 0 0 0 95940938.39093865 -11401007.54873163 -11401007.54873163 -6293672.574814907 0 0 0 0 0 97027575.71961243 -10913648.63715919 -10913648.63715919 -6073207.332623262 0 0 0 0 0 96448409.52105923 -11153423.72794458 -11153423.72794458 -6373155.444049763 0 0 0 0 0 96870732.58594164 -10719970.31925734 -10719970.31925734 -6267676.848173934 0 0 0 0 0 97343136.48145731 -10469748.9063982 -10469748.9063982 -6314353.811879222 0 0 0 0 0 97776753.31345539 -10221962.08814237 -10221962.08814237 -6364438.059802245 0 0 0 0 0 98198468.00576136 -9970976.864539877 -9970976.864539877 -6407095.413004896 0 0 0 0 0 98603123.21492022 -9724632.719374578 -9724632.719374578 -6449936.965763155 0 0 0 0 0 98977708.29638863 -9471914.867574301 -9471914.867574301 -6480287.691645806 0 0 0 0 0 99441064.09457897 -9286980.538667399 -9286980.538667399 -6238826.647373051 0 0 0 0 0 99589990.26085202 -9049082.932183743 -9049082.932183743 -6318369.415362119 0 0 0 0 0 99639644.24297966 -8853543.338763567 -8853543.338763567 -6297763.056188717 0 0 0 0 0 99866666.04596382 -8636155.036823463 -8636155.036823463 -6282103.803525465 0 0 0 0 0 100249288.0938904 -8374080.672667074 -8374080.672667074 -6356218.30977588 0 0 0 0 0 100620247.4827738 -8143595.709175676 -8143595.709175676 -6103038.77387746 0 0 0 0 0 73207070.18267818 -14647748.92959637 -14647748.92959637 -1007549.652525802 0 0 0 0 0 51456060.40795972 -652068.54321304 -652068.54321304 3572068.681442983 0 0 0 0 0 52060343.17373858 -1749631.510815193 -1749631.510815193 3652453.499471586 0 0 0 0 0 53419519.09222001 -2939491.274158327 -2939491.274158327 3881241.517259882 0 0 0 0 0 54013922.0018279 -4163109.360161785 -4163109.360161785 3480257.796293515 0 0 0 0 0 52745531.38984714 -3400168.990065395 -3400168.990065395 3323824.246713443 0 0 0 0 0 55897902.71600582 -5437673.232670533 -5437673.232670533 3660892.200405845 0 0 0 0 0 56559210.0686241 -6669350.708348718 -6669350.708348718 3373313.493419529 0 0 0 0 0 57477806.51125432 -7786269.386541331 -7786269.386541331 3110896.365864543 0 0 0 0 0 58455682.8621171 -8842752.749377437 -8842752.749377437 2812126.562814567 0 0 0 0 0 59506750.75109019 -9836370.436892563 -9836370.436892563 2479649.113125748 0 0 0 0 0 60622503.61651207 -10765497.33944458 -10765497.33944458 2117711.268021684 0 0 0 0 0 61130393.57361638 -10657288.28173154 -10657288.28173154 1986674.922506633 0 0 0 0 0 62968933.21518353 -11465865.08077346 -11465865.08077346 1764057.247004346 0 0 0 0 0 64149786.42127766 -12223169.19022196 -12223169.19022196 1362524.461412817 0 0 0 0 0 65366629.23355896 -12915176.14240012 -12915176.14240012 944351.1071275492 0 0 0 0 0 66598757.08692745 -13542266.7496465 -13542266.7496465 512954.5953515834 0 0 0 0 0 67837249.88430293 -14100171.98055026 -14100171.98055026 70038.49852737371 0 0 0 0 0 69093465.12955882 -14588728.28507292 -14588728.28507292 -362189.0215236493 0 0 0 0 0 70100922.50809033 -14281267.81022247 -14281267.81022247 -209368.2516635364 0 0 0 0 0 71237813.39433071 -14639308.0125748 -14639308.0125748 -671259.7486343773 0 0 0 0 0 72496402.8622576 -15005064.13433329 -15005064.13433329 -1093737.107284046 0 0 0 0 0 74163138.34211732 -14341171.74779119 -14341171.74779119 -820502.2101064711 0 0 0 0 0 75366910.5013376 -14607738.0330709 -14607738.0330709 -1196002.111764685 0 0 0 0 0 77154952.7730163 -14493831.84785574 -14493831.84785574 -1482712.723482937 0 0 0 0 0 76240702.06999542 -14799180.68648817 -14799180.68648817 -1678841.868858744 0 0 0 0 0 78319350.41480872 -14680806.41118821 -14680806.41118821 -1851540.305052266 0 0 0 0 0 79470443.47818089 -14824682.78287178 -14824682.78287178 -2213629.846046188 0 0 0 0 0 80602651.39278319 -14927398.89278204 -14927398.89278204 -2566523.050260862 0 0 0 0 0 81714524.00887246 -14991934.15396037 -14991934.15396037 -2910117.106444306 0 0 0 0 0 83184619.5458025 -14665504.17278997 -14665504.17278997 -3104740.413604387 0 0 0 0 0 82263821.72454073 -14996045.80597702 -14996045.80597702 -3386591.317188858 0 0 0 0 0 84209254.93320249 -14660898.28754875 -14660898.28754875 -3415804.972957138 0 0 0 0 0 85208582.67911616 -14625964.69654047 -14625964.69654047 -3715004.437380116 0 0 0 0 0 86181965.13713434 -14562865.37954921 -14562865.37954921 -4001405.290157294 0 0 0 0 0 87128116.73347847 -14473522.21600303 -14473522.21600303 -4274493.527640901 0 0 0 0 0 88045663.74502365 -14359948.77798769 -14359948.77798769 -4533755.52383077 0 0 0 0 0 88254794.13874923 -14229098.67936906 -14229098.67936906 -4937766.116927007 0 0 0 0 0 89929269.65933481 -13758978.7567101 -13758978.7567101 -4833752.487095932 0 0 0 0 0 89098678.36040923 -14078240.76157524 -14078240.76157524 -5168962.551895055 0 0 0 0 0 90730868.00235285 -13593003.0214033 -13593003.0214033 -5046450.345432429 0 0 0 0 0 91503805.68011034 -13410896.42899924 -13410896.42899924 -5245274.444697825 0 0 0 0 0 92247596.32459459 -13214225.27161323 -13214225.27161323 -5430265.101665401 0 0 0 0 0 92962116.85306451 -13004963.42839468 -13004963.42839468 -5601794.919027409 0 0 0 0 0 93665109.81178015 -12529412.50327476 -12529412.50327476 -5574815.737453016 0 0 0 0 0 92947025.89431436 -12815933.06994841 -12815933.06994841 -5904465.742366376 0 0 0 0 0 94301959.06240676 -12308408.75119194 -12308408.75119194 -5716778.792134902 0 0 0 0 0 94913738.09596582 -12079206.13536532 -12079206.13536532 -5846722.83631662 0 0 0 0 0 95499603.77247712 -11842028.2667587 -11842028.2667587 -5965017.05565457 0 0 0 0 0 96061287.2876472 -11597879.03038567 -11597879.03038567 -6071575.971564243 0 0 0 0 0 96594695.41036446 -11352765.43509361 -11352765.43509361 -6170424.765497782 0 0 0 0 0 96931579.84394252 -10897754.50235309 -10897754.50235309 -6443515.08202232 0 0 0 0 0 97101143.6542262 -11102366.52761552 -11102366.52761552 -6252186.391514375 0 0 0 0 0 97503829.31122623 -10662904.113414 -10662904.113414 -6155156.672193147 0 0 0 0 0 97959448.92497002 -10415749.07105029 -10415749.07105029 -6203747.545968764 0 0 0 0 0 98391024.30676273 -10163815.0794058 -10163815.0794058 -6257138.198553713 0 0 0 0 0 98800167.63978836 -9912695.833181594 -9912695.833181594 -6302942.8784185 0 0 0 0 0 99184207.47999628 -9664949.208280534 -9664949.208280534 -6351605.655525786 0 0 0 0 0 99547559.24704371 -9416878.542786408 -9416878.542786408 -6381461.763995245 0 0 0 0 0 99341480.46333152 -9228912.714992763 -9228912.714992763 -6482072.654797221 0 0 0 0 0 99788627.29997958 -9025485.301579805 -9025485.301579805 -6258301.147706999 0 0 0 0 0 100133439.7060986 -8821995.921541611 -8821995.921541611 -6283906.983188194 0 0 0 0 0 100378450.8755253 -8596035.552971235 -8596035.552971235 -6298650.493018785 0 0 0 0 0 100672989.1887771 -8309307.51309822 -8309307.51309822 -6241715.491595149 0 0 0 0 0 100594921.372854 -8122485.814117933 -8122485.814117933 -6380549.150866853 0 0 0 0 0 100961924.0458763 -7912317.369439415 -7912317.369439415 -6135737.853764791 0 0 0 0 0 73451650.5821951 -14691954.80486323 -14691954.80486323 -919189.350746831 0 0 0 0 0 50693041.46307398 -613019.7521323344 -613019.7521323344 3555167.752740034 0 0 0 0 0 51360571.94984461 -1671760.070390765 -1671760.070390765 3607363.648428449 0 0 0 0 0 51503384.33756556 -2947154.357569993 -2947154.357569993 3311659.650492906 0 0 0 0 0 53882477.02423437 -4186560.794899977 -4186560.794899977 3544861.59696868 0 0 0 0 0 53767919.28064071 -4185551.224287848 -4185551.224287848 3757431.865186369 0 0 0 0 0 54353091.35277373 -5450971.550890768 -5450971.550890768 3231191.853964331 0 0 0 0 0 55285477.48397999 -6635090.652424776 -6635090.652424776 3045745.277477764 0 0 0 0 0 56321969.78734279 -7759593.387254192 -7759593.387254192 2816654.362630105 0 0 0 0 0 57437512.93185448 -8828977.682486633 -8828977.682486633 2559541.295624928 0 0 0 0 0 58623621.34635826 -9833458.894249866 -9833458.894249866 2266744.108524917 0 0 0 0 0 59872845.84077713 -10771890.36216711 -10771890.36216711 1943004.584567379 0 0 0 0 0 61794947.80747229 -11628600.63137337 -11628600.63137337 1730523.137719395 0 0 0 0 0 62389426.24316108 -11485963.31221277 -11485963.31221277 1639268.910302873 0 0 0 0 0 63690861.59671003 -12249382.02971022 -12249382.02971022 1270704.901073094 0 0 0 0 0 65026725.22482672 -12947207.73747147 -12947207.73747147 885009.1337761781 0 0 0 0 0 66389842.30175734 -13579203.4787285 -13579203.4787285 487663.6304592089 0 0 0 0 0 67787514.22746018 -14141194.15310816 -14141194.15310816 87957.94387251952 0 0 0 0 0 69148791.13669485 -14634107.09771719 -14634107.09771719 -317173.4429768754 0 0 0 0 0 70357661.60326792 -15006150.32220126 -15006150.32220126 -789511.1523351778 0 0 0 0 0 71380404.98549259 -14687325.99699865 -14687325.99699865 -603745.8068663559 0 0 0 0 0 72669742.63629967 -15046564.50167497 -15046564.50167497 -1024357.82735147 0 0 0 0 0 74402113.33237734 -14927992.46054076 -14927992.46054076 -1402223.225614294 0 0 0 0 0 75585560.64899698 -15164138.9291238 -15164138.9291238 -1793464.959379767 0 0 0 0 0 77388567.19325992 -14996135.74306678 -14996135.74306678 -2069043.036525304 0 0 0 0 0 76546161.06342952 -14839007.81265618 -14839007.81265618 -1578569.014261982 0 0 0 0 0 78528729.53455974 -15149315.521235 -15149315.521235 -2452091.255489565 0 0 0 0 0 79653163.01206967 -15259697.7627614 -15259697.7627614 -2824803.55952044 0 0 0 0 0 80761330.98600769 -15330125.81639263 -15330125.81639263 -3185927.328019398 0 0 0 0 0 81848506.88800026 -15362828.46702251 -15362828.46702251 -3534285.463412323 0 0 0 0 0 83289782.38191277 -14994664.16295949 -14994664.16295949 -3711965.747320473 0 0 0 0 0 82803769.58747849 -15019745.67345706 -15019745.67345706 -3241548.396637753 0 0 0 0 0 84293750.1869211 -14961768.85424304 -14961768.85424304 -4023424.823594298 0 0 0 0 0 85274026.72050598 -14899600.4585112 -14899600.4585112 -4320660.098948764 0 0 0 0 0 86229232.32704836 -14810193.8969715 -14810193.8969715 -4603150.247939985 0 0 0 0 0 87157886.62483656 -14695539.18022539 -14695539.18022539 -4870308.420366439 0 0 0 0 0 88059107.91994366 -14557765.99121082 -14557765.99121082 -5121936.934634842 0 0 0 0 0 88934023.20826721 -14224077.76363854 -14224077.76363854 -4778908.248394395 0 0 0 0 0 89915419.45451528 -13908913.91831657 -13908913.91831657 -5385264.950530192 0 0 0 0 0 89792762.35313061 -14067952.35975267 -14067952.35975267 -5010039.74461413 0 0 0 0 0 90704873.5687865 -13722918.85816667 -13722918.85816667 -5586612.034847462 0 0 0 0 0 91466287.73522156 -13521633.88205066 -13521633.88205066 -5772833.429426395 0 0 0 0 0 92200080.08445546 -13307236.75478333 -13307236.75478333 -5944308.97006737 0 0 0 0 0 92904930.80511771 -13080761.4484017 -13080761.4484017 -6101001.915503016 0 0 0 0 0 93603171.96525338 -12589709.95175718 -12589709.95175718 -6045103.634623648 0 0 0 0 0 93647115.87065837 -12784336.44210287 -12784336.44210287 -5759408.57869508 0 0 0 0 0 94232804.56970911 -12354518.50517963 -12354518.50517963 -6173360.906166591 0 0 0 0 0 94837326.09298843 -12111385.98389983 -12111385.98389983 -6289012.826566151 0 0 0 0 0 95417065.97488089 -11861463.85652067 -11861463.85652067 -6392476.385093219 0 0 0 0 0 95974838.90392594 -11607505.25723157 -11607505.25723157 -6483790.936004494 0 0 0 0 0 96503506.56339119 -11349948.9461397 -11349948.9461397 -6562224.596552205 0 0 0 0 0 97586118.22161366 -10844117.39319035 -10844117.39319035 -6323589.37956085 0 0 0 0 0 97003516.10997933 -11086538.49241464 -11086538.49241464 -6629776.704170836 0 0 0 0 0 97412568.34740335 -10645635.24325552 -10645635.24325552 -6500381.823924795 0 0 0 0 0 97860364.87894197 -10387632.7150644 -10387632.7150644 -6547856.936221985 0 0 0 0 0 98290173.29859196 -10129111.65634994 -10129111.65634994 -6587396.386462515 0 0 0 0 0 98696993.57114074 -9870657.291451868 -9870657.291451868 -6619370.000655581 0 0 0 0 0 99081041.90629733 -9614727.394017505 -9614727.394017505 -6641196.907392358 0 0 0 0 0 99442115.02779435 -9358032.663274338 -9358032.663274338 -6652797.111601952 0 0 0 0 0 99901372.35255894 -9159356.631233292 -9159356.631233292 -6382009.323753241 0 0 0 0 0 99712887.65215245 -8985576.463539341 -8985576.463539341 -6520443.268001635 0 0 0 0 0 100026439.325243 -8727656.084200419 -8727656.084200419 -6492716.180614281 0 0 0 0 0 100278399.7154638 -8488608.731176274 -8488608.731176274 -6465190.629286813 0 0 0 0 0 100587304.477019 -8260715.035030633 -8260715.035030633 -6500350.768167826 0 0 0 0 0 100989774.2634291 -8072442.692874421 -8072442.692874421 -6273015.140257169 0 0 0 0 0 100950109.2502488 -7894283.11281398 -7894283.11281398 -6389929.95382704 0 0 0 0 0 73700906.17432459 -15311201.39917495 -15311201.39917495 -1516104.172514148 0 0 0 0 0 49912659.56552387 -653546.783351442 -653546.783351442 3530677.140089883 0 0 0 0 0 50753676.49941712 -1844283.747892138 -1844283.747892138 3486897.43984145 0 0 0 0 0 51972128.62222727 -2662446.144702163 -2662446.144702163 3863012.067862776 0 0 0 0 0 52475750.20832647 -3854459.279606738 -3854459.279606738 3713406.72365208 0 0 0 0 0 54339894.25224359 -5380667.852385118 -5380667.852385118 3543756.339996341 0 0 0 0 0 52040767.90208425 -4105680.093540779 -4105680.093540779 3267643.342601816 0 0 0 0 0 55252063.81443483 -6565412.844798465 -6565412.844798465 3349963.510363751 0 0 0 0 0 56126159.90383201 -7746325.517333796 -7746325.517333796 3079651.121928319 0 0 0 0 0 57128838.16494471 -8858929.675776007 -8858929.675776007 2777552.345688876 0 0 0 0 0 58209408.92111552 -9903641.897543602 -9903641.897543602 2443420.339797118 0 0 0 0 0 59359381.22241516 -10880522.62492445 -10880522.62492445 2078445.28579549 0 0 0 0 0 60570303.1853724 -11788156.20424974 -11788156.20424974 1686496.0056612 0 0 0 0 0 61176458.36514483 -11642886.57489106 -11642886.57489106 1592569.406101089 0 0 0 0 0 63016710.5105369 -12424691.03639146 -12424691.03639146 1322246.921012277 0 0 0 0 0 64278228.01280498 -13153310.00303205 -13153310.00303205 896499.9592831399 0 0 0 0 0 65572916.53597699 -13814279.52823969 -13814279.52823969 457191.292312736 0 0 0 0 0 66886684.02520447 -14407783.41850203 -14407783.41850203 7227.419961674585 0 0 0 0 0 68197159.69359376 -14933640.72282892 -14933640.72282892 -436368.6564117493 0 0 0 0 0 69553353.72754978 -15379095.15543435 -15379095.15543435 -887703.1342156149 0 0 0 0 0 70545852.41169785 -15039940.46140799 -15039940.46140799 -722393.0937979008 0 0 0 0 0 71698191.50861536 -15364972.75304164 -15364972.75304164 -1198731.40499981 0 0 0 0 0 72995385.03081134 -15690097.15987678 -15690097.15987678 -1629592.745390785 0 0 0 0 0 74695589.57073121 -14969342.94463858 -14969342.94463858 -1304884.584368058 0 0 0 0 0 75944454.73314217 -15203166.59193048 -15203166.59193048 -1682502.228025272 0 0 0 0 0 77748397.00104502 -15034206.14141743 -15034206.14141743 -1957070.668496861 0 0 0 0 0 76785842.90269271 -15362249.6040913 -15362249.6040913 -2182832.754961883 0 0 0 0 0 78944795.39604014 -15184067.29401543 -15184067.29401543 -2328994.259783558 0 0 0 0 0 80122541.61918108 -15290416.61875403 -15290416.61875403 -2691780.330019994 0 0 0 0 0 81278033.97423959 -15356580.7815665 -15356580.7815665 -3044490.817261824 0 0 0 0 0 82409415.50910643 -15384561.09933036 -15384561.09933036 -3385483.386377541 0 0 0 0 0 83867623.69193287 -15013549.00107714 -15013549.00107714 -3561289.563169292 0 0 0 0 0 82913834.84065831 -15360067.47684987 -15360067.47684987 -3868869.174298945 0 0 0 0 0 84905034.14718045 -14975515.54810099 -14975515.54810099 -3868225.591237887 0 0 0 0 0 85914737.63411948 -14908048.52030295 -14908048.52030295 -4161907.901350191 0 0 0 0 0 86895634.8998367 -14813291.72494821 -14813291.72494821 -4441832.634947069 0 0 0 0 0 87846411.74066274 -14693248.12258429 -14693248.12258429 -4707379.385668276 0 0 0 0 0 88766359.89163598 -14550047.39958872 -14550047.39958872 -4958220.421871073 0 0 0 0 0 88932476.1027426 -14398845.80604927 -14398845.80604927 -5357990.517009472 0 0 0 0 0 90621879.50430381 -13893385.06701408 -13893385.06701408 -5226920.949813877 0 0 0 0 0 89777437.22862677 -14220750.5431018 -14220750.5431018 -5578526.128856382 0 0 0 0 0 91420501.65921091 -13702257.98774189 -13702257.98774189 -5429548.965051296 0 0 0 0 0 92188412.63025421 -13496020.20626866 -13496020.20626866 -5617623.157725901 0 0 0 0 0 92925992.12484936 -13276654.61276941 -13276654.61276941 -5791518.350505813 0 0 0 0 0 93632560.63481359 -13045765.53791341 -13045765.53791341 -5951518.623696255 0 0 0 0 0 94302562.48348384 -12553864.29440259 -12553864.29440259 -5903335.767891375 0 0 0 0 0 93581272.08391307 -12844072.672656 -12844072.672656 -6242897.100118888 0 0 0 0 0 94931303.15323856 -12314185.85908409 -12314185.85908409 -6033828.287603809 0 0 0 0 0 95533725.67224698 -12067071.13377492 -12067071.13377492 -6152649.579376803 0 0 0 0 0 96109419.36115921 -11813411.83743557 -11813411.83743557 -6259546.349846593 0 0 0 0 0 96657666.69307458 -11555922.2389999 -11555922.2389999 -6355656.108545241 0 0 0 0 0 97179003.95766464 -11294310.02675124 -11294310.02675124 -6438885.175910843 0 0 0 0 0 97485382.39502576 -10819792.74260734 -10819792.74260734 -6687388.518857398 0 0 0 0 0 97675537.15483488 -11027896.39187074 -11027896.39187074 -6509140.37590961 0 0 0 0 0 98050534.18527743 -10584490.71001425 -10584490.71001425 -6389454.881754275 0 0 0 0 0 98491621.55042034 -10325991.52498004 -10325991.52498004 -6438852.162858128 0 0 0 0 0 98908920.3572844 -10066274.11152449 -10066274.11152449 -6482221.607628568 0 0 0 0 0 99302492.1979638 -9807272.326205229 -9807272.326205229 -6517722.676809708 0 0 0 0 0 99674510.5994091 -9547367.271956785 -9547367.271956785 -6545101.158439399 0 0 0 0 0 100028675.1071064 -9286620.598260149 -9286620.598260149 -6561066.978422261 0 0 0 0 0 99791961.0845485 -9099340.309080388 -9099340.309080388 -6666159.125550931 0 0 0 0 0 100224591.6875464 -8921899.470545264 -8921899.470545264 -6438869.120522785 0 0 0 0 0 100531816.8459173 -8672812.060396105 -8672812.060396105 -6424442.557806807 0 0 0 0 0 100809781.4188207 -8425933.746649874 -8425933.746649874 -6392677.733314156 0 0 0 0 0 101095193.1839474 -8189948.308324814 -8189948.308324814 -6393269.891042877 0 0 0 0 0 100910979.9463521 -8022936.563932401 -8022936.563932401 -6495697.26879347 0 0 0 0 0 101308065.9538804 -7681866.465065079 -7681866.465065079 -6153649.960470174 0 0 0 0 0 101243137.1819216 -7843579.176565831 -7843579.176565831 -6289125.933011455 0 0 0 0 0 74011556.35580772 -15349561.93189731 -15349561.93189731 -1416892.271064982 0 0 0 0 0 49417139.85281641 -603970.1708546503 -603970.1708546503 3500597.68482393 0 0 0 0 0 50713907.45218266 -1888631.935234454 -1888631.935234454 3627351.339472003 0 0 0 0 0 49804049.0785603 -2634206.074251434 -2634206.074251434 3229982.436089448 0 0 0 0 0 50484206.47840203 -3770475.735528727 -3770475.735528727 3134081.32051674 0 0 0 0 0 52915072.94728281 -5313868.570111987 -5313868.570111987 3164744.796027373 0 0 0 0 0 53048020.4281259 -5199619.691563075 -5199619.691563075 3502005.001836707 0 0 0 0 0 53846235.52260292 -6527146.574979031 -6527146.574979031 2979511.389871482 0 0 0 0 0 54901146.46965297 -7718662.633930664 -7718662.633930664 2766246.253649948 0 0 0 0 0 56046525.94123016 -8838521.2160892 -8838521.2160892 2505224.009826282 0 0 0 0 0 57269073.73356154 -9893528.540436884 -9893528.540436884 2211989.178198522 0 0 0 0 0 58559388.39829666 -10879917.60228731 -10879917.60228731 1886948.73991593 0 0 0 0 0 59908784.12975097 -11795790.69328712 -11795790.69328712 1533696.981471804 0 0 0 0 0 61834296.32598181 -12625398.32918457 -12625398.32918457 1271899.842069705 0 0 0 0 0 62525386.74091755 -12445677.19377744 -12445677.19377744 1219111.220053724 0 0 0 0 0 63911978.40964572 -13179721.81655304 -13179721.81655304 827034.5097910296 0 0 0 0 0 65327746.0654536 -13845099.77621442 -13845099.77621442 419753.3077294895 0 0 0 0 0 66763529.48565347 -14442599.5466757 -14442599.5466757 1505.565242388621 0 0 0 0 0 68192998.87170178 -14962115.45026038 -14962115.45026038 -418153.8645846133 0 0 0 0 0 69641411.60701725 -15411327.55337694 -15411327.55337694 -843038.9369026993 0 0 0 0 0 70879516.80856383 -15739832.6954325 -15739832.6954325 -1301393.60762641 0 0 0 0 0 71880981.18838049 -15395164.55138756 -15395164.55138756 -1134492.30652903 0 0 0 0 0 73253145.16423972 -15721870.58068678 -15721870.58068678 -1546095.708418044 0 0 0 0 0 74927612.64209327 -15551944.68480105 -15551944.68480105 -1919179.964890262 0 0 0 0 0 76148461.67356917 -15746692.73440954 -15746692.73440954 -2317073.161526212 0 0 0 0 0 77968291.56732477 -15521066.76975906 -15521066.76975906 -2576292.110691692 0 0 0 0 0 77162425.2268993 -15397680.26355083 -15397680.26355083 -2068382.341916068 0 0 0 0 0 79137177.95429356 -15635607.35539891 -15635607.35539891 -2960053.402341732 0 0 0 0 0 80287769.90179159 -15708068.97718994 -15708068.97718994 -3331592.348786596 0 0 0 0 0 81417520.4732869 -15741129.67900461 -15741129.67900461 -3689821.502399045 0 0 0 0 0 82524752.01111113 -15737037.93601782 -15737037.93601782 -4033780.252993961 0 0 0 0 0 83955790.077985 -15324234.43151395 -15324234.43151395 -4188806.693465142 0 0 0 0 0 83514921.52703594 -15376888.58788892 -15376888.58788892 -3713994.003754025 0 0 0 0 0 84972503.19738895 -15257707.67093247 -15257707.67093247 -4493805.509064338 0 0 0 0 0 85962935.49387071 -15162755.37022417 -15162755.37022417 -4783431.702606832 0 0 0 0 0 86925611.66457532 -15041469.69285912 -15041469.69285912 -5057034.585279065 0 0 0 0 0 87859411.7489503 -14896094.81410402 -14896094.81410402 -5314381.603555494 0 0 0 0 0 88763609.762309 -14728708.49027933 -14728708.49027933 -5555320.014272151 0 0 0 0 0 89654926.3285898 -14385714.85181246 -14385714.85181246 -5194221.936824766 0 0 0 0 0 90593590.72978887 -14025270.50261491 -14025270.50261491 -5783457.726894177 0 0 0 0 0 90512031.76512088 -14202251.99524911 -14202251.99524911 -5415371.161123062 0 0 0 0 0 91380147.15550748 -13814199.072854 -13814199.072854 -5972756.018046746 0 0 0 0 0 92137547.56042114 -13589256.46358074 -13589256.46358074 -6146628.566654989 0 0 0 0 0 92865248.51723322 -13352115.06213146 -13352115.06213146 -6305203.201812609 0 0 0 0 0 93562584.13171971 -13104279.1279571 -13104279.1279571 -6448175.586930545 0 0 0 0 0 94228708.39133528 -12598226.6006135 -12598226.6006135 -6371301.476749304 0 0 0 0 0 94307780.6055411 -12804645.63456735 -12804645.63456735 -6096881.9485101 0 0 0 0 0 94851097.83286661 -12344776.81416792 -12344776.81416792 -6487209.014233757 0 0 0 0 0 95447307.19463117 -12084395.88649914 -12084395.88649914 -6590072.155252777 0 0 0 0 0 96018113.267704 -11819081.0014319 -11819081.0014319 -6680383.166582563 0 0 0 0 0 96561666.42610702 -11549763.64927091 -11549763.64927091 -6758171.590774927 0 0 0 0 0 97078238.85293926 -11276575.26687862 -11276575.26687862 -6824107.768367935 0 0 0 0 0 98148782.87209705 -10758409.99278248 -10758409.99278248 -6570551.920246648 0 0 0 0 0 97570629.45318379 -11000052.15828637 -11000052.15828637 -6879266.559558761 0 0 0 0 0 97949659.2365551 -10554059.15260628 -10554059.15260628 -6733810.547569062 0 0 0 0 0 98387239.62182815 -10286924.02007169 -10286924.02007169 -6770389.981693902 0 0 0 0 0 98802588.66005838 -10019742.7023527 -10019742.7023527 -6797852.837393893 0 0 0 0 0 99193659.76202053 -9752277.893450713 -9752277.893450713 -6816617.082048742 0 0 0 0 0 99564409.18277733 -9485445.17944183 -9485445.17944183 -6826855.059039673 0 0 0 0 0 99919314.96683615 -9221332.121812891 -9221332.121812891 -6828445.760274709 0 0 0 0 0 100358664.3391826 -9032200.463306822 -9032200.463306822 -6573939.891987073 0 0 0 0 0 100117472.6192173 -8847068.046012815 -8847068.046012815 -6658742.273159225 0 0 0 0 0 100430246.1400209 -8600350.584330622 -8600350.584330622 -6631405.982613849 0 0 0 0 0 100706428.616091 -8357382.662892868 -8357382.662892868 -6613963.540203905 0 0 0 0 0 100981876.0512761 -8114408.942773249 -8114408.942773249 -6603239.649442227 0 0 0 0 0 101362515.9328504 -7957312.259152565 -7957312.259152565 -6395877.416960524 0 0 0 0 0 101251925.6412804 -7657711.992026335 -7657711.992026335 -6412199.978504313 0 0 0 0 0 101433710.9081311 -7813263.207606576 -7813263.207606576 -6470069.104360598 0 0 0 0 0 101604508.4081725 -7461059.446526363 -7461059.446526363 -6173407.492857447 0 0 0 0 0 74238259.46310969 -15948913.44042575 -15948913.44042575 -2061660.735978541 0 0 0 0 0 48383196.85464703 -741317.8903060535 -741317.8903060535 3293050.308610118 0 0 0 0 0 49126740.53042426 -2005023.484621341 -2005023.484621341 3299969.848401031 0 0 0 0 0 50889862.40862892 -3541997.975096743 -3541997.975096743 3565519.376809376 0 0 0 0 0 51467041.37859024 -5013578.42673781 -5013578.42673781 3392429.590570672 0 0 0 0 0 53762430.18045019 -6473025.215300345 -6473025.215300345 3284917.701654934 0 0 0 0 0 51384900.95545111 -5123716.928553266 -5123716.928553266 3055738.509612926 0 0 0 0 0 54725002.63642029 -7700521.910859585 -7700521.910859585 3028278.721809666 0 0 0 0 0 55744569.18862469 -8865140.083158622 -8865140.083158622 2728815.417813373 0 0 0 0 0 56855303.16040789 -9962331.386064576 -9962331.386064576 2393580.908234086 0 0 0 0 0 58040728.34086672 -10989068.07249281 -10989068.07249281 2026090.65753075 0 0 0 0 0 59291981.3972513 -11943514.8652768 -11943514.8652768 1629968.512361299 0 0 0 0 0 60600142.50250928 -12824253.22782758 -12824253.22782758 1209457.901205912 0 0 0 0 0 61307809.55433396 -12639974.98384053 -12639974.98384053 1156064.908182174 0 0 0 0 0 63142826.89626472 -13391729.92921455 -13391729.92921455 838747.0585936926 0 0 0 0 0 64487733.19835009 -14087144.03739234 -14087144.03739234 391481.4911225389 0 0 0 0 0 65862153.02694967 -14712232.69614117 -14712232.69614117 -65469.1090786481 0 0 0 0 0 67258257.93807927 -15267580.34370432 -15267580.34370432 -522036.2588062664 0 0 0 0 0 68637067.08400498 -15747424.69945264 -15747424.69945264 -983025.10389029 0 0 0 0 0 69979972.81440288 -16137636.56693199 -16137636.56693199 -1439568.389161552 0 0 0 0 0 71048926.84494859 -15775426.81230931 -15775426.81230931 -1236299.011325286 0 0 0 0 0 72221605.83119746 -16069353.43004134 -16069353.43004134 -1748267.657489833 0 0 0 0 0 73566285.75267416 -16351328.64753471 -16351328.64753471 -2192752.791755395 0 0 0 0 0 75311763.20043705 -15590449.92601905 -15590449.92601905 -1804260.122427516 0 0 0 0 0 76591036.24333651 -15779947.5227589 -15779947.5227589 -2191674.15941167 0 0 0 0 0 78399456.78515859 -15553962.37054103 -15553962.37054103 -2450888.516579724 0 0 0 0 0 77385961.26774397 -15904523.08514084 -15904523.08514084 -2709639.150921677 0 0 0 0 0 79624695.26601313 -15664503.98291815 -15664503.98291815 -2823933.581867256 0 0 0 0 0 80826259.22435312 -15732478.14659947 -15732478.14659947 -3186339.37963807 0 0 0 0 0 82002589.49916793 -15760618.35208274 -15760618.35208274 -3536774.853902177 0 0 0 0 0 83151129.97471273 -15751422.45016965 -15751422.45016965 -3874397.869962196 0 0 0 0 0 84592267.23236366 -15335830.47250986 -15335830.47250986 -4029044.68032318 0 0 0 0 0 83606542.38959162 -15698126.24638963 -15698126.24638963 -4362497.557576389 0 0 0 0 0 85640239.91478556 -15263838.78831292 -15263838.78831292 -4330214.436508948 0 0 0 0 0 86657590.16207597 -15163299.54771369 -15163299.54771369 -4617089.04262969 0 0 0 0 0 87643218.3848616 -15036390.33363324 -15036390.33363324 -4889029.21867984 0 0 0 0 0 88596247.370784 -14885379.54692257 -14885379.54692257 -5145598.767961476 0 0 0 0 0 89516130.43445519 -14712414.9612758 -14712414.9612758 -5386591.166903895 0 0 0 0 0 89637826.37085259 -14541275.01691433 -14541275.01691433 -5779912.347011608 0 0 0 0 0 91337513.08011743 -14001426.31177707 -14001426.31177707 -5621595.433893196 0 0 0 0 0 90481737.2712032 -14335906.85408707 -14335906.85408707 -5988320.34141317 0 0 0 0 0 92131149.44051418 -13785245.98218025 -13785245.98218025 -5813032.430634622 0 0 0 0 0 92891901.12513623 -13555295.59797004 -13555295.59797004 -5989409.691367234 0 0 0 0 0 93620354.66937317 -13313438.33046439 -13313438.33046439 -6151118.298742402 0 0 0 0 0 94316568.46200377 -13061204.01120682 -13061204.01120682 -6298132.765544615 0 0 0 0 0 94954175.87709026 -12554347.35798546 -12554347.35798546 -6228293.079687404 0 0 0 0 0 94229730.58509396 -12847381.70977117 -12847381.70977117 -6577049.332421783 0 0 0 0 0 95572987.45420785 -12296603.55007053 -12296603.55007053 -6347403.485135804 0 0 0 0 0 96163988.12796031 -12032381.34077397 -12032381.34077397 -6454080.918745527 0 0 0 0 0 96726810.63765128 -11763402.0994662 -11763402.0994662 -6548789.811812083 0 0 0 0 0 97262052.96457233 -11490448.73398286 -11490448.73398286 -6631211.867194942 0 0 0 0 0 97771027.83356461 -11213723.669647 -11213723.669647 -6701232.399033719 0 0 0 0 0 98041743.29756033 -10722519.22053508 -10722519.22053508 -6924067.70764904 0 0 0 0 0 98254823.41183266 -10934395.87562491 -10934395.87562491 -6760413.179941359 0 0 0 0 0 98598898.08771688 -10488651.2889625 -10488651.2889625 -6623082.424574605 0 0 0 0 0 99025157.42105727 -10219539.3972211 -10219539.3972211 -6663691.070162916 0 0 0 0 0 99427737.93464436 -9950427.742136091 -9950427.742136091 -6695512.577953054 0 0 0 0 0 99807762.70115678 -9681189.599028612 -9681189.599028612 -6718120.289879735 0 0 0 0 0 100166715.9600713 -9412220.563773297 -9412220.563773297 -6732631.000947716 0 0 0 0 0 100503175.251978 -9146354.169194892 -9146354.169194892 -6739673.257622262 0 0 0 0 0 100245718.8500463 -8956412.448024428 -8956412.448024428 -6821347.645104341 0 0 0 0 0 100669662.445392 -8774237.58844541 -8774237.58844541 -6579456.638717405 0 0 0 0 0 100950488.9950407 -8532245.063164564 -8532245.063164564 -6571782.547808168 0 0 0 0 0 101225133.9856144 -8289626.012812876 -8289626.012812876 -6544519.72389036 0 0 0 0 0 101490386.2507475 -8045718.142380095 -8045718.142380095 -6528938.298671755 0 0 0 0 0 101261124.0169705 -7883490.410190836 -7883490.410190836 -6579028.765275373 0 0 0 0 0 101695369.6358165 -7558817.781137955 -7558817.781137955 -6307368.68918668 0 0 0 0 0 101429512.228528 -7671566.74950688 -7671566.74950688 -6478568.085817944 0 0 0 0 0 101548900.1558926 -7429678.953223139 -7429678.953223139 -6431084.401502811 0 0 0 0 0 101865904.887884 -7234282.792181042 -7234282.792181042 -6191015.43731098 0 0 0 0 0 102645452.8721087 -6535444.959373763 -6535444.959373763 -6173469.611738145 0 0 0 0 0 102419137.2855772 -6762246.656518592 -6762246.656518592 -6180785.60071532 0 0 0 0 0 102141947.1097403 -7002394.376108075 -7002394.376108075 -6191982.312464746 0 0 0 0 0 74652245.45707476 -15983013.146497 -15983013.146497 -1943601.668437125 0 0 0 0 0 47624305.49172436 -656185.5156943424 -656185.5156943424 3187628.604731611 0 0 0 0 0 48608308.67625104 -1967683.689427586 -1967683.689427586 3313375.450120374 0 0 0 0 0 48987580.6597139 -3486865.742705692 -3486865.742705692 3020772.597990431 0 0 0 0 0 49808114.88396163 -4934807.33797168 -4934807.33797168 2942579.548748664 0 0 0 0 0 52350657.12436726 -6429713.765951023 -6429713.765951023 2918206.254056986 0 0 0 0 0 52327997.33005779 -6363180.252945122 -6363180.252945122 3200730.727124461 0 0 0 0 0 53422427.37862715 -7661401.022795386 -7661401.022795386 2689280.721284779 0 0 0 0 0 54596184.33316488 -8837587.757412221 -8837587.757412221 2435607.127541634 0 0 0 0 0 55854779.9977738 -9944338.116466289 -9944338.116466289 2142459.012276922 0 0 0 0 0 57187754.31658679 -10980601.86191919 -10980601.86191919 1816624.998245822 0 0 0 0 0 58584394.58053521 -11943701.77632422 -11943701.77632422 1461072.011066066 0 0 0 0 0 60034683.20691095 -12831852.23574122 -12831852.23574122 1079533.426178568 0 0 0 0 0 61956681.44359694 -13630506.55603564 -13630506.55603564 768816.7625502367 0 0 0 0 0 62747580.8672429 -13411889.54259449 -13411889.54259449 758071.5411361677 0 0 0 0 0 64219303.64610138 -14111387.08579401 -14111387.08579401 343875.1340124494 0 0 0 0 0 65714681.30145385 -14738842.15408642 -14738842.15408642 -82587.63172116021 0 0 0 0 0 67213699.66876708 -15291647.24283243 -15291647.24283243 -517143.9220717183 0 0 0 0 0 68718840.32323317 -15771271.36524649 -15771271.36524649 -947163.0243570908 0 0 0 0 0 70259095.17435713 -16162844.55345452 -16162844.55345452 -1361764.474639677 0 0 0 0 0 71409661.21995412 -16460619.86428309 -16460619.86428309 -1880281.779260748 0 0 0 0 0 72488142.50046207 -16098024.0585812 -16098024.0585812 -1665204.653217801 0 0 0 0 0 73919978.10931015 -16380106.95427978 -16380106.95427978 -2088291.589065196 0 0 0 0 0 75517788.61463286 -16148660.80062602 -16148660.80062602 -2465489.996439436 0 0 0 0 0 76773832.00220402 -16304681.47777397 -16304681.47777397 -2862948.901145915 0 0 0 0 0 78600392.20535797 -16023232.338704 -16023232.338704 -3103267.688003669 0 0 0 0 0 77841444.46050783 -15933683.16026419 -15933683.16026419 -2580420.780005528 0 0 0 0 0 79796678.97923182 -16098071.99770375 -16098071.99770375 -3485632.123753542 0 0 0 0 0 80971242.99580134 -16131402.40147591 -16131402.40147591 -3854033.769364674 0 0 0 0 0 82121726.1495938 -16125746.08259966 -16125746.08259966 -4207533.141290344 0 0 0 0 0 83245829.4147111 -16083693.15834019 -16083693.15834019 -4545135.399847351 0 0 0 0 0 84661902.32725579 -15627025.42986567 -15627025.42986567 -4675478.621907871 0 0 0 0 0 84270281.61012304 -15707201.83956062 -15707201.83956062 -4197924.404166361 0 0 0 0 0 85689451.75570132 -15526205.89396263 -15526205.89396263 -4972253.799063643 0 0 0 0 0 86687844.12048584 -15397856.04597428 -15397856.04597428 -5252411.005740415 0 0 0 0 0 87655734.87465675 -15244333.53043179 -15244333.53043179 -5515471.053583129 0 0 0 0 0 88592221.03865278 -15068064.46981692 -15068064.46981692 -5761517.575271901 0 0 0 0 0 89496886.38129577 -14870834.54905051 -14870834.54905051 -5990159.071679699 0 0 0 0 0 90402346.73552978 -14519457.77877876 -14519457.77877876 -5611933.49169622 0 0 0 0 0 91295229.1359434 -14114385.70580942 -14114385.70580942 -6180660.22526998 0 0 0 0 0 91255312.39386594 -14308637.25231585 -14308637.25231585 -5821766.61406613 0 0 0 0 0 92077073.50687201 -13878470.53642681 -13878470.53642681 -6356700.236871329 0 0 0 0 0 92827895.02991267 -13630183.09772215 -13630183.09772215 -6516805.093301143 0 0 0 0 0 93547447.76248448 -13370866.55791729 -13370866.55791729 -6660983.905034186 0 0 0 0 0 94235354.36391443 -13102175.6546812 -13102175.6546812 -6790098.349059713 0 0 0 0 0 94869635.0536014 -12582865.63105111 -12582865.63105111 -6692640.62275087 0 0 0 0 0 94982022.74678536 -12799690.85959765 -12799690.85959765 -6430427.45766528 0 0 0 0 0 95482431.23377149 -12311447.6486553 -12311447.6486553 -6794907.820552402 0 0 0 0 0 96068055.37859941 -12034649.84596145 -12034649.84596145 -6884079.506894602 0 0 0 0 0 96626125.02718931 -11753741.34139463 -11753741.34139463 -6960584.930802564 0 0 0 0 0 97156967.22378649 -11469409.20052175 -11469409.20052175 -7024901.590757682 0 0 0 0 0 97662220.74916753 -11182449.10910345 -11182449.10910345 -7077790.918335177 0 0 0 0 0 98713939.31995109 -10654079.7087849 -10654079.7087849 -6809947.811650587 0 0 0 0 0 98143160.1336184 -10894067.29144423 -10894067.29144423 -7119810.404168634 0 0 0 0 0 98490592.85913515 -10445455.03154175 -10445455.03154175 -6958325.758412207 0 0 0 0 0 98914646.54336099 -10168402.08446598 -10168402.08446598 -6982628.253433733 0 0 0 0 0 99315206.57514939 -9891431.221547026 -9891431.221547026 -6997569.896667557 0 0 0 0 0 99693514.86058681 -9614950.793905385 -9614950.793905385 -7003975.775385307 0 0 0 0 0 100052345.1033903 -9340741.969278041 -9340741.969278041 -7001869.095157562 0 0 0 0 0 100388551.0009557 -9069036.384823212 -9069036.384823212 -6990125.781635611 0 0 0 0 0 100818891.2645183 -8881805.496430555 -8881805.496430555 -6737517.361347406 0 0 0 0 0 100565611.3533903 -8702025.170045117 -8702025.170045117 -6798536.734396461 0 0 0 0 0 100844868.4868875 -8448035.344718587 -8448035.344718587 -6767723.623657175 0 0 0 0 0 101111787.9782239 -8200294.634183303 -8200294.634183303 -6746621.423714058 0 0 0 0 0 101378459.2696498 -7956580.972135817 -7956580.972135817 -6716610.003470711 0 0 0 0 0 101709386.6154161 -7824937.769387529 -7824937.769387529 -6537802.646443065 0 0 0 0 0 101613236.6954883 -7516104.799494076 -7516104.799494076 -6548426.094657291 0 0 0 0 0 101807039.063739 -7621622.246968105 -7621622.246968105 -6534211.899172655 0 0 0 0 0 101918354.964393 -7329839.571942744 -7329839.571942744 -6315602.058591596 0 0 0 0 0 101818889.6977282 -7200713.524063779 -7200713.524063779 -6433267.507143494 0 0 0 0 0 102344153.1392776 -6713812.039826027 -6713812.039826027 -6401424.390361006 0 0 0 0 0 102580243.279967 -6489158.301081194 -6489158.301081194 -6381808.467915872 0 0 0 0 0 102085917.751723 -6963375.115201491 -6963375.115201491 -6443709.273948446 0 0 0 0 0 102883856.5434094 -6305994.854061849 -6305994.854061849 -6151589.960460669 0 0 0 0 0 74864909.73642763 -16572094.17517156 -16572094.17517156 -2621730.777166809 0 0 0 0 0 46728309.35301401 -769884.233751078 -769884.233751078 3041244.419705227 0 0 0 0 0 47765479.5258419 -2086143.090187864 -2086143.090187864 3219021.190484119 0 0 0 0 0 48977099.14404899 -3406989.137797281 -3406989.137797281 3325014.789091507 0 0 0 0 0 49963690.55152404 -4805382.279687508 -4805382.279687508 3274539.427257938 0 0 0 0 0 50789844.1797443 -6209584.565363817 -6209584.565363817 3091285.975359813 0 0 0 0 0 53249287.06643358 -7641976.592004341 -7641976.592004341 2953002.065617632 0 0 0 0 0 50782567.90323532 -6291435.683516772 -6291435.683516772 2782780.958770272 0 0 0 0 0 54303801.87058588 -8861519.628951831 -8861519.628951831 2659501.787022943 0 0 0 0 0 55443565.38131601 -10011860.7612463 -10011860.7612463 2326530.018770658 0 0 0 0 0 56664797.60891884 -11090376.39027809 -11090376.39027809 1958138.718459615 0 0 0 0 0 57956947.16934212 -12094016.50354121 -12094016.50354121 1558870.096443522 0 0 0 0 0 59311004.82505801 -13020583.49973388 -13020583.49973388 1133298.493274673 0 0 0 0 0 60717706.10484956 -13868961.1587333 -13868961.1587333 685928.0541930766 0 0 0 0 0 61529382.06378122 -13644134.10505677 -13644134.10505677 675989.8849849385 0 0 0 0 0 63352980.20364869 -14362057.25839866 -14362057.25839866 312290.504362674 0 0 0 0 0 64780837.77618695 -15019097.37788123 -15019097.37788123 -155444.7785408855 0 0 0 0 0 66231892.67627154 -15601380.55065851 -15601380.55065851 -629703.6547880858 0 0 0 0 0 67674976.32481061 -16108431.74548626 -16108431.74548626 -1111031.528287539 0 0 0 0 0 69110373.53392684 -16541997.17856741 -16541997.17856741 -1588506.113758645 0 0 0 0 0 70510301.47502407 -16897720.0505595 -16897720.0505595 -2046151.761143786 0 0 0 0 0 71717445.97497089 -16494180.69660478 -16494180.69660478 -1784914.633839772 0 0 0 0 0 72810146.23426802 -16752411.89397468 -16752411.89397468 -2330520.031598264 0 0 0 0 0 74208923.66498475 -16990480.79519575 -16990480.79519575 -2774403.088087115 0 0 0 0 0 75975502.32729159 -16179354.41806671 -16179354.41806671 -2338997.979857073 0 0 0 0 0 77296062.60628884 -16332430.86753725 -16332430.86753725 -2722816.350230505 0 0 0 0 0 79108867.30578847 -16049888.36025096 -16049888.36025096 -2963669.646989022 0 0 0 0 0 78043420.56780888 -16422663.46908828 -16422663.46908828 -3256361.669215311 0 0 0 0 0 80358163.87661885 -16119988.16767556 -16119988.16767556 -3336538.519660036 0 0 0 0 0 81581726.42719364 -16148369.7856649 -16148369.7856649 -3696644.477823201 0 0 0 0 0 82775808.03165674 -16137383.21901865 -16137383.21901865 -4043366.370537747 0 0 0 0 0 83938616.90032689 -16089790.9349928 -16089790.9349928 -4375545.278494499 0 0 0 0 0 85358207.63190022 -15630479.70097559 -15630479.70097559 -4506899.1164571 0 0 0 0 0 84341917.94226098 -16007837.04096259 -16007837.04096259 -4866169.368630208 0 0 0 0 0 86413721.24270129 -15523824.28028632 -15523824.28028632 -4800830.179505895 0 0 0 0 0 87435854.98774433 -15389715.46530751 -15389715.46530751 -5079200.23486094 0 0 0 0 0 88423327.96767393 -15230345.44845479 -15230345.44845479 -5341507.46767559 0 0 0 0 0 89376516.2192637 -15048264.88656962 -15048264.88656962 -5587568.676755285 0 0 0 0 0 90293435.00618565 -14845372.23214955 -14845372.23214955 -5817140.877743442 0 0 0 0 0 90369662.73999926 -14655035.08660787 -14655035.08660787 -6201888.552058031 0 0 0 0 0 92074745.54789944 -14081840.94752743 -14081840.94752743 -6016184.062474013 0 0 0 0 0 91210129.07285886 -14422625.58660675 -14422625.58660675 -6396919.777640082 0 0 0 0 0 92860776.24653801 -13840753.78839983 -13840753.78839983 -6194980.214973029 0 0 0 0 0 93612478.61306174 -13587572.77478567 -13587572.77478567 -6358455.252584021 0 0 0 0 0 94329699.62346552 -13323761.44919237 -13323761.44919237 -6506697.102642762 0 0 0 0 0 95014961.49178723 -13050645.30753698 -13050645.30753698 -6639735.088655941 0 0 0 0 0 95618224.22581913 -12530708.56978516 -12530708.56978516 -6549449.323958864 0 0 0 0 0 94893594.82405613 -12825840.05155273 -12825840.05155273 -6905588.224515248 0 0 0 0 0 96224894.97294256 -12255252.0958031 -12255252.0958031 -6655620.723087994 0 0 0 0 0 96802589.67212772 -11974713.22159113 -11974713.22159113 -6749207.445918794 0 0 0 0 0 97351716.14378931 -11690185.64746946 -11690185.64746946 -6830337.621380398 0 0 0 0 0 97873358.17136946 -11402397.10570248 -11402397.10570248 -6899219.811759642 0 0 0 0 0 98368114.96792638 -11112380.27297388 -11112380.27297388 -6956659.61765553 0 0 0 0 0 98600354.13800475 -10605679.65134733 -10605679.65134733 -7151372.760044751 0 0 0 0 0 98837005.34871644 -10821298.08466826 -10821298.08466826 -7003427.255585214 0 0 0 0 0 99148843.2256379 -10373992.3641136 -10373992.3641136 -6849535.810617626 0 0 0 0 0 99559669.30550793 -10094645.53495444 -10094645.53495444 -6878528.811579445 0 0 0 0 0 99947272.24169265 -9815660.535743508 -9815660.535743508 -6897934.5793544 0 0 0 0 0 100313074.7881712 -9537372.903410634 -9537372.903410634 -6908558.275978451 0 0 0 0 0 100657339.9693443 -9261433.391809033 -9261433.391809033 -6911688.092070453 0 0 0 0 0 100977739.2482715 -8990231.92743432 -8990231.92743432 -6907801.082455742 0 0 0 0 0 100707436.5549606 -8803678.982112939 -8803678.982112939 -6968854.477375406 0 0 0 0 0 101104501.2082913 -8630997.508746887 -8630997.508746887 -6736593.340993778 0 0 0 0 0 101376941.8505387 -8378207.110077493 -8378207.110077493 -6714152.727056234 0 0 0 0 0 101639640.6872753 -8126949.978272431 -8126949.978272431 -6686188.560144891 0 0 0 0 0 101874695.4872883 -7877133.191581155 -7877133.191581155 -6652118.915913211 0 0 0 0 0 101622486.6708076 -7696238.670630882 -7696238.670630882 -6652722.378169529 0 0 0 0 0 101924641.8189851 -7440043.994806208 -7440043.994806208 -6430616.220502487 0 0 0 0 0 101888605.8627303 -7312627.585913409 -7312627.585913409 -6568160.797195815 0 0 0 0 0 102240874.5044837 -7100367.514981827 -7100367.514981827 -6307003.686520455 0 0 0 0 0 102746587.5864251 -6642035.511781469 -6642035.511781469 -6291807.348933174 0 0 0 0 0 102963844.5469079 -6413961.547389323 -6413961.547389323 -6262215.095011394 0 0 0 0 0 102513466.8855722 -6863024.513540289 -6863024.513540289 -6314868.865951212 0 0 0 0 0 102818308.620563 -6262139.419468855 -6262139.419468855 -6321214.45232393 0 0 0 0 0 103111110.070022 -6091464.387085471 -6091464.387085471 -6122567.054291375 0 0 0 0 0 103295635.7160254 -5861249.546407788 -5861249.546407788 -6096325.504533956 0 0 0 0 0 75350403.14068975 -16598600.12225351 -16598600.12225351 -2491485.988617317 0 0 0 0 0 46085242.34689599 -724913.3854374186 -724913.3854374186 3009660.223264942 0 0 0 0 0 46947302.3419399 -1999447.950695744 -1999447.950695744 3120523.239413399 0 0 0 0 0 47421748.16029069 -3308718.876337226 -3308718.876337226 2953742.173580245 0 0 0 0 0 48170072.31431265 -4712703.101879504 -4712703.101879504 2788595.001400769 0 0 0 0 0 49157256.88153937 -6133812.781663446 -6133812.781663446 2649729.19780427 0 0 0 0 0 51881086.10365212 -7592509.597607582 -7592509.597607582 2592547.828694861 0 0 0 0 0 51744357.21291082 -7563246.961440877 -7563246.961440877 2853554.479345253 0 0 0 0 0 53084400.59184518 -8822163.664670339 -8822163.664670339 2341763.957744702 0 0 0 0 0 54379868.11410025 -9984141.897609182 -9984141.897609182 2053707.982533353 0 0 0 0 0 55755492.54356745 -11072866.20175324 -11072866.20175324 1729058.022816333 0 0 0 0 0 57200751.76178815 -12085586.1370188 -12085586.1370188 1372507.395758498 0 0 0 0 0 58704641.38233384 -13019992.70905295 -13019992.70905295 988056.6626721886 0 0 0 0 0 60256543.97246984 -13874979.10046979 -13874979.10046979 579827.6985335506 0 0 0 0 0 62167704.43050808 -14638947.70668129 -14638947.70668129 220997.611406761 0 0 0 0 0 63059681.93154567 -14380315.61097775 -14380315.61097775 254637.6771351045 0 0 0 0 0 64615813.50918207 -15040448.69311179 -15040448.69311179 -180344.2790870042 0 0 0 0 0 66190460.65727141 -15623457.49580228 -15623457.49580228 -624553.7966683368 0 0 0 0 0 67761404.60937095 -16133072.88298111 -16133072.88298111 -1073721.29257775 0 0 0 0 0 69330946.76829463 -16570490.58238167 -16570490.58238167 -1516553.780857608 0 0 0 0 0 70923548.31442814 -16920763.77855935 -16920763.77855935 -1936724.426472727 0 0 0 0 0 71985923.18340471 -17192743.70551362 -17192743.70551362 -2513450.4287317 0 0 0 0 0 73206178.45917615 -16782976.79225007 -16782976.79225007 -2215275.559308019 0 0 0 0 0 74658888.7091184 -17015920.20448999 -17015920.20448999 -2648973.206418646 0 0 0 0 0 76169222.7360363 -16729248.01728079 -16729248.01728079 -3029161.996896702 0 0 0 0 0 77459355.27016512 -16840790.32032175 -16840790.32032175 -3429845.756726056 0 0 0 0 0 79287688.6873059 -16500449.60483315 -16500449.60483315 -3648397.422771158 0 0 0 0 0 78581938.52474257 -16445766.68928348 -16445766.68928348 -3111216.128058303 0 0 0 0 0 80509197.76528499 -16534077.69575477 -16534077.69575477 -4027193.487100698 0 0 0 0 0 81705501.72780815 -16526761.11789554 -16526761.11789554 -4390418.66783879 0 0 0 0 0 82873900.86367312 -16481237.84598788 -16481237.84598788 -4736991.907442601 0 0 0 0 0 84012661.49323258 -16400414.98587321 -16400414.98587321 -5066330.299181954 0 0 0 0 0 85408594.05803695 -15900823.72944231 -15900823.72944231 -5170247.450646586 0 0 0 0 0 85068614.05391203 -16008176.34449396 -16008176.34449396 -4692438.2103615 0 0 0 0 0 86444352.49649329 -15765062.04934412 -15765062.04934412 -5456749.057344288 0 0 0 0 0 87447921.37628646 -15602844.83278996 -15602844.83278996 -5725609.000928309 0 0 0 0 0 88418370.83888549 -15417199.32823732 -15417199.32823732 -5976878.074424062 0 0 0 0 0 89355161.60576808 -15209593.093813 -15209593.093813 -6209659.379979816 0 0 0 0 0 90257671.95773114 -14982841.26860777 -14982841.26860777 -6424743.342500038 0 0 0 0 0 91174902.564292 -14623993.0381274 -14623993.0381274 -6030412.445172481 0 0 0 0 0 92018266.29428096 -14175367.21718827 -14175367.21718827 -6575196.805444905 0 0 0 0 0 92021154.48284073 -14386116.90057234 -14386116.90057234 -6227592.492050435 0 0 0 0 0 92793575.85734829 -13915047.26108521 -13915047.26108521 -6736690.047971213 0 0 0 0 0 93535406.3787169 -13643666.14009652 -13643666.14009652 -6881926.835725524 0 0 0 0 0 94244210.77323496 -13362870.07853801 -13362870.07853801 -7011432.169936285 0 0 0 0 0 94921826.97740254 -13073955.82028251 -13073955.82028251 -7126269.906947682 0 0 0 0 0 95523174.87452877 -12542657.19609422 -12542657.19609422 -7006988.358314008 0 0 0 0 0 95669146.90265219 -12769545.64751064 -12769545.64751064 -6758672.991462203 0 0 0 0 0 96124290.58133243 -12254134.06420362 -12254134.06420362 -7094988.218585299 0 0 0 0 0 96697122.13665399 -11961356.01507398 -11961356.01507398 -7169912.19144229 0 0 0 0 0 97241969.22013591 -11665391.10788896 -11665391.10788896 -7232348.303992913 0 0 0 0 0 97759933.9516219 -11367045.4998382 -11367045.4998382 -7282704.917058945 0 0 0 0 0 98251794.94431984 -11067551.89213031 -11067551.89213031 -7321803.592905263 0 0 0 0 0 99280636.23054424 -10530235.44668597 -10530235.44668597 -7040038.773648328 0 0 0 0 0 98718496.34218326 -10767906.79111637 -10767906.79111637 -7350175.9598168 0 0 0 0 0 99033804.44581167 -10318071.33318968 -10318071.33318968 -7172729.310618137 0 0 0 0 0 99442986.67865583 -10031186.02096352 -10031186.02096352 -7184201.437517543 0 0 0 0 0 99829226.1025206 -9745353.32399728 -9745353.32399728 -7186796.146022397 0 0 0 0 0 100194385.7875401 -9461437.754065175 -9461437.754065175 -7181167.0039609 0 0 0 0 0 100539026.782354 -9180304.433366433 -9180304.433366433 -7165975.300218863 0 0 0 0 0 100861025.8154257 -8903805.061025945 -8903805.061025945 -7141937.027648036 0 0 0 0 0 101272287.6934123 -8726725.186312284 -8726725.186312284 -6898269.928941012 0 0 0 0 0 100992675.0229173 -8537727.371726202 -8537727.371726202 -6934151.774126753 0 0 0 0 0 101265613.7372789 -8287493.446713324 -8287493.446713324 -6912098.035983175 0 0 0 0 0 101528688.3612903 -8029596.387076374 -8029596.387076374 -6868281.429238829 0 0 0 0 0 101754706.3752159 -7772097.295720397 -7772097.295720397 -6837362.919444157 0 0 0 0 0 102115317.7429501 -7617030.43778653 -7617030.43778653 -6628279.077574594 0 0 0 0 0 101970824.8914279 -7426281.802906794 -7426281.802906794 -6683686.369865276 0 0 0 0 0 102302233.4723621 -7221173.357780674 -7221173.357780674 -6436294.729041798 0 0 0 0 0 102183836.4050705 -7061452.828190607 -7061452.828190607 -6556589.8683097 0 0 0 0 0 102637945.8834492 -6571941.616085011 -6571941.616085011 -6481985.984261619 0 0 0 0 0 102428338.3787143 -6811005.523484192 -6811005.523484192 -6507284.34422888 0 0 0 0 0 102835655.0088853 -6333280.785672795 -6333280.785672795 -6447967.197335551 0 0 0 0 0 103160580.7711364 -6183058.410467428 -6183058.410467428 -6227081.173910285 0 0 0 0 0 103023247.1184881 -6032054.188888392 -6032054.188888392 -6328733.832933798 0 0 0 0 0 103218749.388781 -5809933.927660192 -5809933.927660192 -6284160.804018591 0 0 0 0 0 103499225.064604 -5636679.444144306 -5636679.444144306 -6054779.485913051 0 0 0 0 0 75535951.22981887 -17163420.02067513 -17163420.02067513 -3212565.960611646 0 0 0 0 0 45051512.47360428 -847192.8702020413 -847192.8702020413 2857233.450045886 0 0 0 0 0 45596634.01398005 -2236024.899174477 -2236024.899174477 2830691.149197411 0 0 0 0 0 47374638.27842443 -3254195.633321674 -3254195.633321674 3184644.982736871 0 0 0 0 0 48251820.59913918 -4615610.518531608 -4615610.518531608 3081003.800561885 0 0 0 0 0 49185011.04392003 -6051700.211911656 -6051700.211911656 2936857.227297203 0 0 0 0 0 50158476.94290745 -7462850.76832459 -7462850.76832459 2718782.584294432 0 0 0 0 0 52804583.49148454 -8842062.198246209 -8842062.198246209 2567498.296791843 0 0 0 0 0 50276791.00490028 -7497184.723878969 -7497184.723878969 2458044.329285795 0 0 0 0 0 53972925.19454612 -10050315.86715951 -10050315.86715951 2238289.128634771 0 0 0 0 0 55228849.46382505 -11183480.76956995 -11183480.76956995 1871014.631834163 0 0 0 0 0 56563147.82751416 -12238709.65262516 -12238709.65262516 1470374.913065339 0 0 0 0 0 57964254.30518197 -13213620.96952471 -13213620.96952471 1040983.675633116 0 0 0 0 0 59422317.38572146 -14106634.69392185 -14106634.69392185 587739.4146276772 0 0 0 0 0 60927828.73526786 -14917295.73871969 -14917295.73871969 115369.3580766232 0 0 0 0 0 61846980.53893303 -14650265.46247663 -14650265.46247663 152028.8139389576 0 0 0 0 0 63651881.17570326 -15330576.75353142 -15330576.75353142 -257186.5401133972 0 0 0 0 0 65162586.82826758 -15944051.15095602 -15944051.15095602 -744739.7337415675 0 0 0 0 0 66680217.57009421 -16483030.50411737 -16483030.50411737 -1233454.180301142 0 0 0 0 0 68182895.39526193 -16945730.65248427 -16945730.65248427 -1728911.836611008 0 0 0 0 0 69690919.82077539 -17330979.36661873 -17330979.36661873 -2218550.311760216 0 0 0 0 0 71197315.3463393 -17639913.7214592 -17639913.7214592 -2696077.470606146 0 0 0 0 0 72507846.62550956 -17217473.33508931 -17217473.33508931 -2379808.154960995 0 0 0 0 0 73467811.98757383 -17420219.06592745 -17420219.06592745 -2945050.163123163 0 0 0 0 0 74916764.12074964 -17609903.99055149 -17609903.99055149 -3392494.592931643 0 0 0 0 0 76721852.69965351 -16756065.36409244 -16756065.36409244 -2885764.697379082 0 0 0 0 0 78067717.92314775 -16861033.31607581 -16861033.31607581 -3276605.590725972 0 0 0 0 0 79875123.4297917 -16519537.50761946 -16519537.50761946 -3494822.895881377 0 0 0 0 0 78760807.54090224 -16915354.44698102 -16915354.44698102 -3822497.198696207 0 0 0 0 0 81146529.72310941 -16548112.95507391 -16548112.95507391 -3865387.571172477 0 0 0 0 0 82388239.97762297 -16535261.29277774 -16535261.29277774 -4221534.759432319 0 0 0 0 0 83596888.70069669 -16484022.41190135 -16484022.41190135 -4562405.297208575 0 0 0 0 0 84770919.70652357 -16397247.73975047 -16397247.73975047 -4887354.44325878 0 0 0 0 0 86164139.16007788 -15895215.90959999 -15895215.90959999 -4993548.882550903 0 0 0 0 0 85120186.45315173 -16286885.73230537 -16286885.73230537 -5377704.791562682 0 0 0 0 0 87223820.52106547 -15753484.34027652 -15753484.34027652 -5278333.665593817 0 0 0 0 0 88247509.56161146 -15585277.29826379 -15585277.29826379 -5546405.15557102 0 0 0 0 0 89235696.21701263 -15393571.52146264 -15393571.52146264 -5797515.653089364 0 0 0 0 0 90184957.29577231 -15180187.13231179 -15180187.13231179 -6031398.525223657 0 0 0 0 0 91096815.34759243 -14947651.4159587 -14947651.4159587 -6248157.492974515 0 0 0 0 0 91126357.4376625 -14738893.37207858 -14738893.37207858 -6622195.691973386 0 0 0 0 0 92832151.04330394 -14133648.79613525 -14133648.79613525 -6408662.021319467 0 0 0 0 0 91960771.40814605 -14479683.96664158 -14479683.96664158 -6802347.165980545 0 0 0 0 0 93607932.89878495 -13868293.2498374 -13868293.2498374 -6573820.960703398 0 0 0 0 0 94348119.21267746 -13592162.6734992 -13592162.6734992 -6723438.980472866 0 0 0 0 0 95053865.19397299 -13306797.56459665 -13306797.56459665 -6857006.405323591 0 0 0 0 0 95726613.91531785 -13013098.57190797 -13013098.57190797 -6975418.543598614 0 0 0 0 0 96292394.62551366 -12482169.7557415 -12482169.7557415 -6864255.463891059 0 0 0 0 0 95569407.19718428 -12778421.00348253 -12778421.00348253 -7226787.313523076 0 0 0 0 0 96885445.70132285 -12189729.06521664 -12189729.06521664 -6956791.277748908 0 0 0 0 0 97448732.02757621 -11893255.39192078 -11893255.39192078 -7036476.85352857 0 0 0 0 0 97983160.19978997 -11593820.89787579 -11593820.89787579 -7103699.551002067 0 0 0 0 0 98489271.27817276 -11292390.8064187 -11292390.8064187 -7159005.607443388 0 0 0 0 0 98968317.06152554 -10990117.8413133 -10990117.8413133 -7203180.137642242 0 0 0 0 0 99160596.43104181 -10469110.08658717 -10469110.08658717 -7368179.877886682 0 0 0 0 0 99421033.97199792 -10687883.40957066 -10687883.40957066 -7236660.550495005 0 0 0 0 0 99699621.74184141 -10240066.37365769 -10240066.37365769 -7066611.463978374 0 0 0 0 0 100094129.3761813 -9951198.699437402 -9951198.699437402 -7083202.087231076 0 0 0 0 0 100465595.1364143 -9663566.412504289 -9663566.412504289 -7090225.850355168 0 0 0 0 0 100816617.25051 -9377942.702702744 -9377942.702702744 -7089140.003538278 0 0 0 0 0 101144803.6422544 -9096535.882389026 -9096535.882389026 -7081991.313629743 0 0 0 0 0 101448216.0003331 -8820726.606242593 -8820726.606242593 -7068672.563283851 0 0 0 0 0 101155337.9112381 -8630374.360685527 -8630374.360685527 -7110808.180041812 0 0 0 0 0 101547612.0700005 -8465064.854966011 -8465064.854966011 -6882091.880690677 0 0 0 0 0 101809224.9506701 -8202732.208598834 -8202732.208598834 -6847474.710303609 0 0 0 0 0 102047979.2356409 -7949022.635272255 -7949022.635272255 -6808521.699827387 0 0 0 0 0 102281112.314268 -7692496.914284375 -7692496.914284375 -6765138.901172406 0 0 0 0 0 102004030.5012778 -7526390.152860431 -7526390.152860431 -6794296.066115625 0 0 0 0 0 102353477.3595075 -7347175.29637555 -7347175.29637555 -6563375.006483051 0 0 0 0 0 102240850.6250384 -7179284.685673917 -7179284.685673917 -6641913.538185026 0 0 0 0 0 102554124.7832002 -6975487.363336449 -6975487.363336449 -6420564.529544448 0 0 0 0 0 103074410.7214914 -6472259.556974731 -6472259.556974731 -6392358.330858707 0 0 0 0 0 102862338.3865055 -6705952.37069397 -6705952.37069397 -6461630.122337166 0 0 0 0 0 103239367.9942301 -6269868.844436651 -6269868.844436651 -6365737.21575093 0 0 0 0 0 103132106.4230656 -6140213.938310919 -6140213.938310919 -6389702.051499414 0 0 0 0 0 103361680.2892378 -5944306.981640183 -5944306.981640183 -6214973.172883668 0 0 0 0 0 103613942.0901566 -5717690.620469511 -5717690.620469511 -6163383.454304644 0 0 0 0 0 103419307.8519538 -5584903.916374648 -5584903.916374648 -6228638.650431809 0 0 0 0 0 76124692.08765154 -17186253.14714689 -17186253.14714689 -3064221.873230223 0 0 0 0 0 43869953.98182373 -750194.6650434309 -750194.6650434309 2618079.946999727 0 0 0 0 0 46369923.72076988 -2557671.693649416 -2557671.693649416 3183558.791478455 0 0 0 0 0 45419468.62130113 -3059916.394457243 -3059916.394457243 2639158.13019376 0 0 0 0 0 46450352.539128 -4471442.010848399 -4471442.010848399 2570765.72780855 0 0 0 0 0 47462630.29210622 -5946085.623436423 -5946085.623436423 2454647.615954836 0 0 0 0 0 48605883.92499045 -7378307.916643117 -7378307.916643117 2290594.528792087 0 0 0 0 0 51508705.69361015 -8791036.269725084 -8791036.269725084 2223251.421770451 0 0 0 0 0 51247746.53517811 -8806373.838693853 -8806373.838693853 2446282.859658375 0 0 0 0 0 52840285.42569351 -10010861.37078746 -10010861.37078746 1940980.41359221 0 0 0 0 0 54259742.59210613 -11155042.74884772 -11155042.74884772 1620262.577887786 0 0 0 0 0 55754734.70768493 -12220049.22650088 -12220049.22650088 1264577.750830138 0 0 0 0 0 57314105.71737266 -13203469.05442302 -13203469.05442302 878783.9434954717 0 0 0 0 0 58926155.63059518 -14103727.13653032 -14103727.13653032 467244.9248753497 0 0 0 0 0 60579786.32743037 -14920344.37941492 -14920344.37941492 34274.79750581983 0 0 0 0 0 62471215.83490054 -15645808.46020031 -15645808.46020031 -371981.4817546813 0 0 0 0 0 63467284.34250108 -15345722.30454732 -15345722.30454732 -290966.995736143 0 0 0 0 0 65108025.4127688 -15962172.77030939 -15962172.77030939 -745407.2680487136 0 0 0 0 0 66751326.94677402 -16501096.69355485 -16501096.69355485 -1204290.885695139 0 0 0 0 0 68412385.72240567 -16964070.26722068 -16964070.26722068 -1661922.544358316 0 0 0 0 0 70057651.98703341 -17353155.22170001 -17353155.22170001 -2116341.78081224 0 0 0 0 0 71670081.81841458 -17668533.0970928 -17668533.0970928 -2566750.199000896 0 0 0 0 0 72693361.13249135 -17875413.06292655 -17875413.06292655 -3146774.695762125 0 0 0 0 0 73984038.23618232 -17442732.37242146 -17442732.37242146 -2808493.546720187 0 0 0 0 0 75463689.73493055 -17624296.34714185 -17624296.34714185 -3250266.993446268 0 0 0 0 0 76887556.51312205 -17277629.62694569 -17277629.62694569 -3619758.17788832 0 0 0 0 0 78212146.15340567 -17347323.39360681 -17347323.39360681 -4014560.065077336 0 0 0 0 0 80030601.83147509 -16949383.86755301 -16949383.86755301 -4210559.185013528 0 0 0 0 0 79378041.05574355 -16928865.27193027 -16928865.27193027 -3664708.523675299 0 0 0 0 0 81274993.34813455 -16940450.45297597 -16940450.45297597 -4583203.344859502 0 0 0 0 0 82490035.34248312 -16891213.69550805 -16891213.69550805 -4938689.895115879 0 0 0 0 0 83673527.73982069 -16805129.63835116 -16805129.63835116 -5276409.508580108 0 0 0 0 0 84823893.04962167 -16684710.00922615 -16684710.00922615 -5595299.00913455 0 0 0 0 0 86194825.07119443 -16143277.35063596 -16143277.35063596 -5670834.15023967 0 0 0 0 0 85908552.82783106 -16277605.08522177 -16277605.08522177 -5195627.380810662 0 0 0 0 0 87235613.41124465 -15972300.54818119 -15972300.54818119 -5945282.706682636 0 0 0 0 0 88241993.50758056 -15776059.34754628 -15776059.34754628 -6201395.031451869 0 0 0 0 0 89212239.53795087 -15557852.83833876 -15557852.83833876 -6438720.215045303 0 0 0 0 0 90146481.41327699 -15319523.84892754 -15319523.84892754 -6657203.71393226 0 0 0 0 0 91044473.55055757 -15063214.0675229 -15063214.0675229 -6856980.586276843 0 0 0 0 0 91970782.42261127 -14698024.04340074 -14698024.04340074 -6447905.413264603 0 0 0 0 0 92761117.4715638 -14206948.99083218 -14206948.99083218 -6965341.061731332 0 0 0 0 0 92808116.61738817 -14433476.43699002 -14433476.43699002 -6631068.219763462 0 0 0 0 0 93527373.31819081 -13922968.26273395 -13922968.26273395 -7111409.468874946 0 0 0 0 0 94258295.48743653 -13629125.32842758 -13629125.32842758 -7240959.881865708 0 0 0 0 0 94955737.14645484 -13327162.95611904 -13327162.95611904 -7354978.965493215 0 0 0 0 0 95621934.89103569 -13018682.14457439 -13018682.14457439 -7454636.762393935 0 0 0 0 0 96186987.27671354 -12477606.61801991 -12477606.61801991 -7313418.427891532 0 0 0 0 0 96367265.39882532 -12713162.97306149 -12713162.97306149 -7080438.87028948 0 0 0 0 0 96775024.06043023 -12172472.05527569 -12172472.05527569 -7386441.762666059 0 0 0 0 0 97334008.95547567 -11864277.2749337 -11864277.2749337 -7446572.923091963 0 0 0 0 0 97864761.90509553 -11553952.17745463 -11553952.17745463 -7494128.382947186 0 0 0 0 0 98368045.22470681 -11242807.9080125 -11242807.9080125 -7530157.378339778 0 0 0 0 0 98844840.22839962 -10931600.76301566 -10931600.76301566 -7554985.238640209 0 0 0 0 0 99848055.08620031 -10386613.50485027 -10386613.50485027 -7259931.521809386 0 0 0 0 0 99295902.56511341 -10621287.85590301 -10621287.85590301 -7569285.858752545 0 0 0 0 0 99578404.23124382 -10171690.59333713 -10171690.59333713 -7376130.531025357 0 0 0 0 0 99971930.96676864 -9876048.163848391 -9876048.163848391 -7374644.520175445 0 0 0 0 0 100342763.6259183 -9582996.496277472 -9582996.496277472 -7365510.496758361 0 0 0 0 0 100693544.5013657 -9292308.207827751 -9292308.207827751 -7347694.045246885 0 0 0 0 0 101022692.4769248 -9005580.891971568 -9005580.891971568 -7321642.533837974 0 0 0 0 0 101327889.0619554 -8722285.904947029 -8722285.904947029 -7285607.544001965 0 0 0 0 0 101729135.5819033 -8548325.973026335 -8548325.973026335 -7045665.161325087 0 0 0 0 0 101436274.643203 -8367306.772502841 -8367306.772502841 -7078743.035441159 0 0 0 0 0 101702519.1190981 -8100247.926112286 -8100247.926112286 -7020471.700552741 0 0 0 0 0 101935616.5766176 -7844025.820167119 -7844025.820167119 -6976308.798081374 0 0 0 0 0 102166631.5270239 -7588004.072908159 -7588004.072908159 -6927413.022931871 0 0 0 0 0 102526940.1231262 -7428757.677656729 -7428757.677656729 -6701645.994580456 0 0 0 0 0 102264829.9973372 -7292512.883105895 -7292512.883105895 -6785278.908544945 0 0 0 0 0 102588582.3295836 -7093321.00535936 -7093321.00535936 -6520854.269029995 0 0 0 0 0 102631567.1516786 -6954204.707828685 -6954204.707828685 -6680555.912415659 0 0 0 0 0 102800259.7237245 -6586109.269063782 -6586109.269063782 -6562129.245204756 0 0 0 0 0 102973994.5603786 -6369731.794582237 -6369731.794582237 -6511135.464760884 0 0 0 0 0 102712749.2132627 -6777637.634830451 -6777637.634830451 -6583089.305501738 0 0 0 0 0 103171627.0526536 -6142098.003508576 -6142098.003508576 -6387230.982779458 0 0 0 0 0 103306785.4246518 -5898103.817933532 -5898103.817933532 -6399488.868469251 0 0 0 0 0 103498487.3408063 -5645306.356044871 -5645306.356044871 -6336764.458716963 0 0 0 0 0 103702925.760073 -5416502.347694443 -5416502.347694443 -6004064.893747479 0 0 0 0 0 103791002.8051428 -5490963.365524056 -5490963.365524056 -6120417.085041189 0 0 0 0 0 76295643.65828662 -17738666.55647469 -17738666.55647469 -3821178.5862874 0 0 0 0 0 43302549.95025368 -814580.3658785747 -814580.3658785747 2633999.947082803 0 0 0 0 0 44544255.51843745 -2316365.938670728 -2316365.938670728 2787290.744774388 0 0 0 0 0 43985425.50122914 -2586388.755806555 -2586388.755806555 2468741.219221739 0 0 0 0 0 46635341.22954671 -4339223.498600633 -4339223.498600633 2893450.657234048 0 0 0 0 0 47483190.25963434 -5864697.725247938 -5864697.725247938 2747923.97307026 0 0 0 0 0 48512880.27140818 -7336987.947099483 -7336987.947099483 2550999.336098235 0 0 0 0 0 49623085.23132403 -8747983.698037529 -8747983.698037529 2293692.441829674 0 0 0 0 0 52441169.07243905 -10074901.40075967 -10074901.40075967 2125097.945260902 0 0 0 0 0 49866232.09243566 -8737873.786708418 -8737873.786708418 2069653.913843096 0 0 0 0 0 53732629.52231086 -11265954.37494625 -11265954.37494625 1761660.426394734 0 0 0 0 0 55108493.14223067 -12375866.1201799 -12375866.1201799 1361483.782073587 0 0 0 0 0 56557725.58338172 -13401999.01652765 -13401999.01652765 929908.4400871799 0 0 0 0 0 58068853.8639017 -14342523.65635968 -14342523.65635968 472129.5182808062 0 0 0 0 0 59631428.5559545 -15196472.37819014 -15196472.37819014 -6769.278065273446 0 0 0 0 0 61235964.60536192 -15963944.51405707 -15963944.51405707 -501893.3386840853 0 0 0 0 0 62265752.62577678 -15653532.75084976 -15653532.75084976 -415816.9378993081 0 0 0 0 0 64042687.67465337 -16292889.87234931 -16292889.87234931 -869853.9273502117 0 0 0 0 0 65629858.63209049 -16859439.75120444 -16859439.75120444 -1372884.354831712 0 0 0 0 0 67220661.34400071 -17347972.36413509 -17347972.36413509 -1879803.148840885 0 0 0 0 0 68795611.83741495 -17760854.6619339 -17760854.6619339 -2381803.297339912 0 0 0 0 0 70372891.01389067 -18098014.24656805 -18098014.24656805 -2873102.548481439 0 0 0 0 0 71983677.7411761 -18355119.5494292 -18355119.5494292 -3345484.437692638 0 0 0 0 0 73269556.84816499 -17892826.21144387 -17892826.21144387 -3015123.30538436 0 0 0 0 0 74221985.18222648 -18059896.0206298 -18059896.0206298 -3584960.363504328 0 0 0 0 0 75700436.07099491 -18198224.35176044 -18198224.35176044 -4026833.197283351 0 0 0 0 0 77517967.05679636 -17294745.95156716 -17294745.95156716 -3464210.278881426 0 0 0 0 0 78898530.75879635 -17359357.41830857 -17359357.41830857 -3847994.791033553 0 0 0 0 0 80695487.72109716 -16959416.05938869 -16959416.05938869 -4044511.915054952 0 0 0 0 0 79538173.24873644 -17377925.7571663 -17377925.7571663 -4403217.111436554 0 0 0 0 0 81988078.61718237 -16945331.62547886 -16945331.62547886 -4409419.529278861 0 0 0 0 0 83244555.49811423 -16890321.76076153 -16890321.76076153 -4759032.422561513 0 0 0 0 0 84465001.68671121 -16798078.80325605 -16798078.80325605 -5092075.497605826 0 0 0 0 0 85646854.08454458 -16671368.19598453 -16671368.19598453 -5407748.516022995 0 0 0 0 0 87008651.63241607 -16127837.33581643 -16127837.33581643 -5486914.431480789 0 0 0 0 0 85939717.81771742 -16532873.49549426 -16532873.49549426 -5895102.944943379 0 0 0 0 0 88069762.63415101 -15950679.53226011 -15950679.53226011 -5760580.874549739 0 0 0 0 0 89092454.70108864 -15748520.69775337 -15748520.69775337 -6016515.552337393 0 0 0 0 0 90076889.41397522 -15524082.25166937 -15524082.25166937 -6255116.372976625 0 0 0 0 0 91020721.82367319 -15279792.53691639 -15279792.53691639 -6475306.339101411 0 0 0 0 0 91924059.77481562 -15017698.79697349 -15017698.79697349 -6677689.725822158 0 0 0 0 0 91906374.99209759 -14791525.37423582 -14791525.37423582 -7038970.164241481 0 0 0 0 0 93608151.50672823 -14155718.66543251 -14155718.66543251 -6797664.313925212 0 0 0 0 0 92732451.05554299 -14505770.33344763 -14505770.33344763 -7202846.617260638 0 0 0 0 0 94371344.35207853 -13866764.84556426 -13866764.84556426 -6947830.831933142 0 0 0 0 0 95098719.71607694 -13568294.51445097 -13568294.51445097 -7082204.695988071 0 0 0 0 0 95790912.1213818 -13261493.37800313 -13261493.37800313 -7200523.635947189 0 0 0 0 0 96449384.82148652 -12948430.97191386 -12948430.97191386 -7304410.273429641 0 0 0 0 0 96976260.76187336 -12408278.93982461 -12408278.93982461 -7171792.334303833 0 0 0 0 0 96256724.91932489 -12704877.52201614 -12704877.52201614 -7539711.569113873 0 0 0 0 0 97553742.92946176 -12099462.95602888 -12099462.95602888 -7249763.234089181 0 0 0 0 0 98100994.19260342 -11787815.96269586 -11787815.96269586 -7314895.265503264 0 0 0 0 0 98618760.06942271 -11474489.02386577 -11474489.02386577 -7367862.309140343 0 0 0 0 0 99108177.85934812 -11160483.06234504 -11160483.06234504 -7409166.278257913 0 0 0 0 0 99570142.99262209 -10846687.59193629 -10846687.59193629 -7439379.71716179 0 0 0 0 0 99721978.18321484 -10312928.71013843 -10312928.71013843 -7573502.387479078 0 0 0 0 0 100005612.5677586 -10533955.28374421 -10533955.28374421 -7459024.958803831 0 0 0 0 0 100249701.199163 -10087199.97591987 -10087199.97591987 -7273559.123634308 0 0 0 0 0 100626930.9155127 -9790164.875441903 -9790164.875441903 -7277307.051813396 0 0 0 0 0 100982166.522525 -9495553.024346756 -9495553.024346756 -7272095.046963255 0 0 0 0 0 101316302.4082948 -9204145.323275305 -9204145.323275305 -7259663.673677097 0 0 0 0 0 101629048.4955395 -8916125.68768955 -8916125.68768955 -7240478.921729125 0 0 0 0 0 101919337.2332806 -8632127.832296934 -8632127.832296934 -7213895.03474412 0 0 0 0 0 101611446.5018654 -8445201.14878666 -8445201.14878666 -7245919.414249172 0 0 0 0 0 102002817.7265221 -8271844.643249881 -8271844.643249881 -7003048.328256958 0 0 0 0 0 102239940.7637506 -8016650.898696717 -8016650.898696717 -6980720.303002246 0 0 0 0 0 102465496.2827785 -7754786.806285832 -7754786.806285832 -6921055.548949843 0 0 0 0 0 102694282.5146191 -7492096.606971405 -7492096.606971405 -6866346.323971496 0 0 0 0 0 102415004.3779645 -7342017.43355669 -7342017.43355669 -6876423.266623603 0 0 0 0 0 102726898.5758276 -7208009.468506522 -7208009.468506522 -6692619.280191177 0 0 0 0 0 102673092.7738371 -7080942.147980255 -7080942.147980255 -6747010.797891099 0 0 0 0 0 102846876.9432636 -6879754.243846645 -6879754.243846645 -6571642.970159449 0 0 0 0 0 103255218.5437764 -6492988.720700364 -6492988.720700364 -6511091.207471554 0 0 0 0 0 103404844.0400348 -6273923.650353132 -6273923.650353132 -6459204.855629333 0 0 0 0 0 103108796.077865 -6704485.933586103 -6704485.933586103 -6592023.469230269 0 0 0 0 0 103526299.0889013 -6062729.591584077 -6062729.591584077 -6420446.055992289 0 0 0 0 0 103705979.1524669 -5804306.261540068 -5804306.261540068 -6293864.320678251 0 0 0 0 0 103874676.5964802 -5561488.057288035 -5561488.057288035 -6230491.960616703 0 0 0 0 0 103597333.3362542 -5349126.286327188 -5349126.286327188 -6182816.290753504 0 0 0 0 0 103686636.7353423 -5424694.505494528 -5424694.505494528 -6265732.4444746 0 0 0 0 0 103859223.0890548 -5195769.327161735 -5195769.327161735 -5958883.216898094 0 0 0 0 0 76961417.86481519 -17749512.25512998 -17749512.25512998 -3661099.201301927 0 0 0 0 0 42088472.06140471 -596631.5142493445 -596631.5142493445 2272173.206394817 0 0 0 0 0 42254750.66879856 -2300679.898859818 -2300679.898859818 2102943.796246033 0 0 0 0 0 45110465.30451234 -3970821.96149817 -3970821.96149817 2718178.924815992 0 0 0 0 0 44676386.1849267 -4194150.866788444 -4194150.866788444 2324647.538511812 0 0 0 0 0 45699640.87076891 -5738103.184882636 -5738103.184882636 2239383.002095554 0 0 0 0 0 46863686.75611929 -7230349.134213222 -7230349.134213222 2085215.147553165 0 0 0 0 0 48154170.49386622 -8661254.772162771 -8661254.772162771 1883886.083064398 0 0 0 0 0 51234350.63802128 -10021130.66314043 -10021130.66314043 1800242.715715416 0 0 0 0 0 50846639.93840333 -10082268.18331158 -10082268.18331158 1983436.508864751 0 0 0 0 0 52697531.00664271 -11224432.00458633 -11224432.00458633 1486161.840688826 0 0 0 0 0 54243592.25984 -12345178.1868175 -12345178.1868175 1134004.848587676 0 0 0 0 0 55859879.01338775 -13380640.50541853 -13380640.50541853 748674.2952341568 0 0 0 0 0 57534286.45261215 -14329078.37757424 -14329078.37757424 335290.0540090028 0 0 0 0 0 59255032.70460102 -15189509.58293293 -15189509.58293293 -101378.9104594375 0 0 0 0 0 61010251.91577303 -15962239.73094527 -15962239.73094527 -556962.8422879074 0 0 0 0 0 62871822.52812965 -16645994.87172311 -16645994.87172311 -1008113.331864328 0 0 0 0 0 63973173.16909727 -16304301.24867445 -16304301.24867445 -878705.426452677 0 0 0 0 0 65690419.80469182 -16872781.81483923 -16872781.81483923 -1349333.647584335 0 0 0 0 0 67405052.891454 -17363862.66969934 -17363862.66969934 -1824708.679380878 0 0 0 0 0 69129160.10074455 -17774440.78736806 -17774440.78736806 -2293139.230578453 0 0 0 0 0 70838972.66615927 -18102892.93224077 -18102892.93224077 -2760017.770755099 0 0 0 0 0 72494153.73279956 -18360949.8299988 -18360949.8299988 -3227241.868492508 0 0 0 0 0 73513799.88874188 -18530365.86898731 -18530365.86898731 -3785406.941192876 0 0 0 0 0 74797549.75503111 -18061131.71546457 -18061131.71546457 -3445072.357438132 0 0 0 0 0 76336883.25243124 -18199062.77911293 -18199062.77911293 -3871860.217570517 0 0 0 0 0 77669447.21120332 -17804050.21530161 -17804050.21530161 -4225062.380725157 0 0 0 0 0 79019581.75740987 -17824299.94742427 -17824299.94742427 -4618492.090191457 0 0 0 0 0 80830388.03814302 -17367074.12852061 -17367074.12852061 -4785944.24118514 0 0 0 0 0 80235740.9077549 -17383042.07232748 -17383042.07232748 -4231602.327412494 0 0 0 0 0 82093704.14893027 -17313852.95258719 -17313852.95258719 -5150716.173430516 0 0 0 0 0 83323973.95486912 -17222298.31108323 -17222298.31108323 -5497044.106054177 0 0 0 0 0 84519495.41491173 -17094558.85930707 -17094558.85930707 -5823587.748397356 0 0 0 0 0 85678273.5933484 -16934073.04165503 -16934073.04165503 -6130166.48614975 0 0 0 0 0 87019333.11700146 -16352209.2901385 -16352209.2901385 -6175242.817994153 0 0 0 0 0 86789114.85799885 -16513152.07884018 -16513152.07884018 -5705528.185731183 0 0 0 0 0 88061308.62302601 -16145489.67029044 -16145489.67029044 -6435867.943969827 0 0 0 0 0 89068446.43153247 -15915650.28945472 -15915650.28945472 -6677481.753007851 0 0 0 0 0 90035670.20326985 -15665276.98603498 -15665276.98603498 -6899540.732115529 0 0 0 0 0 90964848.59083581 -15395932.69691825 -15395932.69691825 -7101609.158409373 0 0 0 0 0 91855455.04202588 -15111047.14763867 -15111047.14763867 -7285597.363217271 0 0 0 0 0 92788961.97928067 -14740367.93472533 -14740367.93472533 -6862715.101374883 0 0 0 0 0 93522579.64723504 -14208329.59765304 -14208329.59765304 -7349282.769431307 0 0 0 0 0 93614499.39115892 -14449400.28285649 -14449400.28285649 -7030459.885379735 0 0 0 0 0 94276610.72980888 -13901055.07766448 -13901055.07766448 -7479178.210897456 0 0 0 0 0 94995691.91004789 -13585441.98866694 -13585441.98866694 -7592247.257778616 0 0 0 0 0 95681109.26044586 -13263388.6357465 -13263388.6357465 -7690167.293575128 0 0 0 0 0 96333556.70999779 -12935869.91521212 -12935869.91521212 -7773427.451433397 0 0 0 0 0 96860458.86313491 -12386789.61738615 -12386789.61738615 -7610394.385056992 0 0 0 0 0 97074536.47927319 -12630380.94778628 -12630380.94778628 -7394380.035883754 0 0 0 0 0 97433642.5094559 -12065893.12730549 -12065893.12730549 -7667805.134243235 0 0 0 0 0 97977411.72735375 -11743169.37141772 -11743169.37141772 -7712335.667260382 0 0 0 0 0 98492375.05640639 -11419786.1508382 -11419786.1508382 -7744917.319720647 0 0 0 0 0 98979548.84636547 -11096570.18144005 -11096570.18144005 -7765977.087720932 0 0 0 0 0 99439862.75244372 -10774456.07821392 -10774456.07821392 -7776201.153839665 0 0 0 0 0 100414861.7659891 -10223443.79045023 -10223443.79045023 -7468872.067223145 0 0 0 0 0 99874419.1558169 -10454515.67300495 -10454515.67300495 -7776216.113054067 0 0 0 0 0 100123140.1836838 -10006814.54687289 -10006814.54687289 -7567249.079940352 0 0 0 0 0 100499808.9906748 -9703697.615403777 -9703697.615403777 -7553123.790736656 0 0 0 0 0 100854480.185312 -9403530.41882409 -9403530.41882409 -7531056.741502772 0 0 0 0 0 101188397.0937401 -9107286.10285561 -9107286.10285561 -7502553.094761468 0 0 0 0 0 101502107.264468 -8813964.445340259 -8813964.445340259 -7464609.125231649 0 0 0 0 0 101794382.5945324 -8525152.044746689 -8525152.044746689 -7419731.768939518 0 0 0 0 0 102194137.0161961 -8348417.475343268 -8348417.475343268 -7173819.331660911 0 0 0 0 0 101887389.1945934 -8172471.393273802 -8172471.393273802 -7198600.484798448 0 0 0 0 0 102130186.27606 -7902008.589450094 -7902008.589450094 -7127909.719046446 0 0 0 0 0 102349208.9305616 -7644818.096534225 -7644818.096534225 -7083878.076204389 0 0 0 0 0 102581201.1204515 -7389218.581960905 -7389218.581960905 -7028170.375002631 0 0 0 0 0 102902316.2211255 -7244752.159280998 -7244752.159280998 -6817375.198790407 0 0 0 0 0 102641668.7523079 -7090573.342539827 -7090573.342539827 -6762219.44225227 0 0 0 0 0 102821077.6039743 -6855559.876252096 -6855559.876252096 -6794139.517922097 0 0 0 0 0 103165187.6655505 -6376990.850276546 -6376990.850276546 -6618622.235921988 0 0 0 0 0 103014143.3039534 -6605106.206246273 -6605106.206246273 -6683650.100323439 0 0 0 0 0 103308606.5759673 -6151512.899798506 -6151512.899798506 -6552025.920389456 0 0 0 0 0 103434028.7947115 -5929607.591412793 -5929607.591412793 -6472106.620135989 0 0 0 0 0 103569259.6195481 -5708150.110086708 -5708150.110086708 -6433387.932120938 0 0 0 0 0 103753052.8710043 -5486965.603938452 -5486965.603938452 -6371366.789162755 0 0 0 0 0 103942819.3064341 -5256119.300438797 -5256119.300438797 -6059169.378379917 0 0 0 0 0 104017793.1758478 -5329337.80522395 -5329337.80522395 -6146512.296984607 0 0 0 0 0 103761951.1005574 -5124327.229996275 -5124327.229996275 -6079866.591537493 0 0 0 0 0 104002563.5931876 -4999557.089109481 -4999557.089109481 -5909342.962951886 0 0 0 0 0 77104611.34902562 -18271226.95157038 -18271226.95157038 -4455999.561112029 0 0 0 0 0 41406750.06162137 -778925.3603371916 -778925.3603371916 2071228.33946002 0 0 0 0 0 42788792.23869551 -2009689.981738212 -2009689.981738212 2611377.036701457 0 0 0 0 0 43431288.88134445 -3592467.649657057 -3592467.649657057 2484845.38996678 0 0 0 0 0 42855222.54618737 -3860666.420515249 -3860666.420515249 2083920.114186555 0 0 0 0 0 45823051.57140274 -5622415.163746181 -5622415.163746181 2556950.563815536 0 0 0 0 0 46789371.20087294 -7180526.848492993 -7180526.848492993 2358175.864260034 0 0 0 0 0 47929111.86070989 -8665698.320623526 -8665698.320623526 2110205.394647556 0 0 0 0 0 49182253.05924767 -10069420.99184602 -10069420.99184602 1810632.247978964 0 0 0 0 0 52172209.31709037 -11335233.01621526 -11335233.01621526 1626292.589210815 0 0 0 0 0 49558436.28830878 -10011522.03152355 -10011522.03152355 1627529.321511673 0 0 0 0 0 53590408.95905017 -12503454.00751283 -12503454.00751283 1228950.124840841 0 0 0 0 0 55088555.96241888 -13584060.31354585 -13584060.31354585 796967.5046822927 0 0 0 0 0 56654657.43705653 -14575089.34036245 -14575089.34036245 336261.2172530738 0 0 0 0 0 58276900.30208521 -15475366.03245809 -15475366.03245809 -147897.2423147993 0 0 0 0 0 59944298.41071927 -16284704.10647142 -16284704.10647142 -649986.8189986163 0 0 0 0 0 61646897.72158304 -17003717.6283264 -17003717.6283264 -1164804.082021721 0 0 0 0 0 62788443.28324695 -16647792.75760452 -16647792.75760452 -1026811.51345874 0 0 0 0 0 64528769.76156232 -17243243.36240352 -17243243.36240352 -1520271.079466177 0 0 0 0 0 66194809.56855812 -17756773.94911354 -17756773.94911354 -2033988.360073398 0 0 0 0 0 67867403.79862067 -18189276.58321372 -18189276.58321372 -2548316.457649534 0 0 0 0 0 69537958.35537194 -18546005.17740606 -18546005.17740606 -3055663.109894061 0 0 0 0 0 71178898.56245099 -18833341.65213725 -18833341.65213725 -3550147.964641969 0 0 0 0 0 72749656.64344819 -19033350.87380322 -19033350.87380322 -4028308.566371566 0 0 0 0 0 74124727.75321771 -18536970.21828057 -18536970.21828057 -3646749.497546414 0 0 0 0 0 75046047.45111081 -18660567.64426513 -18660567.64426513 -4232892.574426022 0 0 0 0 0 76554681.07468644 -18749622.47640367 -18749622.47640367 -4684644.899980714 0 0 0 0 0 78398909.42001934 -17814142.42478865 -17814142.42478865 -4054944.530052154 0 0 0 0 0 79797902.21653253 -17825697.82870127 -17825697.82870127 -4439902.584243401 0 0 0 0 0 81574942.99378946 -17368120.49441857 -17368120.49441857 -4607316.500392976 0 0 0 0 0 80369688.56646642 -17807375.05463079 -17807375.05463079 -5001448.168931191 0 0 0 0 0 82881547.33991002 -17308818.5416078 -17308818.5416078 -4965904.158418692 0 0 0 0 0 84150975.70279279 -17210851.11636325 -17210851.11636325 -5307172.846268926 0 0 0 0 0 85379142.80928221 -17076707.63250672 -17076707.63250672 -5630305.733774331 0 0 0 0 0 86565834.51061171 -16909532.71309703 -16909532.71309703 -5934752.904067168 0 0 0 0 0 87890256.98104949 -16326111.84503585 -16326111.84503585 -5984880.377905247 0 0 0 0 0 86799029.28224123 -16743265.56510022 -16743265.56510022 -6416030.138933736 0 0 0 0 0 88949894.52244663 -16113052.0391225 -16113052.0391225 -6245475.687199604 0 0 0 0 0 89968595.0245534 -15877223.38854167 -15877223.38854167 -6488019.821007004 0 0 0 0 0 90947054.04632354 -15620629.33216387 -15620629.33216387 -6712047.099829888 0 0 0 0 0 91880879.20090786 -15345442.87108417 -15345442.87108417 -6917021.052357518 0 0 0 0 0 92775708.91844286 -15054480.22735723 -15054480.22735723 -7104022.864479242 0 0 0 0 0 92708424.9902671 -14811617.3060633 -14811617.3060633 -7450326.793631444 0 0 0 0 0 94400855.20837145 -14146969.74250568 -14146969.74250568 -7181251.594580044 0 0 0 0 0 93523566.1474015 -14499981.43880762 -14499981.43880762 -7596551.67469319 0 0 0 0 0 95149758.92248562 -13834823.52529952 -13834823.52529952 -7315369.870212138 0 0 0 0 0 95862146.37326749 -13514742.16635542 -13514742.16635542 -7433626.417785601 0 0 0 0 0 96538393.07323919 -13188017.62683543 -13188017.62683543 -7536294.991564546 0 0 0 0 0 97180702.22293456 -12856090.13659225 -12856090.13659225 -7624140.378921941 0 0 0 0 0 97666970.70081475 -12308647.76543415 -12308647.76543415 -7470442.195141926 0 0 0 0 0 96953497.82536356 -12604402.72629319 -12604402.72629319 -7841710.555055263 0 0 0 0 0 98227523.48832721 -11984276.01514321 -11984276.01514321 -7533279.089637673 0 0 0 0 0 98757107.10672514 -11658578.76989763 -11658578.76989763 -7583610.274870678 0 0 0 0 0 99257031.31037888 -11332294.46840533 -11332294.46840533 -7621629.957198073 0 0 0 0 0 99728367.75681642 -11006498.34397458 -11006498.34397458 -7648261.313702174 0 0 0 0 0 100172182.0153113 -10682007.01914492 -10682007.01914492 -7664024.644748154 0 0 0 0 0 100283273.287018 -10137143.94538853 -10137143.94538853 -7765758.649041831 0 0 0 0 0 100589387.6760673 -10359835.18284342 -10359835.18284342 -7669541.520566872 0 0 0 0 0 100797916.7312192 -9916129.245874744 -9916129.245874744 -7469316.056038895 0 0 0 0 0 101157888.2207169 -9611450.675173813 -9611450.675173813 -7459907.388517987 0 0 0 0 0 101495768.7504229 -9310422.28107271 -9310422.28107271 -7442914.651707173 0 0 0 0 0 101813436.1827008 -9012182.908814905 -9012182.908814905 -7417043.32737084 0 0 0 0 0 102110352.1100718 -8718138.060962977 -8718138.060962977 -7385170.910705931 0 0 0 0 0 102389720.8298785 -8426787.282927833 -8426787.282927833 -7344264.247273705 0 0 0 0 0 102073894.9318636 -8243878.328917735 -8243878.328917735 -7367860.317475363 0 0 0 0 0 102442085.3846012 -8079800.064508356 -8079800.064508356 -7139285.625159645 0 0 0 0 0 102661044.6120405 -7818723.348211877 -7818723.348211877 -7095905.122433366 0 0 0 0 0 102878532.5439041 -7551775.938435523 -7551775.938435523 -7026718.715144279 0 0 0 0 0 103085862.6282059 -7295500.892758695 -7295500.892758695 -6970710.842145927 0 0 0 0 0 102785033.7164296 -7133989.670918079 -7133989.670918079 -6969636.363220539 0 0 0 0 0 103069133.9595533 -7011160.976648515 -7011160.976648515 -6795595.117160631 0 0 0 0 0 103252030.1589465 -6751628.016261006 -6751628.016261006 -6701888.91370867 0 0 0 0 0 103591705.7049491 -6287266.029833625 -6287266.029833625 -6577778.665822757 0 0 0 0 0 103435152.2239342 -6515382.671006007 -6515382.671006007 -6644223.6607952 0 0 0 0 0 103726540.8334033 -6065925.23764073 -6065925.23764073 -6512646.253899924 0 0 0 0 0 103862305.0053464 -5837036.408582006 -5837036.408582006 -6430447.956520453 0 0 0 0 0 104008927.268925 -5609983.341115363 -5609983.341115363 -6342374.136336477 0 0 0 0 0 104127963.556326 -5407292.493223768 -5407292.493223768 -6288313.842784381 0 0 0 0 0 103931709.3711043 -5218865.146879788 -5218865.146879788 -6253297.766025901 0 0 0 0 0 104026838.5862498 -5300169.375971199 -5300169.375971199 -6310096.166282494 0 0 0 0 0 104082760.3954408 -5023966.62874561 -5023966.62874561 -6054004.584255492 0 0 0 0 0 103898711.3989278 -4934069.957282049 -4934069.957282049 -6055427.851001027 0 0 0 0 0 77879292.91939208 -18274453.75115681 -18274453.75115681 -4281319.972718324 0 0 0 0 0 41231248.98189679 -785233.7765708193 -785233.7765708193 2149175.311605569 0 0 0 0 0 40078683.42234425 -1965284.776955393 -1965284.776955393 1812904.718177889 0 0 0 0 0 40787697.77604895 -3467487.432632893 -3467487.432632893 1691275.695530907 0 0 0 0 0 44031668.05262177 -5382970.614398289 -5382970.614398289 2283511.421121767 0 0 0 0 0 43871064.25781481 -5499341.047476447 -5499341.047476447 2007464.27267301 0 0 0 0 0 45051162.17333256 -7067884.912057726 -7067884.912057726 1867270.028106988 0 0 0 0 0 46367525.63501672 -8562691.814336382 -8562691.814336382 1667784.215558767 0 0 0 0 0 47808984.59641771 -9981346.290929301 -9981346.290929301 1422651.36759568 0 0 0 0 0 51066800.68351407 -11278506.750582 -11278506.750582 1323608.223241632 0 0 0 0 0 50544348.93845613 -11388983.34252898 -11388983.34252898 1461590.030636636 0 0 0 0 0 52664626.3191346 -12458710.78717304 -12458710.78717304 977338.1823146699 0 0 0 0 0 54339626.1242588 -13549720.82205642 -13549720.82205642 594676.1580210403 0 0 0 0 0 56077745.33135409 -14549528.69834199 -14549528.69834199 181039.71961456 0 0 0 0 0 57867187.60425857 -15457021.56195788 -15457021.56195788 -258253.0887767298 0 0 0 0 0 59695554.09053875 -16271975.06303444 -16271975.06303444 -718063.0204191754 0 0 0 0 0 61550890.05836341 -16994921.38801134 -16994921.38801134 -1193724.961993274 0 0 0 0 0 63373741.03241225 -17632987.87089987 -17632987.87089987 -1687379.802847259 0 0 0 0 0 64580938.47766352 -17246514.00267628 -17246514.00267628 -1505597.934422728 0 0 0 0 0 66379067.34269665 -17760378.57595872 -17760378.57595872 -1987665.122408804 0 0 0 0 0 68173657.17596094 -18193293.68377156 -18193293.68377156 -2472580.142840024 0 0 0 0 0 69956731.86286463 -18548458.44541018 -18548458.44541018 -2953214.536845249 0 0 0 0 0 71690851.81549303 -18827282.8264375 -18827282.8264375 -3430207.51256452 0 0 0 0 0 73411200.95544018 -19032972.7482935 -19032972.7482935 -3883543.70630129 0 0 0 0 0 74336844.24448186 -19149000.26296202 -19149000.26296202 -4460919.785720899 0 0 0 0 0 75699197.19764359 -18660623.42543169 -18660623.42543169 -4077344.680014674 0 0 0 0 0 77295948.55562565 -18744361.68211886 -18744361.68211886 -4509652.826803077 0 0 0 0 0 78518712.06917229 -18288080.79521649 -18288080.79521649 -4853879.890349119 0 0 0 0 0 79893623.64029634 -18261311.81592169 -18261311.81592169 -5237179.793984813 0 0 0 0 0 81684425.85782899 -17749502.77352158 -17749502.77352158 -5373777.546349934 0 0 0 0 0 81156208.71928938 -17801017.4888344 -17801017.4888344 -4816323.268663445 0 0 0 0 0 82963786.07664089 -17652292.44199824 -17652292.44199824 -5729098.138564001 0 0 0 0 0 84206592.22556561 -17516984.83436433 -17516984.83436433 -6063270.258601886 0 0 0 0 0 85410625.67852727 -17347513.80000739 -17347513.80000739 -6377165.125116849 0 0 0 0 0 86574510.74359898 -17145926.04850104 -17145926.04850104 -6668168.454719475 0 0 0 0 0 87880329.74685119 -16525121.70675467 -16525121.70675467 -6681099.470201143 0 0 0 0 0 87708477.37099794 -16712263.70251889 -16712263.70251889 -6219734.34670488 0 0 0 0 0 88922182.16341427 -16283417.70579311 -16283417.70579311 -6926316.723630731 0 0 0 0 0 89925265.00896314 -16020089.19579178 -16020089.19579178 -7152107.167106379 0 0 0 0 0 90886808.52607828 -15737577.23019565 -15737577.23019565 -7356859.084063109 0 0 0 0 0 91808151.73949483 -15438645.21603303 -15438645.21603303 -7542823.430923956 0 0 0 0 0 92689900.29578841 -15124309.81605745 -15124309.81605745 -7707992.366857585 0 0 0 0 0 93627446.53519914 -14749614.11071055 -14749614.11071055 -7272952.091428277 0 0 0 0 0 94300794.55809137 -14178628.66153758 -14178628.66153758 -7725610.750858078 0 0 0 0 0 94437239.88774127 -14433061.60099158 -14433061.60099158 -7423748.466816858 0 0 0 0 0 95041700.58179975 -13849042.21530217 -13849042.21530217 -7838140.432832 0 0 0 0 0 95746899.23367521 -13512584.31977897 -13512584.31977897 -7933956.952987101 0 0 0 0 0 96417169.16076912 -13170958.20218759 -13170958.20218759 -8014549.509026446 0 0 0 0 0 97054348.14899424 -12825268.65473739 -12825268.65473739 -8080825.945394515 0 0 0 0 0 97541586.86313206 -12270169.58896198 -12270169.58896198 -7896126.377075548 0 0 0 0 0 97788672.76099721 -12520881.4624331 -12520881.4624331 -7698696.350801904 0 0 0 0 0 98098641.26099814 -11934468.38909276 -11934468.38909276 -7937381.184625304 0 0 0 0 0 98625349.57650249 -11598308.83644632 -11598308.83644632 -7966118.407005896 0 0 0 0 0 99123065.24396209 -11262641.54093782 -11262641.54093782 -7983129.502102787 0 0 0 0 0 99592787.30413063 -10928345.17369641 -10928345.17369641 -7988997.439880831 0 0 0 0 0 100035655.7212095 -10596353.03688934 -10596353.03688934 -7984320.318068888 0 0 0 0 0 100979238.7989118 -10041256.8649787 -10041256.8649787 -7666244.479746135 0 0 0 0 0 100452456.8160537 -10267383.74250705 -10267383.74250705 -7969605.763213279 0 0 0 0 0 100666190.8792196 -9823441.202536173 -9823441.202536173 -7746278.612682994 0 0 0 0 0 101025995.2780275 -9513422.206359392 -9513422.206359392 -7719335.271401095 0 0 0 0 0 101364040.6634013 -9207295.847240506 -9207295.847240506 -7684827.301268696 0 0 0 0 0 101681944.0811212 -8904673.83187196 -8904673.83187196 -7642868.963382259 0 0 0 0 0 101979607.7121456 -8606190.244220555 -8606190.244220555 -7593808.748158589 0 0 0 0 0 102261712.3334876 -8314170.433341672 -8314170.433341672 -7538534.65073872 0 0 0 0 0 102643870.9479008 -8146069.493001641 -8146069.493001641 -7302827.420181151 0 0 0 0 0 102324228.8223048 -7965398.576870002 -7965398.576870002 -7300424.428213643 0 0 0 0 0 102547646.816295 -7698715.881147213 -7698715.881147213 -7233507.909604874 0 0 0 0 0 102762293.9750812 -7439385.895588792 -7439385.895588792 -7175611.793243349 0 0 0 0 0 102968972.0047497 -7180580.828885122 -7180580.828885122 -7108921.047047207 0 0 0 0 0 103274266.2815889 -7044590.506922774 -7044590.506922774 -6913586.066991153 0 0 0 0 0 102969361.8248336 -6888869.847366607 -6888869.847366607 -6889305.77792741 0 0 0 0 0 103143592.0503751 -6645326.544834547 -6645326.544834547 -6831070.156498284 0 0 0 0 0 103486310.8730872 -6174511.727233449 -6174511.727233449 -6672436.916683923 0 0 0 0 0 103329157.9031788 -6406035.269801812 -6406035.269801812 -6752787.82845457 0 0 0 0 0 103622127.5514281 -5945067.317393519 -5945067.317393519 -6589680.229539848 0 0 0 0 0 103759631.06772 -5722139.603819858 -5722139.603819858 -6506054.692736953 0 0 0 0 0 103890674.6716243 -5510561.260283326 -5510561.260283326 -6435065.074030729 0 0 0 0 0 104037611.2151656 -5294162.947619216 -5294162.947619216 -6300969.145862024 0 0 0 0 0 104031529.8255215 -5061038.226507431 -5061038.226507431 -6120830.311140738 0 0 0 0 0 104179102.6866939 -5136785.932707638 -5136785.932707638 -6146411.283633295 0 0 0 0 0 104029947.5135583 -4928350.850766134 -4928350.850766134 -6122922.966828097 0 0 0 0 0 104154352.1178303 -4788799.784164524 -4788799.784164524 -5849459.207792738 0 0 0 0 0 104243511.9695802 -4814829.740018068 -4814829.740018068 -5935663.773236133 0 0 0 0 0 78003956.68016666 -18776003.15007513 -18776003.15007513 -5102171.362914974 0 0 0 0 0 39611792.70933784 -969844.6130049599 -969844.6130049599 1736977.103416812 0 0 0 0 0 41628004.74702514 -3068715.032067356 -3068715.032067356 2176707.394402919 0 0 0 0 0 42257012.97023775 -5036577.762654672 -5036577.762654672 2020881.913159319 0 0 0 0 0 41954786.58280887 -5211749.338242609 -5211749.338242609 1670735.757343093 0 0 0 0 0 45013369.14758204 -7013608.941381087 -7013608.941381087 2117926.998736334 0 0 0 0 0 46158671.22696286 -8564435.096376708 -8564435.096376708 1887678.647272895 0 0 0 0 0 47445060.2415489 -10037026.91974332 -10037026.91974332 1601928.551614023 0 0 0 0 0 48843920.18855935 -11425651.51848174 -11425651.51848174 1263003.762735172 0 0 0 0 0 52004924.96408022 -12619638.66448369 -12619638.66448369 1068849.392175025 0 0 0 0 0 49363013.40886901 -11315186.95480178 -11315186.95480178 1129074.481650806 0 0 0 0 0 53553345.22979701 -13758301.01340287 -13758301.01340287 638772.4420974876 0 0 0 0 0 55175888.38052693 -14803011.64948886 -14803011.64948886 176965.1000541692 0 0 0 0 0 56860575.95303459 -15752366.67028487 -15752366.67028487 -310603.1158325236 0 0 0 0 0 58594655.06229014 -16606179.45590615 -16606179.45590615 -818563.3249997578 0 0 0 0 0 60366875.01449649 -17364897.36936274 -17364897.36936274 -1341233.697160229 0 0 0 0 0 62164674.40723348 -18029371.64156624 -18029371.64156624 -1873566.54043445 0 0 0 0 0 63421860.45762742 -17626953.09976802 -17626953.09976802 -1680029.133192086 0 0 0 0 0 65111914.83800972 -18174181.52502786 -18174181.52502786 -2213289.341068935 0 0 0 0 0 66855475.68952317 -18630673.83420658 -18630673.83420658 -2738293.938812213 0 0 0 0 0 68600501.63314232 -19007502.85107158 -19007502.85107158 -3259661.232256952 0 0 0 0 0 70331695.93734334 -19314110.71235135 -19314110.71235135 -3769312.06212737 0 0 0 0 0 71993697.48354948 -19541929.663601 -19541929.663601 -4264796.022477193 0 0 0 0 0 73608119.36388718 -19670945.84728281 -19670945.84728281 -4725934.068608942 0 0 0 0 0 75058296.41914177 -19151566.91540715 -19151566.91540715 -4303116.971345858 0 0 0 0 0 75928832.4488734 -19232048.59186509 -19232048.59186509 -4916275.698617289 0 0 0 0 0 77483416.5068655 -19264543.88555116 -19264543.88555116 -5356568.445593275 0 0 0 0 0 79328547.55690086 -18284990.2226739 -18284990.2226739 -4672666.793210019 0 0 0 0 0 80753022.5580723 -18252798.42093188 -18252798.42093188 -5046084.59314679 0 0 0 0 0 82508684.13995454 -17739099.69830826 -17739099.69830826 -5183915.729415719 0 0 0 0 0 81263120.10516146 -18198054.16961949 -18198054.16961949 -5610129.692540136 0 0 0 0 0 83830709.6173936 -17635583.54241193 -17635583.54241193 -5533069.298693121 0 0 0 0 0 85108507.10015306 -17493630.18561777 -17493630.18561777 -5863526.121659298 0 0 0 0 0 86343695.94863731 -17317120.11577056 -17317120.11577056 -6174648.049067408 0 0 0 0 0 87528317.22762585 -17109220.87694332 -17109220.87694332 -6465260.853523337 0 0 0 0 0 88806594.40485965 -16487781.97988104 -16487781.97988104 -6485026.758666901 0 0 0 0 0 87696524.0117543 -16915674.31346437 -16915674.31346437 -6937370.308663326 0 0 0 0 0 89861820.56522477 -16239452.6841611 -16239452.6841611 -6731290.37313337 0 0 0 0 0 90877135.09185679 -15969585.73289906 -15969585.73289906 -6958158.817201902 0 0 0 0 0 91847114.44141966 -15680640.23718154 -15680640.23718154 -7166449.411621328 0 0 0 0 0 92770513.93930951 -15375573.17018268 -15375573.17018268 -7355035.215867796 0 0 0 0 0 93648252.66917889 -15056304.20962836 -15056304.20962836 -7524912.537013976 0 0 0 0 0 93530620.61630273 -14797946.02901975 -14797946.02901975 -7853361.383527977 0 0 0 0 0 95208295.75980319 -14106780.63270084 -14106780.63270084 -7557592.296471829 0 0 0 0 0 94331764.5943505 -14461912.68998628 -14461912.68998628 -7981538.331948735 0 0 0 0 0 95941419.75412841 -13772487.87007449 -13772487.87007449 -7675161.186658227 0 0 0 0 0 96636285.09531808 -13431557.14796269 -13431557.14796269 -7776456.586166936 0 0 0 0 0 97294655.69281156 -13085694.66554853 -13085694.66554853 -7862350.598244546 0 0 0 0 0 97918492.04091327 -12736146.80424761 -12736146.80424761 -7933605.974903643 0 0 0 0 0 98362661.01559134 -12183229.77029053 -12183229.77029053 -7758792.529199794 0 0 0 0 0 97657691.99045727 -12477025.85447496 -12477025.85447496 -8131607.271824531 0 0 0 0 0 98904488.4950625 -11844514.79816029 -11844514.79816029 -7805988.932148563 0 0 0 0 0 99415210.65410416 -11505453.10495292 -11505453.10495292 -7840485.670473781 0 0 0 0 0 99896084.43708831 -11167183.33000051 -11167183.33000051 -7863242.919559184 0 0 0 0 0 100348227.4889447 -10830552.92285036 -10830552.92285036 -7874893.261403447 0 0 0 0 0 100772613.4988182 -10496430.2788652 -10496430.2788652 -7876030.947611292 0 0 0 0 0 100842584.8251121 -9942128.665972982 -9942128.665972982 -7944495.372092 0 0 0 0 0 101169525.5264404 -10165930.11549625 -10165930.11549625 -7867706.950352212 0 0 0 0 0 101343702.9410783 -9726254.770435516 -9726254.770435516 -7652514.54019112 0 0 0 0 0 101685766.7925399 -9414834.444006216 -9414834.444006216 -7630200.289813778 0 0 0 0 0 102007436.5996335 -9106726.205639629 -9106726.205639629 -7599406.712449556 0 0 0 0 0 102307872.7081369 -8803136.681350807 -8803136.681350807 -7562274.150401857 0 0 0 0 0 102588801.9569419 -8503759.283275856 -8503759.283275856 -7517826.547137009 0 0 0 0 0 102848817.9174937 -8211620.700886111 -8211620.700886111 -7468671.489047186 0 0 0 0 0 102520130.1249784 -8028362.987374916 -8028362.987374916 -7472568.648979968 0 0 0 0 0 102868892.1942123 -7875860.359305097 -7875860.359305097 -7259274.267511281 0 0 0 0 0 103078038.769041 -7607186.94106091 -7607186.94106091 -7194543.168026458 0 0 0 0 0 103280660.6092586 -7342736.263104795 -7342736.263104795 -7123379.550766601 0 0 0 0 0 103470043.0275097 -7081992.928680509 -7081992.928680509 -7056293.748515424 0 0 0 0 0 103156824.3621138 -6924004.783053474 -6924004.783053474 -7035613.042259901 0 0 0 0 0 103454080.4457021 -6790328.908260782 -6790328.908260782 -6840538.948094137 0 0 0 0 0 103620185.9108189 -6545868.977902977 -6545868.977902977 -6784883.293140753 0 0 0 0 0 103915802.365499 -6079222.272290337 -6079222.272290337 -6634641.425798592 0 0 0 0 0 103775776.3641283 -6308774.335613841 -6308774.335613841 -6712285.013084456 0 0 0 0 0 104047136.2787658 -5849576.702194288 -5849576.702194288 -6553082.729723148 0 0 0 0 0 104169176.8956193 -5627644.267758438 -5627644.267758438 -6472600.481817031 0 0 0 0 0 104282039.8691801 -5413260.478431904 -5413260.478431904 -6385722.94171275 0 0 0 0 0 104360526.5124656 -5215759.822603193 -5215759.822603193 -6329886.783770558 0 0 0 0 0 104290029.3582375 -5006677.825861574 -5006677.825861574 -6165253.030647557 0 0 0 0 0 104115168.7750388 -5094943.278305799 -5094943.278305799 -6272470.185158395 0 0 0 0 0 104336500.5247052 -4835465.259017942 -4835465.259017942 -6035783.220177124 0 0 0 0 0 104042364.3431391 -4718507.287985379 -4718507.287985379 -5998948.278876293 0 0 0 0 0 104164912.3576293 -4763527.157215494 -4763527.157215494 -6070525.773441664 0 0 0 0 0 104269315.1059476 -4580169.172198609 -4580169.172198609 -5793243.419817457 0 0 0 0 0 104514868.9596373 -4181041.383584629 -4181041.383584629 -5655660.215800824 0 0 0 0 0 104405105.9215605 -4377234.15419085 -4377234.15419085 -5723820.816101546 0 0 0 0 0 78860115.94609971 -18765518.79498761 -18765518.79498761 -4914439.269076523 0 0 0 0 0 38581338.02644759 -796259.6658017344 -796259.6658017344 1505377.930695291 0 0 0 0 0 38760733.13066681 -2951541.97463616 -2951541.97463616 1338252.002028073 0 0 0 0 0 39879165.96056066 -4876814.209854439 -4876814.209854439 1322480.477742306 0 0 0 0 0 43174825.55919801 -6804368.397321409 -6804368.397321409 1831925.589739659 0 0 0 0 0 43163791.2878833 -6872602.576520161 -6872602.576520161 1580379.649032945 0 0 0 0 0 44510746.56121767 -8441697.789954279 -8441697.789954279 1411555.161546636 0 0 0 0 0 45986339.36219657 -9930126.144084454 -9930126.144084454 1180808.403641863 0 0 0 0 0 47584126.54761732 -11333723.45928211 -11333723.45928211 899501.938600893 0 0 0 0 0 51015189.38891233 -12558874.76892526 -12558874.76892526 791049.7189302811 0 0 0 0 0 50349513.67874057 -12722515.45007075 -12722515.45007075 877791.5662967245 0 0 0 0 0 52749623.49994585 -13708965.24913632 -13708965.24913632 413174.0031526849 0 0 0 0 0 54554159.18158504 -14763263.18293946 -14763263.18293946 1399.885488401809 0 0 0 0 0 56414564.66322444 -15720651.78953477 -15720651.78953477 -438736.5622122111 0 0 0 0 0 58318674.64412515 -16580929.34321164 -16580929.34321164 -901677.6042610569 0 0 0 0 0 60253423.30745413 -17344496.05832447 -17344496.05832447 -1382219.376285333 0 0 0 0 0 62207137.02846251 -18012371.30107015 -18012371.30107015 -1875023.725515926 0 0 0 0 0 63977941.5661765 -18601301.80053794 -18601301.80053794 -2409558.605899336 0 0 0 0 0 65297873.66358344 -18170015.62438218 -18170015.62438218 -2171841.128743836 0 0 0 0 0 67170293.235494 -18627268.6777252 -18627268.6777252 -2665573.193793394 0 0 0 0 0 69031564.27354716 -19002819.38811667 -19002819.38811667 -3159847.588635166 0 0 0 0 0 70847961.36347254 -19300546.90651727 -19300546.90651727 -3650346.231504151 0 0 0 0 0 72644401.41373159 -19523027.98931154 -19523027.98931154 -4118765.785780333 0 0 0 0 0 74445519.25938992 -19663136.46516214 -19663136.46516214 -4568488.666697669 0 0 0 0 0 75264387.64025386 -19734169.2345789 -19734169.2345789 -5172499.218976642 0 0 0 0 0 76699269.66710719 -19219560.69364577 -19219560.69364577 -4740607.8090641 0 0 0 0 0 78330770.32360187 -19243912.11130683 -19243912.11130683 -5166468.021089151 0 0 0 0 0 79433044.90079455 -18741906.3624167 -18741906.3624167 -5490424.185745955 0 0 0 0 0 80828922.01668046 -18664175.69664983 -18664175.69664983 -5867348.169284432 0 0 0 0 0 82593918.75308545 -18094354.53981744 -18094354.53981744 -5972241.226953623 0 0 0 0 0 82130751.35509717 -18180213.93212181 -18180213.93212181 -5412614.888460402 0 0 0 0 0 83884857.8003405 -17953018.17299469 -17953018.17299469 -6317311.534113141 0 0 0 0 0 85137634.35006097 -17773367.61913306 -17773367.61913306 -6637954.620640924 0 0 0 0 0 86346639.55977587 -17559846.46217235 -17559846.46217235 -6934072.663387436 0 0 0 0 0 87510103.13968717 -17317641.5608529 -17317641.5608529 -7206271.485668351 0 0 0 0 0 88776735.63937131 -16660935.91831358 -16660935.91831358 -7186343.890458995 0 0 0 0 0 88663890.91054296 -16873202.51293812 -16873202.51293812 -6735349.717848036 0 0 0 0 0 89814637.73680544 -16384559.8689459 -16384559.8689459 -7416058.620900078 0 0 0 0 0 90813729.29148923 -16086812.92114578 -16086812.92114578 -7623818.776026383 0 0 0 0 0 91766013.27093406 -15773256.30142671 -15773256.30142671 -7811545.70103143 0 0 0 0 0 92676758.94564596 -15444104.58816644 -15444104.58816644 -7976582.052432412 0 0 0 0 0 93544639.36957645 -15102501.78352914 -15102501.78352914 -8121418.153552229 0 0 0 0 0 94482209.9960562 -14725249.32630373 -14725249.32630373 -7676015.629938395 0 0 0 0 0 95094808.41627611 -14117570.42063308 -14117570.42063308 -8092656.554273671 0 0 0 0 0 95274681.6175794 -14384170.64268558 -14384170.64268558 -7809245.209181682 0 0 0 0 0 95820511.24628246 -13766092.4872655 -13766092.4872655 -8186537.674457044 0 0 0 0 0 96509199.48755075 -13409667.0791296 -13409667.0791296 -8264229.441851114 0 0 0 0 0 97162401.54956818 -13049530.00291052 -13049530.00291052 -8326644.687535854 0 0 0 0 0 97781698.32653169 -12686663.75194624 -12686663.75194624 -8374881.509201771 0 0 0 0 0 98228216.97625178 -12127888.24196971 -12127888.24196971 -8169330.059846921 0 0 0 0 0 98507090.87929237 -12384509.25617134 -12384509.25617134 -7991379.492581938 0 0 0 0 0 98767137.32701194 -11778396.00461337 -11778396.00461337 -8193975.424524946 0 0 0 0 0 99275698.84726366 -11429712.98595122 -11429712.98595122 -8206445.350864184 0 0 0 0 0 99755011.7336065 -11082766.36423262 -11082766.36423262 -8207608.12739178 0 0 0 0 0 100206186.9408355 -10738352.5639305 -10738352.5639305 -8197992.98873808 0 0 0 0 0 100630418.3826913 -10397674.26831925 -10397674.26831925 -8178270.867164658 0 0 0 0 0 101539837.071016 -9839865.450503312 -9839865.450503312 -7849861.79362243 0 0 0 0 0 101027552.8216728 -10060773.23577031 -10060773.23577031 -8148001.480502696 0 0 0 0 0 101207412.3267806 -9621733.8943475 -9621733.8943475 -7912114.752952557 0 0 0 0 0 101549551.3275267 -9305563.282255633 -9305563.282255633 -7872399.360296783 0 0 0 0 0 101871696.5712851 -8993249.415175395 -8993249.415175395 -7825040.688587269 0 0 0 0 0 102173019.6294811 -8685596.478383092 -8685596.478383092 -7770659.245195041 0 0 0 0 0 102456034.8665876 -8384043.387481343 -8384043.387481343 -7709896.845437247 0 0 0 0 0 102719421.0237504 -8090128.367031824 -8090128.367031824 -7641906.67375319 0 0 0 0 0 103081262.7822188 -7930841.185056045 -7930841.185056045 -7419039.41569124 0 0 0 0 0 102750199.7603738 -7750960.031396458 -7750960.031396458 -7395679.459509729 0 0 0 0 0 102962450.6411408 -7482314.227034203 -7482314.227034203 -7321532.953148168 0 0 0 0 0 103161244.0759391 -7219578.552798103 -7219578.552798103 -7254093.977449379 0 0 0 0 0 103350984.6619689 -6958399.812538335 -6958399.812538335 -7176981.751097809 0 0 0 0 0 103649050.459121 -6825337.092700209 -6825337.092700209 -6985142.657051027 0 0 0 0 0 103337588.6921829 -6670524.577962348 -6670524.577962348 -6960943.376228538 0 0 0 0 0 103509786.2476714 -6427119.715955529 -6427119.715955529 -6881915.459062882 0 0 0 0 0 103668460.3892119 -6190776.054153477 -6190776.054153477 -6798201.481344694 0 0 0 0 0 103807794.5773819 -5957649.18179228 -5957649.18179228 -6711839.742199327 0 0 0 0 0 103942298.2225777 -5730327.50805836 -5730327.50805836 -6623923.971151579 0 0 0 0 0 104068691.370704 -5511373.589821046 -5511373.589821046 -6533974.072715777 0 0 0 0 0 104173569.0115744 -5295355.631038735 -5295355.631038735 -6445511.846147884 0 0 0 0 0 104265402.4594039 -5089725.883876042 -5089725.883876042 -6351247.202056137 0 0 0 0 0 104227012.0996995 -4893790.231968464 -4893790.231968464 -6142780.499423839 0 0 0 0 0 104457653.9705958 -4998342.556945089 -4998342.556945089 -6220806.821595388 0 0 0 0 0 104336687.5328199 -4709975.519286292 -4709975.519286292 -5990201.625884552 0 0 0 0 0 104380440.9688868 -4615855.337513242 -4615855.337513242 -5884785.257886329 0 0 0 0 0 104172355.8144498 -4519172.417441075 -4519172.417441075 -5925254.637333525 0 0 0 0 0 104295123.8331224 -4309502.937647132 -4309502.937647132 -5839213.617230937 0 0 0 0 0 104400051.8420459 -4112883.650162806 -4112883.650162806 -5767262.316909949 0 0 0 0 0 104613811.833041 -3986514.510104634 -3986514.510104634 -5584601.595808785 0 0 0 0 0 78952637.92972218 -19230374.30465664 -19230374.30465664 -5766519.99145146 0 0 0 0 0 37685657.06235723 -951974.8910201645 -951974.8910201645 1318312.439201738 0 0 0 0 0 39216125.55696007 -2761280.106921228 -2761280.106921228 1600620.605943694 0 0 0 0 0 40609008.61209378 -4570135.835191043 -4570135.835191043 1711539.779308519 0 0 0 0 0 41346383.1697019 -6519967.408096109 -6519967.408096109 1528605.262444882 0 0 0 0 0 41191889.68731245 -6636788.626943797 -6636788.626943797 1244161.16605306 0 0 0 0 0 44329361.09100571 -8438088.779176237 -8438088.779176237 1621498.00387076 0 0 0 0 0 45630768.99586704 -9985297.409249738 -9985297.409249738 1350891.71236265 0 0 0 0 0 47067595.68897649 -11445278.39142588 -11445278.39142588 1026122.421873901 0 0 0 0 0 48618952.8881532 -12810225.84181184 -12810225.84181184 650668.7128470502 0 0 0 0 0 51948485.55817454 -13923131.49021664 -13923131.49021664 451442.5887252757 0 0 0 0 0 49287273.31608752 -12644006.18487094 -12644006.18487094 570515.8424634854 0 0 0 0 0 53629816.95589123 -15024687.2983032 -15024687.2983032 -9243.739954751321 0 0 0 0 0 55378575.6311501 -16026110.10437383 -16026110.10437383 -498400.9934540793 0 0 0 0 0 57182202.95400698 -16927208.64573169 -16927208.64573169 -1010191.942825258 0 0 0 0 0 59027619.64243434 -17728354.73723439 -17728354.73723439 -1539184.945871723 0 0 0 0 0 60902696.31142977 -18430525.2107144 -18430525.2107144 -2079246.860874813 0 0 0 0 0 62794654.10366558 -19035349.05625529 -19035349.05625529 -2624802.833629732 0 0 0 0 0 64166113.84954099 -18586188.42416368 -18586188.42416368 -2374994.007688873 0 0 0 0 0 65798358.26543957 -19083336.18615467 -19083336.18615467 -2944742.599390136 0 0 0 0 0 67620371.95594467 -19479797.2238716 -19479797.2238716 -3476045.524292343 0 0 0 0 0 69435000.96938092 -19800053.95557161 -19800053.95557161 -3996000.23842668 0 0 0 0 0 71192766.33468138 -20038361.74582147 -20038361.74582147 -4513484.4732331 0 0 0 0 0 72926962.48803647 -20193830.40477398 -20193830.40477398 -5013488.247115147 0 0 0 0 0 74582313.76395974 -20269249.97394729 -20269249.97394729 -5463532.806538704 0 0 0 0 0 76125857.46274196 -19716844.23303542 -19716844.23303542 -4989636.481307311 0 0 0 0 0 76900773.05316463 -19759395.55188877 -19759395.55188877 -5617137.325034729 0 0 0 0 0 78485771.12248001 -19730626.17678053 -19730626.17678053 -6045214.636801189 0 0 0 0 0 80338268.37073328 -18729143.15645381 -18729143.15645381 -5297183.877764311 0 0 0 0 0 81763310.87861086 -18642858.16892424 -18642858.16892424 -5670781.348993938 0 0 0 0 0 83502252.92016301 -18071021.42931415 -18071021.42931415 -5769892.920072887 0 0 0 0 0 82213251.06983948 -18550050.22130663 -18550050.22130663 -6231377.491525501 0 0 0 0 0 84844219.84511633 -17922104.89524737 -17922104.89524737 -6108850.849171507 0 0 0 0 0 86125578.88894425 -17736282.20965477 -17736282.20965477 -6426146.292644978 0 0 0 0 0 87351514.87813085 -17517127.60242207 -17517127.60242207 -6723094.831881325 0 0 0 0 0 88526657.82767801 -17268868.94823528 -17268868.94823528 -6997783.515175527 0 0 0 0 0 89754933.24217242 -16612045.21499599 -16612045.21499599 -6985294.598469067 0 0 0 0 0 88629378.03309244 -17049286.71532801 -17049286.71532801 -7457274.633524881 0 0 0 0 0 90804999.31908154 -16329200.55309747 -16329200.55309747 -7216313.184011949 0 0 0 0 0 91807181.92181665 -16025288.90449948 -16025288.90449948 -7426557.168034703 0 0 0 0 0 92767448.69604349 -15703817.7841854 -15703817.7841854 -7617497.470056923 0 0 0 0 0 93675445.3819868 -15369044.23463959 -15369044.23463959 -7788853.069591998 0 0 0 0 0 94535104.94683786 -15023023.09522834 -15023023.09522834 -7940885.375984401 0 0 0 0 0 94370163.17386532 -14750788.42423388 -14750788.42423388 -8247393.226272488 0 0 0 0 0 96029128.91814692 -14034973.26928446 -14034973.26928446 -7925461.881004342 0 0 0 0 0 95155335.89436848 -14391182.11590085 -14391182.11590085 -8356650.494763262 0 0 0 0 0 96743371.65063347 -13679004.42110277 -13679004.42110277 -8025158.62952073 0 0 0 0 0 97418945.98851261 -13318384.25011729 -13318384.25011729 -8108787.809660892 0 0 0 0 0 98057096.16977505 -12954349.56481229 -12954349.56481229 -8176986.022195667 0 0 0 0 0 98660625.59458971 -12588106.47960444 -12588106.47960444 -8230715.147568719 0 0 0 0 0 99061479.88870703 -12032104.53775819 -12032104.53775819 -8035178.102589876 0 0 0 0 0 98366747.02518113 -12323216.9150503 -12323216.9150503 -8408446.772714244 0 0 0 0 0 99583361.23553315 -11679788.87274309 -11679788.87274309 -8065920.208855531 0 0 0 0 0 100073633.695794 -11328520.12523449 -11328520.12523449 -8084481.354855306 0 0 0 0 0 100534371.9453729 -10979277.03048873 -10979277.03048873 -8091586.975436809 0 0 0 0 0 100966431.0221768 -10632827.38489438 -10632827.38489438 -8087962.899055681 0 0 0 0 0 101369782.3159457 -10290466.38751886 -10290466.38751886 -8074546.303380906 0 0 0 0 0 101398524.4336338 -9729107.95887043 -9729107.95887043 -8109606.494368458 0 0 0 0 0 101745034.1127618 -9952913.215840906 -9952913.215840906 -8051864.781495309 0 0 0 0 0 101886102.2539851 -9517903.866770633 -9517903.866770633 -7822372.32062069 0 0 0 0 0 102210930.0988897 -9199960.941214029 -9199960.941214029 -7786414.470344425 0 0 0 0 0 102514431.2622625 -8886652.442626884 -8886652.442626884 -7743853.449917297 0 0 0 0 0 102797099.8613494 -8578333.074551169 -8578333.074551169 -7694366.301028625 0 0 0 0 0 103059597.7021027 -8276298.923949611 -8276298.923949611 -7638949.900843903 0 0 0 0 0 103299626.5241226 -7983326.264852686 -7983326.264852686 -7579583.613678384 0 0 0 0 0 102957408.1541605 -7799405.978716922 -7799405.978716922 -7557027.936978005 0 0 0 0 0 103291138.7798904 -7656616.771075395 -7656616.771075395 -7355173.376192423 0 0 0 0 0 103485024.9809509 -7385473.775170634 -7385473.775170634 -7285005.053160028 0 0 0 0 0 103673370.0231871 -7117439.789632875 -7117439.789632875 -7203520.104682019 0 0 0 0 0 103851514.1396066 -6855956.20698521 -6855956.20698521 -7127568.114561422 0 0 0 0 0 103531344.1442837 -6700876.575114735 -6700876.575114735 -7095625.810157478 0 0 0 0 0 103814128.4855572 -6574347.647363719 -6574347.647363719 -6912524.022883456 0 0 0 0 0 103967230.3431776 -6329158.470716693 -6329158.470716693 -6839274.253464497 0 0 0 0 0 104107601.1285022 -6092180.169205002 -6092180.169205002 -6760344.508999568 0 0 0 0 0 104236694.4118868 -5859965.185687696 -5859965.185687696 -6675789.765397085 0 0 0 0 0 104354822.8154235 -5633895.875781761 -5633895.875781761 -6591073.728437546 0 0 0 0 0 104460577.9565884 -5416306.260950416 -5416306.260950416 -6505612.862175939 0 0 0 0 0 104550487.7490717 -5207235.94112261 -5207235.94112261 -6421020.561371648 0 0 0 0 0 104637888.3316224 -4994777.91279714 -4994777.91279714 -6322642.38132649 0 0 0 0 0 104541052.7987934 -4799724.009990424 -4799724.009990424 -6142651.452434894 0 0 0 0 0 104349978.8209473 -4885782.551131405 -4885782.551131405 -6260999.665091959 0 0 0 0 0 104559216.3763684 -4651598.121588474 -4651598.121588474 -6086887.263543567 0 0 0 0 0 104289794.1718383 -4557510.475292954 -4557510.475292954 -6020483.922142516 0 0 0 0 0 104534603.9762433 -4421162.881011858 -4421162.881011858 -5818270.826406724 0 0 0 0 0 104622337.0157959 -4224625.037585489 -4224625.037585489 -5754555.744702627 0 0 0 0 0 104714987.9406435 -4030281.100270477 -4030281.100270477 -5669240.695693232 0 0 0 0 0 104513663.6968646 -3927123.942636168 -3927123.942636168 -5666977.205824248 0 0 0 0 0 104715423.7599522 -3805504.51219948 -3805504.51219948 -5506989.903762446 0 0 0 0 0 104781750.6217937 -3618492.147431997 -3618492.147431997 -5434591.979531036 0 0 0 0 0 79918045.4878698 -19209232.34677092 -19209232.34677092 -5566232.283042372 0 0 0 0 0 36577531.5652984 -727026.0739020733 -727026.0739020733 977168.2738184819 0 0 0 0 0 37315240.31164639 -2494353.775728366 -2494353.775728366 1025345.659452308 0 0 0 0 0 37951587.83157122 -4425255.346088883 -4425255.346088883 936326.9748855942 0 0 0 0 0 39157914.02362465 -6370862.125915854 -6370862.125915854 891762.7886514354 0 0 0 0 0 42427863.28577178 -8278226.716227033 -8278226.716227033 1313258.982957571 0 0 0 0 0 42570314.90594736 -8292898.099715435 -8292898.099715435 1102543.265143376 0 0 0 0 0 44083740.10294333 -9857290.75353549 -9857290.75353549 894572.2847371359 0 0 0 0 0 45724509.50939957 -11332124.81383767 -11332124.81383767 628223.0394090582 0 0 0 0 0 47485843.77887084 -12710285.7829208 -12710285.7829208 312319.8093053846 0 0 0 0 0 51084550.89526194 -13856271.62805808 -13856271.62805808 199561.331152424 0 0 0 0 0 50274473.86980392 -14074669.26082045 -14074669.26082045 231836.3876858677 0 0 0 0 0 52958195.07066751 -14968301.12645604 -14968301.12645604 -208016.466081451 0 0 0 0 0 54893484.09833284 -15978698.76632498 -15978698.76632498 -646535.3288507982 0 0 0 0 0 56876250.7599405 -16887188.30994764 -16887188.30994764 -1110519.123950505 0 0 0 0 0 58893973.68692932 -17694184.02081832 -17694184.02081832 -1594360.248519914 0 0 0 0 0 60932301.37238374 -18400516.7326709 -18400516.7326709 -2092566.495987848 0 0 0 0 0 62980283.47465376 -19007707.84183524 -19007707.84183524 -2599280.879294058 0 0 0 0 0 64694492.93079189 -19544583.95470195 -19544583.95470195 -3170992.694090677 0 0 0 0 0 66123187.03494363 -19068838.83064874 -19068838.83064874 -2877370.973053974 0 0 0 0 0 68068121.64645213 -19464137.15124288 -19464137.15124288 -3379712.346560748 0 0 0 0 0 69991724.83595113 -19777487.94175208 -19777487.94175208 -3875565.065673251 0 0 0 0 0 71878460.81671181 -20013609.00616004 -20013609.00616004 -4363434.616571713 0 0 0 0 0 73720484.06616284 -20176777.25756732 -20176777.25756732 -4839284.272253222 0 0 0 0 0 75541717.69620271 -20247708.41179583 -20247708.41179583 -5269266.317449592 0 0 0 0 0 76268526.33013555 -20282258.39817155 -20282258.39817155 -5905010.340559867 0 0 0 0 0 77805252.88220249 -19738437.33602791 -19738437.33602791 -5415317.905343092 0 0 0 0 0 79433829.70698479 -19703020.50581698 -19703020.50581698 -5836186.009500504 0 0 0 0 0 80410838.09006566 -19150696.87299542 -19150696.87299542 -6146132.688073763 0 0 0 0 0 81819516.4514609 -19023172.32752021 -19023172.32752021 -6499817.999818671 0 0 0 0 0 83561904.69628331 -18400158.35113393 -18400158.35113393 -6584259.745685976 0 0 0 0 0 83149443.95285897 -18521285.11360227 -18521285.11360227 -6024131.808114082 0 0 0 0 0 84861186.94390741 -18210898.46956293 -18210898.46956293 -6913712.451950251 0 0 0 0 0 86117184.25569133 -17986945.58260791 -17986945.58260791 -7215442.359513448 0 0 0 0 0 87325919.77826767 -17731005.18893711 -17731005.18893711 -7490649.224266179 0 0 0 0 0 88484526.63528095 -17448470.66671637 -17448470.66671637 -7743700.290013694 0 0 0 0 0 89705203.26032645 -16758777.78839819 -16758777.78839819 -7689651.647884807 0 0 0 0 0 89653844.97095744 -16993746.84831979 -16993746.84831979 -7250911.673897047 0 0 0 0 0 90737707.82615855 -16446354.27218522 -16446354.27218522 -7898450.668984641 0 0 0 0 0 91728341.27580155 -16116410.86776193 -16116410.86776193 -8087978.590110265 0 0 0 0 0 92673113.02591662 -15770213.56406857 -15770213.56406857 -8253826.271497332 0 0 0 0 0 93569402.98725352 -15412794.62945329 -15412794.62945329 -8398574.158342548 0 0 0 0 0 94418556.88279632 -15044949.06780275 -15044949.06780275 -8522319.772141475 0 0 0 0 0 95350707.83313222 -14666459.28150985 -14666459.28150985 -8071523.277063778 0 0 0 0 0 95902255.61217658 -14023910.38656611 -14023910.38656611 -8447815.169665055 0 0 0 0 0 96126036.49908705 -14301883.4774648 -14301883.4774648 -8185545.549541241 0 0 0 0 0 96610251.2472562 -13651890.91508555 -13651890.91508555 -8522543.7447678 0 0 0 0 0 97280408.52205512 -13276404.92485111 -13276404.92485111 -8581115.52606296 0 0 0 0 0 97914335.76444454 -12899069.25058355 -12899069.25058355 -8624762.1329698 0 0 0 0 0 98514157.90864971 -12520562.63251239 -12520562.63251239 -8654792.522032401 0 0 0 0 0 98918333.86871631 -11959821.76607522 -11959821.76607522 -8428478.317426836 0 0 0 0 0 99228296.83382016 -12221255.6175006 -12221255.6175006 -8271330.293033905 0 0 0 0 0 99438015.64518271 -11597491.42147499 -11597491.42147499 -8436070.319668356 0 0 0 0 0 99926940.626701 -11237567.23908174 -11237567.23908174 -8432155.71657306 0 0 0 0 0 100386711.2145554 -10880348.80926241 -10880348.80926241 -8417188.767986422 0 0 0 0 0 100818670.1824861 -10527112.74897002 -10527112.74897002 -8391863.71169992 0 0 0 0 0 101222450.764855 -10178228.09296863 -10178228.09296863 -8356298.568958517 0 0 0 0 0 102096062.6087452 -9620078.414710902 -9620078.414710902 -8019209.14426675 0 0 0 0 0 101598690.9857524 -9835371.29342662 -9835371.29342662 -8311803.989978487 0 0 0 0 0 101745312.024989 -9402187.748976171 -9402187.748976171 -8063944.958524378 0 0 0 0 0 102070622.4648116 -9080044.277525611 -9080044.277525611 -8011068.916592161 0 0 0 0 0 102375210.586824 -8762821.131439809 -8762821.131439809 -7950865.774614178 0 0 0 0 0 102659689.9760403 -8451806.220500439 -8451806.220500439 -7884439.299574858 0 0 0 0 0 102925096.6351705 -8148317.899098936 -8148317.899098936 -7811540.841357443 0 0 0 0 0 103168497.9885939 -7850336.659752675 -7850336.659752675 -7730725.748406311 0 0 0 0 0 103510680.8569472 -7700785.319020601 -7700785.319020601 -7521174.043585799 0 0 0 0 0 103169662.6184774 -7522099.639867042 -7522099.639867042 -7479739.863768662 0 0 0 0 0 103367625.9964416 -7253266.35933488 -7253266.35933488 -7396738.818129016 0 0 0 0 0 103551477.9062773 -6989775.552889462 -6989775.552889462 -7320132.989190391 0 0 0 0 0 103730973.986264 -6726124.048735937 -6726124.048735937 -7232963.628327023 0 0 0 0 0 104015584.8199459 -6598936.901293572 -6598936.901293572 -7049280.963013976 0 0 0 0 0 103698363.0427233 -6448942.742900396 -6448942.742900396 -7011355.335854597 0 0 0 0 0 103855639.7890955 -6204996.412754259 -6204996.412754259 -6923781.400266516 0 0 0 0 0 103998218.279589 -5967424.327292806 -5967424.327292806 -6833100.598046619 0 0 0 0 0 104129451.2692564 -5735634.099090413 -5735634.099090413 -6740405.881405415 0 0 0 0 0 104251207.5191985 -5511257.753226425 -5511257.753226425 -6645746.713578235 0 0 0 0 0 104359321.3787312 -5293987.620009406 -5293987.620009406 -6549459.08725848 0 0 0 0 0 104450424.9759771 -5080931.638133862 -5080931.638133862 -6450715.855514836 0 0 0 0 0 104540190.8133665 -4872793.095157704 -4872793.095157704 -6353439.430973718 0 0 0 0 0 104461205.0977319 -4694787.069254018 -4694787.069254018 -6150226.063671328 0 0 0 0 0 104716420.1487965 -4793201.912415622 -4793201.912415622 -6236528.91185521 0 0 0 0 0 104509597.4565807 -4513041.237174316 -4513041.237174316 -6066129.073547256 0 0 0 0 0 104658154.621359 -4435144.190028146 -4435144.190028146 -5932442.69412177 0 0 0 0 0 104411949.3221898 -4332732.275212483 -4332732.275212483 -5916411.104843136 0 0 0 0 0 104498797.2207982 -4138296.509518598 -4138296.509518598 -5827888.069964637 0 0 0 0 0 104572746.0788974 -3949441.258259801 -3949441.258259801 -5755780.026010157 0 0 0 0 0 104795469.2979241 -3840605.394246162 -3840605.394246162 -5584404.667733085 0 0 0 0 0 104606645.4558735 -3741501.45401459 -3741501.45401459 -5617900.060231375 0 0 0 0 0 104686244.0490204 -3564130.017554188 -3564130.017554188 -5533041.389707439 0 0 0 0 0 104879317.2739107 -3432651.972152293 -3432651.972152293 -5347819.402705257 0 0 0 0 0 79989520.05548504 -19651386.73751427 -19651386.73751427 -6441085.182462551 0 0 0 0 0 35599164.92474685 -956272.4803368438 -956272.4803368438 673595.4770589018 0 0 0 0 0 36837973.80894168 -2590269.164706514 -2590269.164706514 981733.2822035884 0 0 0 0 0 38001585.51285273 -4353725.727458361 -4353725.727458361 1127790.377152591 0 0 0 0 0 39390154.93933562 -6252403.29138018 -6252403.29138018 1099988.559687213 0 0 0 0 0 40483489.45954461 -8093008.150101207 -8093008.150101207 934580.8508171447 0 0 0 0 0 40551521.62042738 -8119717.334040238 -8119717.334040238 757129.1765113539 0 0 0 0 0 43753170.12271551 -9907295.082172466 -9907295.082172466 1057085.808713944 0 0 0 0 0 45218297.00730869 -11443326.12966884 -11443326.12966884 745397.7377530982 0 0 0 0 0 46813851.88909898 -12879841.05327782 -12879841.05327782 382429.7884681121 0 0 0 0 0 48519920.33972129 -14213072.82429777 -14213072.82429777 -27221.12879711551 0 0 0 0 0 52014549.66759496 -15236904.40792734 -15236904.40792734 -225308.3896404086 0 0 0 0 0 49344398.3627792 -13988136.08689794 -13988136.08689794 -49258.10318341616 0 0 0 0 0 53829293.16665222 -16294191.92068997 -16294191.92068997 -714151.0877933198 0 0 0 0 0 55703930.90142053 -17245917.43903729 -17245917.43903729 -1228122.891119737 0 0 0 0 0 57625822.64839111 -18092472.96505047 -18092472.96505047 -1761078.466400127 0 0 0 0 0 59580851.83182485 -18834813.88926741 -18834813.88926741 -2307548.351413776 0 0 0 0 0 61557181.41065534 -19474189.27380663 -19474189.27380663 -2860975.309856339 0 0 0 0 0 63541142.45118759 -20013208.82345789 -20013208.82345789 -3416915.463661295 0 0 0 0 0 65027003.71208519 -19518428.3510851 -19518428.3510851 -3109815.591816275 0 0 0 0 0 66595648.88640711 -19962630.61889848 -19962630.61889848 -3713138.508172415 0 0 0 0 0 68488896.25173131 -20294877.56794138 -20294877.56794138 -4248898.332123511 0 0 0 0 0 70345527.29007193 -20547370.51986055 -20547370.51986055 -4775329.390977349 0 0 0 0 0 72157709.5469934 -20720473.91735253 -20720473.91735253 -5287441.821878611 0 0 0 0 0 73941305.24796373 -20813000.29980993 -20813000.29980993 -5769637.161229625 0 0 0 0 0 75669236.70652246 -20822635.47904222 -20822635.47904222 -6223738.809268992 0 0 0 0 0 77282090.15971018 -20253865.00513338 -20253865.00513338 -5702241.242079603 0 0 0 0 0 77935936.61082661 -20246374.90070045 -20246374.90070045 -6338166.042546857 0 0 0 0 0 79558069.39687423 -20159409.98859059 -20159409.98859059 -6743397.320495253 0 0 0 0 0 81402011.40419918 -19118464.82899621 -19118464.82899621 -5939951.790249418 0 0 0 0 0 82852747.1690658 -18988789.92052309 -18988789.92052309 -6291483.146550437 0 0 0 0 0 84540967.86445858 -18365825.74675897 -18365825.74675897 -6369695.273726938 0 0 0 0 0 83219561.89804357 -18861585.93412849 -18861585.93412849 -6855670.382324374 0 0 0 0 0 85887948.68451487 -18167146.6814877 -18167146.6814877 -6696497.917203579 0 0 0 0 0 87169504.73855509 -17935586.32333471 -17935586.32333471 -6999738.612135467 0 0 0 0 0 88390732.08149593 -17674307.65186108 -17674307.65186108 -7278235.463029108 0 0 0 0 0 89557044.78669734 -17385328.8454921 -17385328.8454921 -7532768.052331497 0 0 0 0 0 90740973.79779808 -16695714.18325944 -16695714.18325944 -7483605.828240218 0 0 0 0 0 89598039.36188686 -17141843.24240318 -17141843.24240318 -7976519.102273218 0 0 0 0 0 91779661.47854151 -16377526.03213377 -16377526.03213377 -7696835.012745909 0 0 0 0 0 92767437.30507252 -16040618.03522786 -16040618.03522786 -7887705.455111621 0 0 0 0 0 93706580.10531077 -15689544.21935974 -15689544.21935974 -8060176.938739539 0 0 0 0 0 94595697.67662759 -15326986.00584135 -15326986.00584135 -8211467.565225093 0 0 0 0 0 95437343.54681405 -14954642.41740668 -14954642.41740668 -8343302.18516421 0 0 0 0 0 95225685.3681431 -14669087.94472085 -14669087.94472085 -8629680.311557313 0 0 0 0 0 96859696.67127192 -13930344.02664084 -13930344.02664084 -8282572.679301802 0 0 0 0 0 95992959.42858265 -14285802.00938324 -14285802.00938324 -8717903.455227325 0 0 0 0 0 97553490.40344754 -13554145.05327962 -13554145.05327962 -8363465.405791653 0 0 0 0 0 98207447.73965944 -13174846.83781654 -13174846.83781654 -8428540.104207201 0 0 0 0 0 98823402.08197616 -12794105.03915897 -12794105.03915897 -8478469.781856364 0 0 0 0 0 99404681.53806993 -12412125.10887232 -12412125.10887232 -8513464.011059357 0 0 0 0 0 99761222.70549114 -11855220.83886263 -11855220.83886263 -8297953.013633051 0 0 0 0 0 99079180.32026602 -12142501.11558555 -12142501.11558555 -8669699.785869988 0 0 0 0 0 100261185.2123694 -11490434.51282432 -11490434.51282432 -8312037.94565395 0 0 0 0 0 100730474.0095235 -11128209.61986542 -11128209.61986542 -8314374.077146149 0 0 0 0 0 101169887.3060941 -10769019.06043306 -10769019.06043306 -8305530.364790381 0 0 0 0 0 101580461.9934919 -10413960.61311141 -10413960.61311141 -8286342.441159792 0 0 0 0 0 101962128.3366629 -10064344.74385909 -10064344.74385909 -8258536.373088624 0 0 0 0 0 101950211.3308288 -9497220.94844475 -9497220.94844475 -8259578.594792639 0 0 0 0 0 102316759.6696637 -9720466.165545536 -9720466.165545536 -8220529.159116125 0 0 0 0 0 102424087.9827338 -9291517.426403539 -9291517.426403539 -7977769.765271454 0 0 0 0 0 102730356.847959 -8968261.265927952 -8968261.265927952 -7929333.827334366 0 0 0 0 0 103014887.6808882 -8650539.470514005 -8650539.470514005 -7874294.416150933 0 0 0 0 0 103278682.5981154 -8339259.336316904 -8339259.336316904 -7813011.417884419 0 0 0 0 0 103520739.1497833 -8035547.887674473 -8035547.887674473 -7746209.781439234 0 0 0 0 0 103741238.1028828 -7741989.451923754 -7741989.451923754 -7677729.511623718 0 0 0 0 0 103386753.4010456 -7560607.429544857 -7560607.429544857 -7633180.916321303 0 0 0 0 0 103704748.2681759 -7421158.16811651 -7421158.16811651 -7438475.786263425 0 0 0 0 0 103884810.5294917 -7151389.389488496 -7151389.389488496 -7357538.828074997 0 0 0 0 0 104060500.6288888 -6882988.969859033 -6882988.969859033 -7271331.204190253 0 0 0 0 0 104224378.0824453 -6619947.41592962 -6619947.41592962 -7187304.152214154 0 0 0 0 0 103897282.9338815 -6468462.677792542 -6468462.677792542 -7142686.526728479 0 0 0 0 0 104166657.4710361 -6347916.411224895 -6347916.411224895 -6968197.670535672 0 0 0 0 0 104305316.7275846 -6103843.087840087 -6103843.087840087 -6885142.361300798 0 0 0 0 0 104432277.2186061 -5866573.756924568 -5866573.756924568 -6797970.546369044 0 0 0 0 0 104547792.1444862 -5635982.421613991 -5635982.421613991 -6708243.279702486 0 0 0 0 0 104651149.8387258 -5413127.795777677 -5413127.795777677 -6617647.207544453 0 0 0 0 0 104742824.239641 -5197005.562129211 -5197005.562129211 -6524360.361732603 0 0 0 0 0 104825875.4256969 -4984269.541907616 -4984269.541907616 -6427491.84648371 0 0 0 0 0 104900338.3110882 -4778127.130230648 -4778127.130230648 -6332103.104339211 0 0 0 0 0 104772754.6153024 -4606608.290301303 -4606608.290301303 -6158531.73301872 0 0 0 0 0 104623158.1420194 -4673171.797280074 -4673171.797280074 -6253896.896704166 0 0 0 0 0 104850383.3231389 -4403383.121414133 -4403383.121414133 -6036243.543644714 0 0 0 0 0 104567165.5805739 -4321646.00362748 -4321646.00362748 -5974633.396372437 0 0 0 0 0 104743729.8217679 -4234864.086842439 -4234864.086842439 -5848654.574795999 0 0 0 0 0 104824761.4075086 -4052387.657443486 -4052387.657443486 -5762277.093834865 0 0 0 0 0 104880031.0719875 -3884934.481858874 -3884934.481858874 -5693648.536615841 0 0 0 0 0 104737492.6700992 -3800735.927776199 -3800735.927776199 -5683141.774476384 0 0 0 0 0 104868884.141442 -3654578.802650509 -3654578.802650509 -5529359.531677142 0 0 0 0 0 104976576.7885027 -3485318.949303922 -3485318.949303922 -5448251.847481834 0 0 0 0 0 104774776.2196357 -3375472.961635552 -3375472.961635552 -5432629.161381226 0 0 0 0 0 104957756.9876468 -3254636.553615997 -3254636.553615997 -5262139.294868547 0 0 0 0 0 81023694.87775488 -19612658.51306612 -19612658.51306612 -6228197.358757838 0 0 0 0 0 34723453.60361437 -734809.4632896334 -734809.4632896334 357164.6844995149 0 0 0 0 0 35455558.61000665 -2389234.307980165 -2389234.307980165 576900.5263137947 0 0 0 0 0 36083402.00213308 -4176025.737692275 -4176025.737692275 546963.0737118134 0 0 0 0 0 37069118.24777733 -6047495.283246885 -6047495.283246885 395145.3408818419 0 0 0 0 0 38465195.03440138 -7902413.168212572 -7902413.168212572 321371.2590513792 0 0 0 0 0 41798298.77686768 -9803743.140356919 -9803743.140356919 704446.9648359942 0 0 0 0 0 42095344.85464146 -9758124.285802547 -9758124.285802547 559440.0125163815 0 0 0 0 0 43785556.47586029 -11307279.53349924 -11307279.53349924 310660.8981956496 0 0 0 0 0 45599783.74833838 -12757614.58017635 -12757614.58017635 9397.06118711877 0 0 0 0 0 47523903.41299724 -14104049.61970812 -14104049.61970812 -339274.666777496 0 0 0 0 0 51287459.42426788 -15161844.85707687 -15161844.85707687 -450060.532889434 0 0 0 0 0 50323217.14119647 -15438899.63529212 -15438899.63529212 -477426.1840075667 0 0 0 0 0 53300076.16395452 -16228902.2928211 -16228902.2928211 -885001.680821077 0 0 0 0 0 55365460.88371746 -17188916.70716775 -17188916.70716775 -1347770.370669021 0 0 0 0 0 57468518.49840417 -18042128.46943881 -18042128.46943881 -1832892.061909515 0 0 0 0 0 59597416.60503335 -18789362.93311806 -18789362.93311806 -2334503.016610672 0 0 0 0 0 61735998.54875635 -19432211.7257308 -19432211.7257308 -2846809.800132677 0 0 0 0 0 63875161.3716835 -19973440.30556931 -19973440.30556931 -3364426.645763161 0 0 0 0 0 65525347.56408222 -20455740.44965671 -20455740.44965671 -3968842.08861631 0 0 0 0 0 67059029.01531559 -19936391.51138226 -19936391.51138226 -3620491.87861065 0 0 0 0 0 69070607.61350475 -20267429.68823072 -20267429.68823072 -4128550.247832465 0 0 0 0 0 71050684.56486668 -20513832.52953679 -20513832.52953679 -4625183.428705541 0 0 0 0 0 73001544.35755351 -20683285.9524881 -20683285.9524881 -5111473.406318701 0 0 0 0 0 74904961.34035824 -20772889.19343445 -20772889.19343445 -5571031.078357492 0 0 0 0 0 76753182.32373215 -20787519.65945904 -20787519.65945904 -6012021.023199745 0 0 0 0 0 77404487.16881315 -20776376.9555431 -20776376.9555431 -6646029.286338571 0 0 0 0 0 78969466.43922308 -20204187.01511989 -20204187.01511989 -6126221.590394492 0 0 0 0 0 80605073.37515257 -20109262.50040464 -20109262.50040464 -6522726.638821753 0 0 0 0 0 81443021.51032734 -19514190.13295824 -19514190.13295824 -6809248.837841098 0 0 0 0 0 82864941.18432069 -19334936.1388281 -19334936.1388281 -7156857.262709988 0 0 0 0 0 84588231.05368742 -18658786.6684129 -18658786.6684129 -7191065.350765357 0 0 0 0 0 84264189.83465028 -18817986.20712334 -18817986.20712334 -6634068.130509644 0 0 0 0 0 85899211.01608482 -18422129.58985843 -18422129.58985843 -7501250.113029492 0 0 0 0 0 87150831.38144691 -18152736.33136616 -18152736.33136616 -7783528.477038665 0 0 0 0 0 88348794.70941535 -17856348.8492263 -17856348.8492263 -8040286.635686328 0 0 0 0 0 89495109.39185385 -17534346.40101267 -17534346.40101267 -8274320.243806164 0 0 0 0 0 90668401.75913642 -16814440.20828651 -16814440.20828651 -8188604.723393844 0 0 0 0 0 90678405.31438172 -17071825.80749373 -17071825.80749373 -7764362.851033812 0 0 0 0 0 91689659.66837008 -16467470.71637268 -16467470.71637268 -8376208.525964204 0 0 0 0 0 92666632.22566327 -16105316.48353045 -16105316.48353045 -8542289.461089583 0 0 0 0 0 93594447.27222408 -15730385.47359528 -15730385.47359528 -8686335.736641472 0 0 0 0 0 94472824.48566161 -15345168.00571696 -15345168.00571696 -8809931.102373131 0 0 0 0 0 95304284.7946592 -14951335.25584642 -14951335.25584642 -8912747.543127717 0 0 0 0 0 96233842.68353115 -14572716.17177752 -14572716.17177752 -8454358.545139192 0 0 0 0 0 96720371.22442818 -13897694.18792092 -13897694.18792092 -8789304.118798653 0 0 0 0 0 96987261.980334 -14185245.21440278 -14185245.21440278 -8549371.172841966 0 0 0 0 0 97408637.48695749 -13506079.24740874 -13506079.24740874 -8843885.627404535 0 0 0 0 0 98058240.74872167 -13112991.70107749 -13112991.70107749 -8882747.195016416 0 0 0 0 0 98670685.01591931 -12719663.30248663 -12719663.30248663 -8906914.34463585 0 0 0 0 0 99249104.26386675 -12326816.6073315 -12326816.6073315 -8918340.642691499 0 0 0 0 0 99610017.97756851 -11766288.33324444 -11766288.33324444 -8671993.274089409 0 0 0 0 0 99950288.53197324 -12031634.62513928 -12031634.62513928 -8537028.712958178 0 0 0 0 0 100108742.7348601 -11392916.18783902 -11392916.18783902 -8662774.712839991 0 0 0 0 0 100577093.5891043 -11022440.89787703 -11022440.89787703 -8641891.365287984 0 0 0 0 0 101016278.2381441 -10656254.32236306 -10656254.32236306 -8610513.264393143 0 0 0 0 0 101427344.3648129 -10295181.39994247 -10295181.39994247 -8569602.479978275 0 0 0 0 0 101810167.3308973 -9939397.64089985 -9939397.64089985 -8518433.563408511 0 0 0 0 0 102647185.5896296 -9381223.592396218 -9381223.592396218 -8173494.723077459 0 0 0 0 0 102166145.1624319 -9589803.397671606 -9589803.397671606 -8459243.942581812 0 0 0 0 0 102279113.4819221 -9164829.634656686 -9164829.634656686 -8200758.519759736 0 0 0 0 0 102586583.2915207 -8837740.162105387 -8837740.162105387 -8134327.850340268 0 0 0 0 0 102873008.7688325 -8517134.660084892 -8517134.660084892 -8061539.997768037 0 0 0 0 0 103139163.2529715 -8203568.086515914 -8203568.086515914 -7982738.464326502 0 0 0 0 0 103385297.8567367 -7899069.585586304 -7899069.585586304 -7897320.957874673 0 0 0 0 0 103609076.5281581 -7597733.415188681 -7597733.415188681 -7796593.034670587 0 0 0 0 0 103931008.2375702 -7459079.540407637 -7459079.540407637 -7602301.680472907 0 0 0 0 0 103581936.4093935 -7284749.189129991 -7284749.189129991 -7546830.900642253 0 0 0 0 0 103764306.0651624 -7015164.243531934 -7015164.243531934 -7461835.714336525 0 0 0 0 0 103937203.0049274 -6748100.21524814 -6748100.21524814 -7371940.488199556 0 0 0 0 0 104103124.4649989 -6484001.712727742 -6484001.712727742 -7275704.639546585 0 0 0 0 0 104373638.701003 -6362984.446569568 -6362984.446569568 -7100618.341524041 0 0 0 0 0 104051147.8944818 -6217589.3545121 -6217589.3545121 -7049785.485555753 0 0 0 0 0 104192979.6073029 -5974008.948564289 -5974008.948564289 -6954277.26442079 0 0 0 0 0 104322756.7794446 -5737374.69413799 -5737374.69413799 -6856490.142485247 0 0 0 0 0 104441259.4954849 -5507901.004478385 -5507901.004478385 -6756565.964505182 0 0 0 0 0 104547658.2770781 -5285318.654162463 -5285318.654162463 -6654783.48500456 0 0 0 0 0 104640491.6474823 -5068397.246716082 -5068397.246716082 -6552178.61182116 0 0 0 0 0 104726338.035276 -4856913.77210351 -4856913.77210351 -6448394.426685127 0 0 0 0 0 104803936.7970381 -4652271.724511651 -4652271.724511651 -6344226.32804458 0 0 0 0 0 104691163.487762 -4478472.864359528 -4478472.864359528 -6150744.308237137 0 0 0 0 0 104965497.595045 -4579078.774802681 -4579078.774802681 -6236128.66609931 0 0 0 0 0 104763714.3692242 -4291900.203215408 -4291900.203215408 -6052291.017848187 0 0 0 0 0 104901824.5655102 -4227378.721775503 -4227378.721775503 -5953315.900635808 0 0 0 0 0 104638535.586554 -4137973.774580182 -4137973.774580182 -5887951.406189531 0 0 0 0 0 104711326.4077087 -3954478.596620896 -3954478.596620896 -5794144.018509469 0 0 0 0 0 104787231.7611053 -3784601.252717567 -3784601.252717567 -5657868.317535642 0 0 0 0 0 104793705.3433317 -3611065.359243123 -3611065.359243123 -5615803.445876595 0 0 0 0 0 104848850.6200688 -3422860.218722972 -3422860.218722972 -5518009.277286352 0 0 0 0 0 105025110.6253755 -3293289.516400185 -3293289.516400185 -5335222.189392968 0 0 0 0 0 104845625.7750359 -3180325.191905721 -3180325.191905721 -5306196.478792759 0 0 0 0 0 105007903.4457996 -3092830.878644921 -3092830.878644921 -5180646.44257221 0 0 0 0 0 81074869.61042659 -20017603.27591385 -20017603.27591385 -7126913.164068459 0 0 0 0 0 33451155.67604993 -1033809.357449383 -1033809.357449383 -76342.16221142403 0 0 0 0 0 34502645.74373535 -2612747.073563499 -2612747.073563499 361004.5984334194 0 0 0 0 0 35948336.88299324 -4198833.353697335 -4198833.353697335 583410.1722707766 0 0 0 0 0 37103748.33548269 -5991268.381182946 -5991268.381182946 564322.8069556808 0 0 0 0 0 38436172.28652438 -7875192.052307578 -7875192.052307578 456156.4140622918 0 0 0 0 0 39768292.1121214 -9674467.782605523 -9674467.782605523 270959.8630443309 0 0 0 0 0 40031551.70471993 -9628897.60079474 -9628897.60079474 163151.1156414729 0 0 0 0 0 43295408.52060304 -11417714.71439277 -11417714.71439277 413167.1476251508 0 0 0 0 0 44930287.34124689 -12930006.6930211 -12930006.6930211 66339.48000648475 0 0 0 0 0 46689834.46280747 -14334981.59244713 -14334981.59244713 -330345.1548755164 0 0 0 0 0 48554966.31534359 -15627700.76003093 -15627700.76003093 -770817.7955532965 0 0 0 0 0 52207459.19257414 -16554907.85892951 -16554907.85892951 -962588.1707059136 0 0 0 0 0 49539385.15906517 -15341708.80738324 -15341708.80738324 -730745.1449616959 0 0 0 0 0 54156512.92876633 -17560647.33668636 -17560647.33668636 -1476121.874271654 0 0 0 0 0 56157340.44405405 -18455448.98463886 -18455448.98463886 -2011058.541761002 0 0 0 0 0 58196847.14367887 -19240512.92210534 -19240512.92210534 -2561430.576970022 0 0 0 0 0 60258932.68190168 -19917313.65052249 -19917313.65052249 -3121049.649069283 0 0 0 0 0 62333504.92464758 -20488247.94138379 -20488247.94138379 -3683977.518109193 0 0 0 0 0 64407119.06141622 -20957046.74387422 -20957046.74387422 -4245083.269790336 0 0 0 0 0 66001635.39933216 -20416281.38720614 -20416281.38720614 -3882187.560216337 0 0 0 0 0 67501536.35701896 -20806555.63251663 -20806555.63251663 -4514408.75231495 0 0 0 0 0 69458565.9085454 -21069794.76811336 -21069794.76811336 -5049616.185145832 0 0 0 0 0 71380952.94344579 -21252308.72501484 -21252308.72501484 -5575355.833717174 0 0 0 0 0 73243759.84649746 -21351434.40094007 -21351434.40094007 -6077185.626792077 0 0 0 0 0 75079244.79759556 -21377890.39276018 -21377890.39276018 -6553256.792286181 0 0 0 0 0 76846703.93382102 -21328773.0285476 -21328773.0285476 -6989981.628532885 0 0 0 0 0 78503147.13608284 -20730835.08385731 -20730835.08385731 -6428473.775457729 0 0 0 0 0 79066608.01603343 -20678550.81532397 -20678550.81532397 -7058531.952048031 0 0 0 0 0 80695365.5851927 -20529249.53310307 -20529249.53310307 -7449385.425640221 0 0 0 0 0 82531225.70910309 -19474000.863823 -19474000.863823 -6595060.756025991 0 0 0 0 0 83994563.9806973 -19286131.31492809 -19286131.31492809 -6932538.359073719 0 0 0 0 0 85641439.15553692 -18610268.42902514 -18610268.42902514 -6967461.631781446 0 0 0 0 0 84276646.79782969 -19123185.07025516 -19123185.07025516 -7491833.070521611 0 0 0 0 0 86979310.06201236 -18366973.96885752 -18366973.96885752 -7278947.014163027 0 0 0 0 0 88252443.61965616 -18090997.53294596 -18090997.53294596 -7564351.166848715 0 0 0 0 0 89466310.55407231 -17786665.24522816 -17786665.24522816 -7823040.317368145 0 0 0 0 0 90627670.79105432 -17457233.69065096 -17457233.69065096 -8057821.359925695 0 0 0 0 0 91755728.20333575 -16737903.70494561 -16737903.70494561 -7979443.140758401 0 0 0 0 0 90603220.15748346 -17190724.81939306 -17190724.81939306 -8488194.109439084 0 0 0 0 0 92777805.89283186 -16384018.1572618 -16384018.1572618 -8171151.629231498 0 0 0 0 0 93745651.45499817 -16016832.64275145 -16016832.64275145 -8343419.828919913 0 0 0 0 0 94663713.24279858 -15636864.25524469 -15636864.25524469 -8494233.228963908 0 0 0 0 0 95532167.20397329 -15246799.65016121 -15246799.65016121 -8624049.648264883 0 0 0 0 0 96352876.70105036 -14847821.1181562 -14847821.1181562 -8733609.047267769 0 0 0 0 0 96093961.49427179 -14551613.6575147 -14551613.6575147 -8998355.777986312 0 0 0 0 0 97698250.15428333 -13792987.13148678 -13792987.13148678 -8626562.015051462 0 0 0 0 0 96840972.83896901 -14146560.1076476 -14146560.1076476 -9064696.195677917 0 0 0 0 0 98368895.85707483 -13397742.44300732 -13397742.44300732 -8687893.889610423 0 0 0 0 0 98999818.16726334 -13001123.21681465 -13001123.21681465 -8733747.964382201 0 0 0 0 0 99591992.5350742 -12604563.50745393 -12604563.50745393 -8764588.868460413 0 0 0 0 0 100149148.9151061 -12208821.75215823 -12208821.75215823 -8781390.067893347 0 0 0 0 0 100459293.5946572 -11653021.1684295 -11653021.1684295 -8546106.113645131 0 0 0 0 0 99792881.28636673 -11935375.45047371 -11935375.45047371 -8914281.479610914 0 0 0 0 0 100936900.5414983 -11277383.02638497 -11277383.02638497 -8543063.554727541 0 0 0 0 0 101383549.05925 -10905199.06805342 -10905199.06805342 -8528698.604714774 0 0 0 0 0 101800438.0721835 -10537375.57289005 -10537375.57289005 -8503702.260207418 0 0 0 0 0 102188234.6215629 -10175018.45793625 -10175018.45793625 -8469461.859364981 0 0 0 0 0 102548658.7364045 -9818537.932420881 -9818537.932420881 -8425738.935966723 0 0 0 0 0 102497672.3356293 -9247042.661914697 -9247042.661914697 -8393815.750335315 0 0 0 0 0 102882303.5868825 -9468224.019368278 -9468224.019368278 -8373170.510202188 0 0 0 0 0 102955936.0901947 -9047545.27996612 -9047545.27996612 -8118679.877998944 0 0 0 0 0 103242372.0425036 -8720091.860922093 -8720091.860922093 -8057512.851757185 0 0 0 0 0 103507397.4504586 -8399279.159236202 -8399279.159236202 -7989969.650018314 0 0 0 0 0 103751720.211683 -8085542.637317198 -8085542.637317198 -7916479.281333511 0 0 0 0 0 103971933.4217056 -7782375.316036558 -7782375.316036558 -7839577.549592852 0 0 0 0 0 104165258.4907366 -7491605.070465821 -7491605.070465821 -7763658.419946068 0 0 0 0 0 103804068.6876739 -7312782.37348421 -7312782.37348421 -7699300.596796176 0 0 0 0 0 104107189.5045201 -7180370.421808757 -7180370.421808757 -7513220.186915932 0 0 0 0 0 104279385.5623214 -6905696.346998226 -6905696.346998226 -7418665.082189925 0 0 0 0 0 104440923.1153093 -6637562.448584509 -6637562.448584509 -7326931.78467291 0 0 0 0 0 104588038.5306841 -6374156.679502403 -6374156.679502403 -7234498.747124997 0 0 0 0 0 104255238.0327989 -6227102.929724785 -6227102.929724785 -7176843.826275236 0 0 0 0 0 104510161.3723255 -6112919.218379723 -6112919.218379723 -7011313.740232767 0 0 0 0 0 104634687.7623895 -5869902.566554982 -5869902.566554982 -6919564.53651428 0 0 0 0 0 104747550.9611748 -5634140.711170688 -5634140.711170688 -6825264.933404957 0 0 0 0 0 104848457.4314038 -5405973.230939218 -5405973.230939218 -6729221.887907156 0 0 0 0 0 104938372.96304 -5184632.022930996 -5184632.022930996 -6631028.633188352 0 0 0 0 0 105018806.9231181 -4968575.402388005 -4968575.402388005 -6529763.579667286 0 0 0 0 0 105090396.3585788 -4758755.428586909 -4758755.428586909 -6428608.701310208 0 0 0 0 0 105153413.9948972 -4555146.824239216 -4555146.824239216 -6326771.65835762 0 0 0 0 0 105028534.490717 -4381432.567244931 -4381432.567244931 -6136079.181999982 0 0 0 0 0 104870563.6562638 -4452436.659436109 -4452436.659436109 -6239632.070144762 0 0 0 0 0 105078528.4465466 -4198767.482261769 -4198767.482261769 -6039840.06059606 0 0 0 0 0 104819327.9202777 -4106051.103136736 -4106051.103136736 -5951182.098089932 0 0 0 0 0 104953865.4653431 -4046530.387964213 -4046530.387964213 -5860915.930386091 0 0 0 0 0 105004561.2341254 -3868650.206898406 -3868650.206898406 -5763881.138663311 0 0 0 0 0 105023469.7756792 -3711841.332442244 -3711841.332442244 -5685576.648477992 0 0 0 0 0 105084761.8888313 -3520452.326580375 -3520452.326580375 -5549703.921303359 0 0 0 0 0 105143951.2368983 -3348753.656447732 -3348753.656447732 -5448042.808527513 0 0 0 0 0 105061712.8876442 -3256181.627191445 -3256181.627191445 -5440864.27178148 0 0 0 0 0 105047962.0002736 -3105785.03508657 -3105785.03508657 -5315702.298259178 0 0 0 0 0 104895768.7811481 -3033804.658605662 -3033804.658605662 -5263743.188948198 0 0 0 0 0 105052300.0386626 -2921747.663491924 -2921747.663491924 -5096910.309611415 0 0 0 0 0 82204289.65403327 -19967113.91786257 -19967113.91786257 -6904311.367433893 0 0 0 0 0 32468562.53951541 -834329.5063043378 -834329.5063043378 -354823.6637709041 0 0 0 0 0 33481226.72804079 -2359122.157535106 -2359122.157535106 1947.956801968665 0 0 0 0 0 34006086.83303854 -3992367.970064457 -3992367.970064457 -25984.81755235857 0 0 0 0 0 34957720.85848611 -5773380.996531046 -5773380.996531046 -104432.9955397008 0 0 0 0 0 36304868.94317398 -7637814.880411113 -7637814.880411113 -215675.7890931946 0 0 0 0 0 37895083.46288699 -9460432.240046574 -9460432.240046574 -322260.869966819 0 0 0 0 0 41290442.84243809 -11366574.01930422 -11366574.01930422 14869.18535624295 0 0 0 0 0 41759345.04093357 -11255692.19516848 -11255692.19516848 -64055.33968744075 0 0 0 0 0 43628353.23161758 -12781639.85105073 -12781639.85105073 -345676.2912662053 0 0 0 0 0 45618329.04879631 -14199874.19850664 -14199874.19850664 -678165.9899532853 0 0 0 0 0 47709511.14413693 -15505365.04177808 -15505365.04177808 -1055974.194149055 0 0 0 0 0 51630910.45820922 -16468767.49663483 -16468767.49663483 -1158940.446803352 0 0 0 0 0 50509553.33267485 -16805961.99651053 -16805961.99651053 -1248817.887806962 0 0 0 0 0 53782318.12338515 -17483747.2541334 -17483747.2541334 -1617843.813406894 0 0 0 0 0 55976287.16854269 -18386136.36049428 -18386136.36049428 -2101467.618227493 0 0 0 0 0 58197678.93704236 -19177251.39532834 -19177251.39532834 -2604183.784419223 0 0 0 0 0 60433821.9424859 -19858313.16929736 -19858313.16929736 -3119437.992142225 0 0 0 0 0 62669634.98585866 -20432140.31240883 -20432140.31240883 -3641876.728107692 0 0 0 0 0 64895082.8486384 -20902228.86748304 -20902228.86748304 -4166160.776556465 0 0 0 0 0 66471353.45586123 -21328117.955485 -21328117.955485 -4799616.396821826 0 0 0 0 0 68105964.71917391 -20766295.5845966 -20766295.5845966 -4397520.557137002 0 0 0 0 0 70179403.82997148 -21027878.15731403 -21027878.15731403 -4905784.845080391 0 0 0 0 0 72207398.46575323 -21207376.23885738 -21207376.23885738 -5403714.392044369 0 0 0 0 0 74200714.21768889 -21305022.02367509 -21305022.02367509 -5882005.550355569 0 0 0 0 0 76139021.29391567 -21322339.72574458 -21322339.72574458 -6340763.779880287 0 0 0 0 0 78017528.49849202 -21271129.73353491 -21271129.73353491 -6775886.883539412 0 0 0 0 0 78589325.08220749 -21217836.70748961 -21217836.70748961 -7404462.869819121 0 0 0 0 0 80211285.45433962 -20622507.11382615 -20622507.11382615 -6836199.812846588 0 0 0 0 0 81835108.84177212 -20463945.62656859 -20463945.62656859 -7216768.840065418 0 0 0 0 0 82550561.49395025 -19825166.56625062 -19825166.56625062 -7474375.064555604 0 0 0 0 0 83998633.88939652 -19598922.90949464 -19598922.90949464 -7804918.710206043 0 0 0 0 0 85648514.95914477 -18874434.69548005 -18874434.69548005 -7805665.849112468 0 0 0 0 0 85405899.31842871 -19062021.62114153 -19062021.62114153 -7262048.882982617 0 0 0 0 0 86959121.89439353 -18589157.85400847 -18589157.85400847 -8092041.672720714 0 0 0 0 0 88207466.71477638 -18276102.65846849 -18276102.65846849 -8352162.619087981 0 0 0 0 0 89398473.70305201 -17936633.67241463 -17936633.67241463 -8587943.226124972 0 0 0 0 0 90541040.41332269 -17574771.1105403 -17574771.1105403 -8799633.191195589 0 0 0 0 0 91662106.08113731 -16825801.2616595 -16825801.2616595 -8676095.375079749 0 0 0 0 0 91735639.7856697 -17106416.43239639 -17106416.43239639 -8272145.100911511 0 0 0 0 0 92670854.11824629 -16446169.54379879 -16446169.54379879 -8840994.687380748 0 0 0 0 0 93627561.67438355 -16053717.26854048 -16053717.26854048 -8984044.761779975 0 0 0 0 0 94534615.31811149 -15650253.85441306 -15650253.85441306 -9105439.844190134 0 0 0 0 0 95393156.67682883 -15238401.538277 -15238401.538277 -9206355.12292812 0 0 0 0 0 96206149.89159201 -14820474.51327733 -14820474.51327733 -9287137.829958336 0 0 0 0 0 97126791.7308505 -14443249.34566162 -14443249.34566162 -8825280.339571629 0 0 0 0 0 97546818.74742062 -13738731.57931271 -13738731.57931271 -9115049.796423672 0 0 0 0 0 97856475.67024003 -14034289.22761149 -14034289.22761149 -8899154.015288603 0 0 0 0 0 98212993.17669716 -13329005.12180127 -13329005.12180127 -9149105.766652199 0 0 0 0 0 98840356.43795012 -12919252.93952383 -12919252.93952383 -9167454.748968583 0 0 0 0 0 99429995.75393984 -12511389.34947301 -12511389.34947301 -9172358.396224659 0 0 0 0 0 99985122.76851577 -12105669.56323101 -12105669.56323101 -9163971.976078441 0 0 0 0 0 100300861.5878199 -11548195.54371539 -11548195.54371539 -8899124.352043126 0 0 0 0 0 100669782.0474074 -11815661.4950466 -11815661.4950466 -8786746.708143346 0 0 0 0 0 100777523.8331207 -11164172.20225714 -11164172.20225714 -8871882.928812511 0 0 0 0 0 101223879.097711 -10784734.61416887 -10784734.61416887 -8834274.658234881 0 0 0 0 0 101641328.912312 -10411127.39430133 -10411127.39430133 -8787058.735429173 0 0 0 0 0 102029949.2826997 -10042591.68126006 -10042591.68126006 -8729544.431369402 0 0 0 0 0 102391782.9502389 -9680953.267939605 -9680953.267939605 -8663646.376759563 0 0 0 0 0 103192400.6185469 -9124166.816564631 -9124166.816564631 -8311922.142214696 0 0 0 0 0 102727728.4601115 -9326312.111548161 -9326312.111548161 -8590371.516036427 0 0 0 0 0 102807603.3552119 -8910035.744754754 -8910035.744754754 -8321063.340682295 0 0 0 0 0 103095867.2818723 -8579608.142876981 -8579608.142876981 -8241588.64633398 0 0 0 0 0 103363144.6353671 -8256399.57520175 -8256399.57520175 -8156333.993849079 0 0 0 0 0 103610945.1218644 -7941660.560607689 -7941660.560607689 -8064528.288794473 0 0 0 0 0 103837641.9554384 -7634579.55670549 -7634579.55670549 -7962189.501500307 0 0 0 0 0 104032875.4602114 -7340826.256406271 -7340826.256406271 -7854210.331182669 0 0 0 0 0 104338824.8203273 -7207087.95644656 -7207087.95644656 -7669032.969910029 0 0 0 0 0 103981351.065309 -7038173.047149436 -7038173.047149436 -7606444.982787063 0 0 0 0 0 104154364.153542 -6765534.836308593 -6765534.836308593 -7511737.026726202 0 0 0 0 0 104316556.8935967 -6495463.778901726 -6495463.778901726 -7409663.792938566 0 0 0 0 0 104466839.3444843 -6232586.952289901 -6232586.952289901 -7304783.924926747 0 0 0 0 0 104722270.9194668 -6118278.749473192 -6118278.749473192 -7139307.575702462 0 0 0 0 0 104394741.327555 -5977493.984516455 -5977493.984516455 -7075804.564995798 0 0 0 0 0 104522478.0659705 -5735302.815683836 -5735302.815683836 -6972670.075380414 0 0 0 0 0 104638617.04905 -5500522.996528447 -5500522.996528447 -6867529.916699833 0 0 0 0 0 104742715.5123611 -5272826.110126329 -5272826.110126329 -6760394.052576359 0 0 0 0 0 104834865.7622018 -5051787.27851715 -5051787.27851715 -6652488.682143872 0 0 0 0 0 104917540.230101 -4836961.717206894 -4836961.717206894 -6543953.178954136 0 0 0 0 0 104991921.5656906 -4628233.371885979 -4628233.371885979 -6434529.010334266 0 0 0 0 0 105057446.4608584 -4425614.600746169 -4425614.600746169 -6324932.618821984 0 0 0 0 0 104940308.1649239 -4261933.9958325 -4261933.9958325 -6134391.98223067 0 0 0 0 0 105210350.6641191 -4356611.456676506 -4356611.456676506 -6223654.667743961 0 0 0 0 0 104990977.296597 -4076024.702711676 -4076024.702711676 -6028823.25172614 0 0 0 0 0 105123015.6728445 -4016403.040663639 -4016403.040663639 -5940385.858808414 0 0 0 0 0 104868183.3120698 -3927439.559087129 -3927439.559087129 -5851985.558331428 0 0 0 0 0 104915211.4692701 -3756634.304555163 -3756634.304555163 -5752047.192633135 0 0 0 0 0 104940111.2161901 -3588126.120287908 -3588126.120287908 -5651789.703503454 0 0 0 0 0 104966620.5696128 -3423845.779566269 -3423845.779566269 -5552286.657092099 0 0 0 0 0 105024521.6341241 -3266794.376694209 -3266794.376694209 -5455155.4572493 0 0 0 0 0 105085333.1601932 -3092737.582718777 -3092737.582718777 -5295579.920307374 0 0 0 0 0 105077875.713467 -2959620.62154521 -2959620.62154521 -5169759.261526251 0 0 0 0 0 104959438.2258155 -2869804.525599874 -2869804.525599874 -5148820.067648778 0 0 0 0 0 105083907.0106864 -2767901.210416732 -2767901.210416732 -5013362.766648894 0 0 0 0 0 82221563.1648038 -20329047.34583554 -20329047.34583554 -7811214.681341043 0 0 0 0 0 31211748.93101173 -1080737.556604543 -1080737.556604543 -716255.9394983718 0 0 0 0 0 32229767.268184 -2797775.573526692 -2797775.573526692 -548992.3968831003 0 0 0 0 0 34062662.66932556 -3954338.224833299 -3954338.224833299 68045.66936110002 0 0 0 0 0 35021185.87619258 -5728254.505166073 -5728254.505166073 2860.927977636657 0 0 0 0 0 36210198.99263057 -7634446.548783768 -7634446.548783768 -105155.6082525317 0 0 0 0 0 37644758.96416388 -9511736.813361917 -9511736.813361917 -251862.8677099019 0 0 0 0 0 39200693.52223613 -11285233.19974198 -11285233.19974198 -465473.6714868791 0 0 0 0 0 39651545.13827016 -11170606.41760803 -11170606.41760803 -510016.4488713679 0 0 0 0 0 42969524.26631375 -12956420.91277531 -12956420.91277531 -307227.2828821158 0 0 0 0 0 44779885.97777674 -14436345.52115372 -14436345.52115372 -685271.8231970289 0 0 0 0 0 46708101.13667584 -15800403.7568577 -15800403.7568577 -1111398.751467386 0 0 0 0 0 48732447.58635172 -17044940.2948674 -17044940.2948674 -1578877.614703736 0 0 0 0 0 52536401.47103177 -17869061.63926149 -17869061.63926149 -1758903.926173307 0 0 0 0 0 49882210.32403283 -16695687.44339741 -16695687.44339741 -1473727.684469146 0 0 0 0 0 54619802.77022414 -18815579.42881496 -18815579.42881496 -2293216.984650108 0 0 0 0 0 56745386.77014056 -19646326.52092237 -19646326.52092237 -2845163.008098597 0 0 0 0 0 58899152.30236936 -20363097.29317439 -20363097.29317439 -3408655.00456817 0 0 0 0 0 61065412.76603185 -20968050.6910443 -20968050.6910443 -3977351.935066309 0 0 0 0 0 63234325.65498234 -21465260.98133167 -21465260.98133167 -4545675.655880642 0 0 0 0 0 65392354.2282762 -21859028.57682933 -21859028.57682933 -5107995.811303489 0 0 0 0 0 67096634.66887955 -21273148.72791809 -21273148.72791809 -4687759.713823864 0 0 0 0 0 68516287.58635454 -21606792.78997926 -21606792.78997926 -5343403.306081703 0 0 0 0 0 70532545.68460669 -21797530.38611943 -21797530.38611943 -5871620.045644186 0 0 0 0 0 72507819.30470203 -21903488.63322375 -21903488.63322375 -6385772.691512928 0 0 0 0 0 74443946.00974439 -21930375.70201783 -21930375.70201783 -6873035.615305828 0 0 0 0 0 76326857.85720955 -21888921.74347024 -21888921.74347024 -7337242.589423808 0 0 0 0 0 78108410.61085705 -21775898.20082472 -21775898.20082472 -7756138.007296369 0 0 0 0 0 79782869.32707226 -21152242.43564543 -21152242.43564543 -7177727.494152847 0 0 0 0 0 80261046.58754911 -21051410.7611238 -21051410.7611238 -7782350.255126204 0 0 0 0 0 81896417.6095445 -20848261.96767962 -20848261.96767962 -8163851.40792841 0 0 0 0 0 83726251.92942484 -19771289.76487528 -19771289.76487528 -7246418.81795467 0 0 0 0 0 85189010.56017752 -19533598.2937813 -19533598.2937813 -7575115.243612641 0 0 0 0 0 86787004.12397894 -18808742.10846037 -18808742.10846037 -7575959.832912402 0 0 0 0 0 85407706.94307929 -19334206.29728901 -19334206.29728901 -8119049.012860824 0 0 0 0 0 88110552.8167527 -18517997.02085778 -18517997.02085778 -7865156.833546197 0 0 0 0 0 89374689.77457759 -18198022.31329924 -18198022.31329924 -8127361.84235259 0 0 0 0 0 90579269.21457979 -17851471.02040215 -17851471.02040215 -8365008.161254836 0 0 0 0 0 91726178.2038462 -17481784.94895805 -17481784.94895805 -8579059.228249075 0 0 0 0 0 92791801.27721485 -16735615.02178697 -16735615.02178697 -8465295.611364171 0 0 0 0 0 91636015.67754449 -17193353.60428229 -17193353.60428229 -8987689.8011667 0 0 0 0 0 93793187.42240685 -16350581.81104981 -16350581.81104981 -8637595.354932191 0 0 0 0 0 94739851.33528009 -15952726.57379981 -15952726.57379981 -8786891.823274497 0 0 0 0 0 95635086.07655089 -15543965.874484 -15543965.874484 -8914694.67769427 0 0 0 0 0 96480877.8135338 -15126973.84137974 -15126973.84137974 -9021926.435342267 0 0 0 0 0 97277428.69242759 -14704441.22646648 -14704441.22646648 -9110313.427457578 0 0 0 0 0 96973518.36350733 -14397852.10354691 -14397852.10354691 -9349832.813557094 0 0 0 0 0 98543008.91972326 -13622755.60228961 -13622755.60228961 -8956371.711804409 0 0 0 0 0 97697907.56757863 -13972722.26173092 -13972722.26173092 -9394715.519276028 0 0 0 0 0 99188353.32647532 -13209832.01829645 -13209832.01829645 -8997184.091442917 0 0 0 0 0 99793292.88145173 -12796894.16484238 -12796894.16484238 -9022889.227350002 0 0 0 0 0 100361063.5844536 -12386049.70134081 -12386049.70134081 -9034428.603035899 0 0 0 0 0 100892170.096061 -11978172.786809 -11978172.786809 -9032416.010577302 0 0 0 0 0 101155173.155843 -11426125.6008273 -11426125.6008273 -8777410.813547995 0 0 0 0 0 100504906.779439 -11702306.30832452 -11702306.30832452 -9140502.779382762 0 0 0 0 0 101608521.0057857 -11040729.22781983 -11040729.22781983 -8757228.320686258 0 0 0 0 0 102031401.9046172 -10659880.30841664 -10659880.30841664 -8726311.43948164 0 0 0 0 0 102424565.46986 -10284656.96591286 -10284656.96591286 -8684942.995814351 0 0 0 0 0 102789728.8531651 -9915609.663838474 -9915609.663838474 -8635076.016124625 0 0 0 0 0 103127324.3170082 -9553287.500826003 -9553287.500826003 -8576327.098951738 0 0 0 0 0 103039506.4958215 -8978960.393191509 -8978960.393191509 -8510689.759506907 0 0 0 0 0 103439816.2225465 -9197719.6819047 -9197719.6819047 -8508729.672990886 0 0 0 0 0 103480002.2023596 -8786726.595189441 -8786726.595189441 -8244226.723138352 0 0 0 0 0 103745772.7574199 -8456206.512002952 -8456206.512002952 -8170058.357137593 0 0 0 0 0 103990884.3782057 -8133170.888957749 -8133170.888957749 -8089946.871959986 0 0 0 0 0 104213647.7137063 -7818070.491660562 -7818070.491660562 -8004423.067676441 0 0 0 0 0 104409276.8158537 -7519902.355391399 -7519902.355391399 -7923037.185096526 0 0 0 0 0 104578222.6532242 -7230560.503738147 -7230560.503738147 -7829478.950129798 0 0 0 0 0 104208815.3683485 -7057311.835012947 -7057311.835012947 -7751932.58322522 0 0 0 0 0 104505819.3408116 -6927158.601541185 -6927158.601541185 -7567639.983204701 0 0 0 0 0 104665034.0234702 -6650326.504194469 -6650326.504194469 -7468707.133387633 0 0 0 0 0 104810255.2776724 -6381332.267311384 -6381332.267311384 -7369330.514549724 0 0 0 0 0 104941776.7572343 -6119530.345302944 -6119530.345302944 -7268345.911467865 0 0 0 0 0 104604080.921815 -5977247.080129676 -5977247.080129676 -7197841.842234825 0 0 0 0 0 104844211.2603339 -5869650.839553176 -5869650.839553176 -7041767.791515632 0 0 0 0 0 104954368.6915767 -5628415.854420326 -5628415.854420326 -6942150.812011802 0 0 0 0 0 105052890.0659353 -5394765.887269665 -5394765.887269665 -6840693.137406506 0 0 0 0 0 105139954.3749587 -5168506.531225784 -5168506.531225784 -6737676.869763887 0 0 0 0 0 105217536.6163706 -4948633.345856125 -4948633.345856125 -6631929.877169989 0 0 0 0 0 105286022.882706 -4735056.529619113 -4735056.529619113 -6525344.672123931 0 0 0 0 0 105345868.6193215 -4527772.022632393 -4527772.022632393 -6418273.425569285 0 0 0 0 0 105398402.0553789 -4326713.536759694 -4326713.536759694 -6310710.426584519 0 0 0 0 0 105258518.9552115 -4167090.41455781 -4167090.41455781 -6122719.359418822 0 0 0 0 0 105118324.9037137 -4230249.843856241 -4230249.843856241 -6215168.653120528 0 0 0 0 0 105299508.6327087 -3983089.831034247 -3983089.831034247 -6018353.016589588 0 0 0 0 0 105037313.0882551 -3896162.71890675 -3896162.71890675 -5923107.297799452 0 0 0 0 0 105160509.5888647 -3840423.296150071 -3840423.296150071 -5840977.853492537 0 0 0 0 0 105189596.059448 -3672040.31528826 -3672040.31528826 -5742294.044986141 0 0 0 0 0 105223384.7588471 -3499704.688397948 -3499704.688397948 -5633436.715191298 0 0 0 0 0 105240689.4868014 -3344152.743230243 -3344152.743230243 -5540393.823875774 0 0 0 0 0 105267753.3953627 -3174137.011083562 -3174137.011083562 -5424355.93564127 0 0 0 0 0 105192316.3621967 -3031271.122537549 -3031271.122537549 -5372968.255555944 0 0 0 0 0 105160658.9655659 -2921822.661626344 -2921822.661626344 -5265760.237482227 0 0 0 0 0 105157379.4155457 -2797036.277485541 -2797036.277485541 -5138060.451936091 0 0 0 0 0 105054538.1221786 -2737751.247400308 -2737751.247400308 -5095979.455059198 0 0 0 0 0 83448494.44608304 -20262972.04368495 -20262972.04368495 -7582863.425145289 0 0 0 0 0 30339615.36398682 -815919.3002166181 -815919.3002166181 -1124862.037785934 0 0 0 0 0 32598082.2397709 -2877711.565408997 -2877711.565408997 -599277.490167278 0 0 0 0 0 31412005.5256901 -3713352.409832936 -3713352.409832936 -740199.7511909384 0 0 0 0 0 32579266.60888385 -5451308.329286938 -5451308.329286938 -776451.8959567117 0 0 0 0 0 34031990.7862857 -7366817.892510933 -7366817.892510933 -810978.9874921389 0 0 0 0 0 35660294.02822889 -9247160.297228279 -9247160.297228279 -905553.1736591336 0 0 0 0 0 37465953.78748489 -11045676.19386491 -11045676.19386491 -1042528.835924338 0 0 0 0 0 40922164.59485 -12954884.177829 -12954884.177829 -751223.7923568509 0 0 0 0 0 41572282.3233753 -12776186.67203811 -12776186.67203811 -763702.0809247564 0 0 0 0 0 43627338.78458477 -14271291.58225544 -14271291.58225544 -1072894.605303916 0 0 0 0 0 45793612.37155537 -15649223.80415082 -15649223.80415082 -1432732.689556145 0 0 0 0 0 48052295.91009716 -16906557.8181671 -16906557.8181671 -1835568.130020741 0 0 0 0 0 52122831.82936192 -17769124.28559803 -17769124.28559803 -1925705.670935314 0 0 0 0 0 50839975.07781352 -18168476.46117922 -18168476.46117922 -2081441.775299978 0 0 0 0 0 54411290.89262795 -18724387.4504419 -18724387.4504419 -2405075.691053791 0 0 0 0 0 56731181.17739157 -19562162.41368135 -19562162.41368135 -2905765.605711718 0 0 0 0 0 59067833.56222482 -20284367.33811438 -20284367.33811438 -3421871.291412181 0 0 0 0 0 61407139.85117623 -20893284.29954343 -20893284.29954343 -3946678.136684678 0 0 0 0 0 63734743.33544774 -21392774.94554126 -21392774.94554126 -4475454.367029156 0 0 0 0 0 66039859.37199067 -21787111.27542853 -21787111.27542853 -5002377.810468841 0 0 0 0 0 67531123.34329288 -22154310.2810428 -22154310.2810428 -5660174.480245347 0 0 0 0 0 69266300.33051045 -21550088.17016691 -21550088.17016691 -5202738.503678326 0 0 0 0 0 71394646.95727009 -21737338.20770016 -21737338.20770016 -5706511.423240704 0 0 0 0 0 73474098.10454868 -21840390.31321812 -21840390.31321812 -6197456.660862301 0 0 0 0 0 75499094.231517 -21864909.91104196 -21864909.91104196 -6666825.166340075 0 0 0 0 0 77460072.2796047 -21816150.81114309 -21816150.81114309 -7114191.09245258 0 0 0 0 0 79361757.9379652 -21700570.76359102 -21700570.76359102 -7530068.621689871 0 0 0 0 0 79852684.17308404 -21591424.95668752 -21591424.95668752 -8138616.484756649 0 0 0 0 0 81490907.15469134 -20980716.31047733 -20980716.31047733 -7553223.779941279 0 0 0 0 0 83136191.81404902 -20764646.07203136 -20764646.07203136 -7919166.817715623 0 0 0 0 0 83722406.35098687 -20086386.4249659 -20086386.4249659 -8144350.223452317 0 0 0 0 0 85162630.48981549 -19804913.81160443 -19804913.81160443 -8453640.845107596 0 0 0 0 0 86765928.12835091 -19035619.71096513 -19035619.71096513 -8411129.67376986 0 0 0 0 0 86597831.65133837 -19260612.97274071 -19260612.97274071 -7884791.317596117 0 0 0 0 0 88065510.44342844 -18705613.24077919 -18705613.24077919 -8675110.217030108 0 0 0 0 0 89304926.67963223 -18348142.08357975 -18348142.08357975 -8912745.390595816 0 0 0 0 0 90489516.79170188 -17967505.0661355 -17967505.0661355 -9124263.996652856 0 0 0 0 0 91621654.20821802 -17567409.07002657 -17567409.07002657 -9311213.3282317 0 0 0 0 0 92680528.58927371 -16795115.72646565 -16795115.72646565 -9151814.567832462 0 0 0 0 0 92815772.60515493 -17094477.69417375 -17094477.69417375 -8772432.053719046 0 0 0 0 0 93668913.39023015 -16383351.20633369 -16383351.20633369 -9292331.089380911 0 0 0 0 0 94604265.2438318 -15961007.2921625 -15961007.2921625 -9410913.146450756 0 0 0 0 0 95490073.88187891 -15530305.34490422 -15530305.34490422 -9508406.797624029 0 0 0 0 0 96327677.03708348 -15093242.92192442 -15093242.92192442 -9585697.600769717 0 0 0 0 0 97117207.53198768 -14652174.57677075 -14652174.57677075 -9643493.390726561 0 0 0 0 0 98026273.53601693 -14278056.76589725 -14278056.76589725 -9180738.714285683 0 0 0 0 0 98379896.99098341 -13546045.46752089 -13546045.46752089 -9422829.46303677 0 0 0 0 0 98729922.56402472 -13848996.19049436 -13848996.19049436 -9232499.536319621 0 0 0 0 0 99021558.91617717 -13119632.41928803 -13119632.41928803 -9435908.227776939 0 0 0 0 0 99624497.63755801 -12695700.12375454 -12695700.12375454 -9434317.179557079 0 0 0 0 0 100190783.1817467 -12274462.86291024 -12274462.86291024 -9418640.132361496 0 0 0 0 0 100719737.5297107 -11855773.5153961 -11855773.5153961 -9389618.484121423 0 0 0 0 0 100989417.4419749 -11304228.17341132 -11304228.17341132 -9106793.390099416 0 0 0 0 0 101386540.8562205 -11573313.24755387 -11573313.24755387 -9018442.771169633 0 0 0 0 0 101442497.9897916 -10911448.09643276 -10911448.09643276 -9062578.488036709 0 0 0 0 0 101865973.4539688 -10524436.72402159 -10524436.72402159 -9007959.646192744 0 0 0 0 0 102259897.3716587 -10143398.56150676 -10143398.56150676 -8944241.026636396 0 0 0 0 0 102626657.5367003 -9769699.872622268 -9769699.872622268 -8871787.323345652 0 0 0 0 0 102966619.5189798 -9403081.176071096 -9403081.176071096 -8790715.346299028 0 0 0 0 0 103728601.105269 -8849889.89342824 -8849889.89342824 -8434050.22253482 0 0 0 0 0 103281722.8451806 -9044667.978599954 -9044667.978599954 -8703396.590082036 0 0 0 0 0 103329023.2713847 -8638660.485370532 -8638660.485370532 -8424386.17784946 0 0 0 0 0 103597142.5619458 -8306019.133595284 -8306019.133595284 -8331974.492490716 0 0 0 0 0 103844611.1016661 -7981003.082543128 -7981003.082543128 -8234758.199749527 0 0 0 0 0 104073720.172991 -7668233.029598277 -7668233.029598277 -8129040.763564496 0 0 0 0 0 104277757.7675431 -7362796.58852342 -7362796.58852342 -8013726.830544717 0 0 0 0 0 104447937.9489277 -7071516.131023428 -7071516.131023428 -7899339.074008059 0 0 0 0 0 104740988.4281265 -6944062.39002782 -6944062.39002782 -7721411.371962945 0 0 0 0 0 104376812.5070542 -6778565.834769258 -6778565.834769258 -7652903.49748467 0 0 0 0 0 104538484.1460955 -6502658.147610114 -6502658.147610114 -7544338.926671554 0 0 0 0 0 104686187.6352981 -6233770.060811705 -6233770.060811705 -7433416.764019101 0 0 0 0 0 104821012.5039922 -5972674.069105046 -5972674.069105046 -7320187.028099392 0 0 0 0 0 105060896.0080182 -5865347.099439136 -5865347.099439136 -7164862.763493572 0 0 0 0 0 104729161.8146659 -5729446.114911718 -5729446.114911718 -7088989.078677124 0 0 0 0 0 104842642.9881084 -5489238.138284583 -5489238.138284583 -6978411.82430119 0 0 0 0 0 104944550.5805571 -5256495.070521777 -5256495.070521777 -6866310.741236931 0 0 0 0 0 105035007.0250672 -5030830.092019236 -5030830.092019236 -6752256.380080736 0 0 0 0 0 105114686.7338191 -4812465.180486123 -4812465.180486123 -6639125.504737257 0 0 0 0 0 105186217.4097366 -4599887.398379241 -4599887.398379241 -6524232.995156225 0 0 0 0 0 105248843.0146165 -4394155.229321909 -4394155.229321909 -6409528.242725276 0 0 0 0 0 105304588.4480558 -4195297.002478062 -4195297.002478062 -6294745.81402051 0 0 0 0 0 105169732.73467 -4041766.147477266 -4041766.147477266 -6104964.762103453 0 0 0 0 0 105443190.1145838 -4132945.272021237 -4132945.272021237 -6203721.067903115 0 0 0 0 0 105212972.8172649 -3859178.735220307 -3859178.735220307 -5994797.270354347 0 0 0 0 0 105333474.4439614 -3804751.811283359 -3804751.811283359 -5914668.015684493 0 0 0 0 0 105078130.2972233 -3722662.196582052 -3722662.196582052 -5817356.468976749 0 0 0 0 0 105106710.620471 -3552529.446246148 -3552529.446246148 -5711782.979013599 0 0 0 0 0 105140836.5664994 -3389273.824163126 -3389273.824163126 -5608784.322064861 0 0 0 0 0 105155139.0275635 -3231026.042172619 -3231026.042172619 -5517194.160615063 0 0 0 0 0 105165053.5045518 -3096515.568059196 -3096515.568059196 -5441389.401528897 0 0 0 0 0 105318973.3968064 -2979619.653451973 -2979619.653451973 -5296556.122455122 0 0 0 0 0 105250378.7608615 -2881025.251210678 -2881025.251210678 -5203348.951785068 0 0 0 0 0 105175705.5682815 -2786456.933861488 -2786456.933861488 -5118621.89000633 0 0 0 0 0 105146295.5580739 -2687404.088958716 -2687404.088958716 -5030187.86982436 0 0 0 0 0 83449311.42871292 -20594611.55328744 -20594611.55328744 -8499483.478576289 0 0 0 0 0 28948126.04267961 -1152087.303665549 -1152087.303665549 -1670222.041800424 0 0 0 0 0 30271323.21490853 -3105087.526533425 -3105087.526533425 -1257900.212167952 0 0 0 0 0 32878955.41581848 -5326134.281196568 -5326134.281196568 -693287.279255891 0 0 0 0 0 34032400.78189559 -7345396.851424761 -7345396.851424761 -723942.2816449195 0 0 0 0 0 35434309.46090261 -9293467.192607809 -9293467.192607809 -840172.9938770059 0 0 0 0 0 37031428.14947349 -11161636.95483896 -11161636.95483896 -1022669.241130753 0 0 0 0 0 38782647.7082668 -12922656.34753999 -12922656.34753999 -1274608.499529035 0 0 0 0 0 39428972.06065669 -12737263.84338057 -12737263.84338057 -1256032.861363215 0 0 0 0 0 42785767.3936233 -14514398.78532189 -14514398.78532189 -1102365.033856883 0 0 0 0 0 44776676.67743409 -15953583.86104286 -15953583.86104286 -1508086.584649754 0 0 0 0 0 46874722.21675461 -17268400.15558686 -17268400.15558686 -1959969.946837066 0 0 0 0 0 49062550.62635615 -18456546.06503469 -18456546.06503469 -2450425.522556322 0 0 0 0 0 53009508.84480111 -19170316.02045331 -19170316.02045331 -2611803.278454117 0 0 0 0 0 50383972.00575326 -18041924.08004013 -18041924.08004013 -2276489.541575386 0 0 0 0 0 55225798.54549393 -20050115.54185541 -20050115.54185541 -3162621.956014667 0 0 0 0 0 57473712.99612988 -20809769.33666818 -20809769.33666818 -3727110.761657563 0 0 0 0 0 59738144.03217199 -21451663.12712946 -21451663.12712946 -4298921.395881928 0 0 0 0 0 62005428.4835974 -21979532.4540009 -21979532.4540009 -4872090.655587871 0 0 0 0 0 64263689.56245963 -22397880.98214895 -22397880.98214895 -5441026.774305286 0 0 0 0 0 66501099.05823942 -22711693.21330726 -22711693.21330726 -6000240.119561316 0 0 0 0 0 68311149.73462325 -22081445.12403557 -22081445.12403557 -5523357.11691329 0 0 0 0 0 69640456.44582237 -22356132.47951737 -22356132.47951737 -6197735.084437423 0 0 0 0 0 71710647.46340232 -22469311.13864108 -22469311.13864108 -6717233.387875069 0 0 0 0 0 73733724.35826445 -22500214.32452632 -22500214.32452632 -7215375.907062165 0 0 0 0 0 75704739.1400163 -22455932.14920593 -22455932.14920593 -7687561.320203654 0 0 0 0 0 77614574.13611928 -22340372.59979993 -22340372.59979993 -8132184.642292667 0 0 0 0 0 79417676.1628242 -22149256.94790015 -22149256.94790015 -8519072.809215482 0 0 0 0 0 81113174.36551675 -21516946.19622149 -21516946.19622149 -7919646.79588666 0 0 0 0 0 81529224.75377779 -21369231.62480079 -21369231.62480079 -8512126.701127578 0 0 0 0 0 83167324.61703642 -21108041.45053743 -21108041.45053743 -8870902.772239972 0 0 0 0 0 84964635.39193995 -20011544.15260081 -20011544.15260081 -7912646.26714 0 0 0 0 0 86429175.98889536 -19724423.03477695 -19724423.03477695 -8217053.689887973 0 0 0 0 0 87967867.52695593 -18955473.84482816 -18955473.84482816 -8178400.944294388 0 0 0 0 0 86572071.981737 -19492411.70798628 -19492411.70798628 -8743374.130982447 0 0 0 0 0 89280034.82042062 -18618845.19549194 -18618845.19549194 -8443913.709425788 0 0 0 0 0 90530337.46290667 -18254346.79551923 -18254346.79551923 -8683679.161545834 0 0 0 0 0 91719354.58808331 -17866670.20330481 -17866670.20330481 -8898942.646977825 0 0 0 0 0 92846595.9198284 -17460333.53665921 -17460333.53665921 -9091305.647789631 0 0 0 0 0 93848357.90891548 -16691089.92047449 -16691089.92047449 -8942964.044783706 0 0 0 0 0 92697210.69090885 -17150316.00480857 -17150316.00480857 -9473524.68798827 0 0 0 0 0 94825567.64343555 -16274030.13210368 -16274030.13210368 -9090064.242823372 0 0 0 0 0 95748567.04108664 -15846428.28065593 -15846428.28065593 -9215279.994605847 0 0 0 0 0 96618946.14515796 -15410641.06531551 -15410641.06531551 -9319856.270062165 0 0 0 0 0 97438336.00432265 -14969079.84033086 -14969079.84033086 -9404537.54765187 0 0 0 0 0 98207671.51627648 -14523983.06116719 -14523983.06116719 -9470249.559078576 0 0 0 0 0 97860335.15324357 -14208349.91384632 -14208349.91384632 -9682334.582130296 0 0 0 0 0 99389970.92214815 -13418993.14828742 -13418993.14828742 -9268548.344121704 0 0 0 0 0 98559364.90383747 -13764178.36980392 -13764178.36980392 -9705293.090075094 0 0 0 0 0 100009590.4692533 -12989562.83942425 -12989562.83942425 -9288714.231724303 0 0 0 0 0 100588571.7513824 -12561847.41687547 -12561847.41687547 -9293930.380143223 0 0 0 0 0 101129500.4404869 -12138602.68631656 -12138602.68631656 -9286813.013917711 0 0 0 0 0 101630215.9036012 -11718999.04128342 -11718999.04128342 -9265234.611835483 0 0 0 0 0 101846597.0528004 -11173608.39177056 -11173608.39177056 -8991728.813522745 0 0 0 0 0 101214262.460782 -11442704.46799329 -11442704.46799329 -9348124.692854317 0 0 0 0 0 102275047.0162521 -10779360.32043314 -10779360.32043314 -8953822.011900377 0 0 0 0 0 102672877.4476134 -10391132.32476969 -10391132.32476969 -8905704.78055373 0 0 0 0 0 103041611.635416 -10009549.92845316 -10009549.92845316 -8848482.819046294 0 0 0 0 0 103382642.6513899 -9635109.311776938 -9635109.311776938 -8781935.587201234 0 0 0 0 0 103697836.5317659 -9268482.91202537 -9268482.91202537 -8708090.940086419 0 0 0 0 0 103572908.3826601 -8694100.082072116 -8694100.082072116 -8609637.122023398 0 0 0 0 0 103987698.0413618 -8909593.82043477 -8909593.82043477 -8626537.000011364 0 0 0 0 0 103994848.4917579 -8509627.47972277 -8509627.47972277 -8353056.130643915 0 0 0 0 0 104239374.7506606 -8177075.567832859 -8177075.567832859 -8266045.864236829 0 0 0 0 0 104465201.0422471 -7852700.223371203 -7852700.223371203 -8173553.426140971 0 0 0 0 0 104658866.2245759 -7543038.351004866 -7543038.351004866 -8081470.078074556 0 0 0 0 0 104830624.0437126 -7245372.687268841 -7245372.687268841 -7985411.653960736 0 0 0 0 0 104990552.3644257 -6956611.433706297 -6956611.433706297 -7876050.1923073 0 0 0 0 0 104610081.1799383 -6786782.882947871 -6786782.882947871 -7791166.137671601 0 0 0 0 0 104897458.9482793 -6659211.42958103 -6659211.42958103 -7609505.41856545 0 0 0 0 0 105040383.5719905 -6384115.124999455 -6384115.124999455 -7505329.345721107 0 0 0 0 0 105169225.5856558 -6116363.38662272 -6116363.38662272 -7397908.165024308 0 0 0 0 0 105285020.7698518 -5856609.527855336 -5856609.527855336 -7288560.130836643 0 0 0 0 0 104943244.4189258 -5719435.179701149 -5719435.179701149 -7205391.44721486 0 0 0 0 0 105168064.5767446 -5618742.225131907 -5618742.225131907 -7059425.611114276 0 0 0 0 0 105263778.9792216 -5379747.173887261 -5379747.173887261 -6952246.414772126 0 0 0 0 0 105348488.6010257 -5148280.316702054 -5148280.316702054 -6843436.954377709 0 0 0 0 0 105422222.078337 -4924497.691519647 -4924497.691519647 -6733908.828911955 0 0 0 0 0 105487546.3429527 -4706793.060694754 -4706793.060694754 -6621467.870861292 0 0 0 0 0 105543930.622213 -4496054.387080536 -4496054.387080536 -6509484.300409929 0 0 0 0 0 105592352.1739899 -4291995.580701159 -4291995.580701159 -6396970.62260648 0 0 0 0 0 105633129.9680251 -4094939.816152644 -4094939.816152644 -6284686.259467985 0 0 0 0 0 105480725.0280176 -3945728.812736151 -3945728.812736151 -6096000.94577569 0 0 0 0 0 105352407.4080943 -4003378.102590114 -4003378.102590114 -6180001.161676799 0 0 0 0 0 105511304.0592127 -3764841.568135333 -3764841.568135333 -5987675.844987073 0 0 0 0 0 105249364.5455617 -3682549.484228367 -3682549.484228367 -5884697.240218326 0 0 0 0 0 105360440.1798152 -3632412.139609354 -3632412.139609354 -5811082.953610637 0 0 0 0 0 105383176.7213619 -3464104.096841114 -3464104.096841114 -5706232.072437269 0 0 0 0 0 105398899.262519 -3304618.899576702 -3304618.899576702 -5604717.765063452 0 0 0 0 0 105414698.937853 -3148275.05651528 -3148275.05651528 -5497655.063162461 0 0 0 0 0 105406233.4929413 -3005381.518439691 -3005381.518439691 -5388469.709730703 0 0 0 0 0 105340012.50229 -2923074.0176628 -2923074.0176628 -5391281.610638613 0 0 0 0 0 105319336.1601267 -2828317.263245447 -2828317.263245447 -5298498.553884488 0 0 0 0 0 105269380.2679626 -2739619.874950689 -2739619.874950689 -5206411.892744477 0 0 0 0 0 105218803.7216818 -2649171.98999983 -2649171.98999983 -5101471.187503292 0 0 0 0 0 84747358.34791994 -20507617.40533101 -20507617.40533101 -8262272.124874532 0 0 0 0 0 27960856.18395894 -834500.3604801229 -834500.3604801229 -2146161.379070101 0 0 0 0 0 29448476.81567902 -2845670.692397285 -2845670.692397285 -1640701.692645458 0 0 0 0 0 30369775.60620775 -5018872.343033129 -5018872.343033129 -1501783.949732714 0 0 0 0 0 31736938.17637107 -7060032.266717601 -7060032.266717601 -1466484.324936526 0 0 0 0 0 33350525.49764509 -9013622.193454577 -9013622.193454577 -1529057.84237502 0 0 0 0 0 35176227.19643103 -10885443.30829838 -10885443.30829838 -1653555.67385364 0 0 0 0 0 37199468.98835249 -12663097.25794432 -12663097.25794432 -1829364.210213568 0 0 0 0 0 40703707.48636983 -14564117.22742662 -14564117.22742662 -1592069.483832816 0 0 0 0 0 41545729.45004161 -14313684.58350337 -14313684.58350337 -1535182.349839027 0 0 0 0 0 43788925.99931551 -15768409.24569245 -15768409.24569245 -1870068.688717062 0 0 0 0 0 46135049.91494536 -17097433.6100876 -17097433.6100876 -2253070.932599879 0 0 0 0 0 48561846.30679307 -18298885.94707119 -18298885.94707119 -2677363.776321509 0 0 0 0 0 52770393.26626612 -19053800.90199343 -19053800.90199343 -2748198.504256158 0 0 0 0 0 51322045.71434062 -19517119.2480485 -19517119.2480485 -2972307.453485135 0 0 0 0 0 55192840.23991718 -19941911.62842895 -19941911.62842895 -3244078.260545693 0 0 0 0 0 57635272.98500565 -20707968.51193252 -20707968.51193252 -3757714.678516527 0 0 0 0 0 60081993.84961116 -21354944.00371805 -21354944.00371805 -4282548.031408015 0 0 0 0 0 62518784.71093335 -21886347.58645437 -21886347.58645437 -4812847.712192759 0 0 0 0 0 64932267.27475689 -22306450.15698826 -22306450.15698826 -5343469.960224912 0 0 0 0 0 67311235.97531068 -22620265.63011621 -22620265.63011621 -5868843.154266804 0 0 0 0 0 68708193.34292997 -22926528.77284411 -22926528.77284411 -6545215.772644102 0 0 0 0 0 70539378.24699193 -22281129.16237213 -22281129.16237213 -6033931.615084258 0 0 0 0 0 72715794.7378365 -22391745.05353537 -22391745.05353537 -6530132.093511712 0 0 0 0 0 74832529.53161712 -22419162.79119682 -22419162.79119682 -7008574.574248804 0 0 0 0 0 76879642.59629086 -22370997.65938071 -22370997.65938071 -7465617.981360436 0 0 0 0 0 78844446.47592361 -22251368.80463096 -22251368.80463096 -7899892.209396302 0 0 0 0 0 80719154.67925926 -22062295.37287425 -22062295.37287425 -8300090.11297331 0 0 0 0 0 81160575.47036688 -21913008.93964953 -21913008.93964953 -8882402.784262775 0 0 0 0 0 82826470.98330593 -21277178.2913602 -21277178.2913602 -8271593.192438285 0 0 0 0 0 84495903.365282 -21004222.88997735 -21004222.88997735 -8618435.892604576 0 0 0 0 0 84944204.34833796 -20295414.60666719 -20295414.60666719 -8805825.043679126 0 0 0 0 0 86381794.42154287 -19960243.76069243 -19960243.76069243 -9092474.344669443 0 0 0 0 0 87920557.20607877 -19145512.0638225 -19145512.0638225 -9009093.156816928 0 0 0 0 0 87831130.25137103 -19402373.87231379 -19402373.87231379 -8501262.234894572 0 0 0 0 0 89209807.04617934 -18770226.42363949 -18770226.42363949 -9248510.94966268 0 0 0 0 0 90440097.61552539 -18370137.22872882 -18370137.22872882 -9460422.425596273 0 0 0 0 0 91611463.78022687 -17949756.10674086 -17949756.10674086 -9646269.576964015 0 0 0 0 0 92722887.87130736 -17512410.00176977 -17512410.00176977 -9806637.1211007 0 0 0 0 0 93717222.26212488 -16719346.07583547 -16719346.07583547 -9611963.958691532 0 0 0 0 0 93913671.57296456 -17037446.56001972 -17037446.56001972 -9259567.421835927 0 0 0 0 0 94683206.9892216 -16277257.22938575 -16277257.22938575 -9727304.910274906 0 0 0 0 0 95596348.7153002 -15826631.32470215 -15826631.32470215 -9820763.161755597 0 0 0 0 0 96458473.48363057 -15370015.55730031 -15370015.55730031 -9893273.039904347 0 0 0 0 0 97271011.35539494 -14909401.91065409 -14909401.91065409 -9945773.500116533 0 0 0 0 0 98034438.83067846 -14446615.10840742 -14446615.10840742 -9979154.038249254 0 0 0 0 0 98928681.16108881 -14076994.55693655 -14076994.55693655 -9517826.012875257 0 0 0 0 0 99216351.01143925 -13320981.87287052 -13320981.87287052 -9711786.645424128 0 0 0 0 0 99604514.99031597 -13629054.58952674 -13629054.58952674 -9547555.610333806 0 0 0 0 0 99832918.39593448 -12878917.74029632 -12878917.74029632 -9704098.279956024 0 0 0 0 0 100411322.2252988 -12441540.68054119 -12441540.68054119 -9681961.618079009 0 0 0 0 0 100951550.5354543 -12006849.37791434 -12006849.37791434 -9643325.698539099 0 0 0 0 0 101452126.4207911 -11579503.94515034 -11579503.94515034 -9594463.494068863 0 0 0 0 0 101674899.9827335 -11036054.3384524 -11036054.3384524 -9296482.732542448 0 0 0 0 0 102097672.674358 -11304809.29929034 -11304809.29929034 -9231163.443571502 0 0 0 0 0 102104231.0423135 -10635444.49334417 -10635444.49334417 -9234375.30865006 0 0 0 0 0 102503247.1967914 -10241660.31046934 -10241660.31046934 -9162807.590347553 0 0 0 0 0 102873763.9387784 -9855338.98169758 -9855338.98169758 -9082277.309811804 0 0 0 0 0 103216714.9218297 -9477171.626755152 -9477171.626755152 -8994336.934350383 0 0 0 0 0 103534294.2713926 -9106962.230897017 -9106962.230897017 -8898780.014556928 0 0 0 0 0 104254443.3022591 -8559262.738537775 -8559262.738537775 -8538491.971985567 0 0 0 0 0 103827070.5765947 -8745827.726210346 -8745827.726210346 -8797212.583600804 0 0 0 0 0 103841639.3893427 -8351592.808425128 -8351592.808425128 -8510293.190285727 0 0 0 0 0 104089241.9303161 -8017898.960247759 -8017898.960247759 -8405217.4307194 0 0 0 0 0 104318995.625181 -7693395.649438526 -7693395.649438526 -8294762.546828551 0 0 0 0 0 104525072.8327462 -7380127.332540751 -7380127.332540751 -8170771.990889292 0 0 0 0 0 104695542.3601263 -7082743.442155332 -7082743.442155332 -8051381.411911099 0 0 0 0 0 104854368.4741941 -6790270.280811409 -6790270.280811409 -7933731.248334249 0 0 0 0 0 105139636.5916607 -6665626.047632514 -6665626.047632514 -7757895.284963371 0 0 0 0 0 104767485.6940511 -6505752.182846915 -6505752.182846915 -7680352.722968072 0 0 0 0 0 104913475.2552594 -6230516.538313331 -6230516.538313331 -7562470.000406227 0 0 0 0 0 105045511.5099884 -5963585.510315318 -5963585.510315318 -7442954.733426793 0 0 0 0 0 105164961.8294871 -5704776.36713797 -5704776.36713797 -7321584.559262375 0 0 0 0 0 105388843.2306168 -5604727.347362987 -5604727.347362987 -7177055.35195955 0 0 0 0 0 105053638.4840018 -5473969.215203024 -5473969.215203024 -7089062.126305118 0 0 0 0 0 105152637.6206182 -5236215.322293878 -5236215.322293878 -6971380.449722582 0 0 0 0 0 105240728.4259984 -5005947.453588066 -5005947.453588066 -6852529.715520149 0 0 0 0 0 105318202.274557 -4783054.356015912 -4783054.356015912 -6732962.315866368 0 0 0 0 0 105386007.7573749 -4567108.244558551 -4567108.244558551 -6613218.912882826 0 0 0 0 0 105445421.1024332 -4358062.299385842 -4358062.299385842 -6493304.830243299 0 0 0 0 0 105497025.6770707 -4155996.856469614 -4155996.856469614 -6373361.111223143 0 0 0 0 0 105540931.0462557 -3960984.654741334 -3960984.654741334 -6253637.836593681 0 0 0 0 0 105392814.1309977 -3818134.107188477 -3818134.107188477 -6065459.409212149 0 0 0 0 0 105666682.8531815 -3904713.802316001 -3904713.802316001 -6172265.851861077 0 0 0 0 0 105425993.7857196 -3638879.727116069 -3638879.727116069 -5951114.944215992 0 0 0 0 0 105535297.8106345 -3589765.156895748 -3589765.156895748 -5879514.774650612 0 0 0 0 0 105278396.4104312 -3511159.074947534 -3511159.074947534 -5774800.586577805 0 0 0 0 0 105305063.7140102 -3346465.904647236 -3346465.904647236 -5664910.454540304 0 0 0 0 0 105323996.2716108 -3188407.65120316 -3188407.65120316 -5554238.6602057 0 0 0 0 0 105351899.8707415 -3036623.95644101 -3036623.95644101 -5449349.705760865 0 0 0 0 0 105400700.0733971 -2896336.255248283 -2896336.255248283 -5347701.606219808 0 0 0 0 0 105417868.6912577 -2780622.92898794 -2780622.92898794 -5221721.203582363 0 0 0 0 0 105362522.904118 -2692491.332997232 -2692491.332997232 -5129800.709117305 0 0 0 0 0 105313453.482059 -2606231.34311203 -2606231.34311203 -5033072.240110409 0 0 0 0 0 84717115.15766753 -20791866.37299873 -20791866.37299873 -9183695.354932453 0 0 0 0 0 26606943.72305375 -1206308.779116108 -1206308.779116108 -2713483.666341636 0 0 0 0 0 28073342.41597588 -3225109.351172239 -3225109.351172239 -2172608.285601055 0 0 0 0 0 29980929.72403044 -5182055.48088845 -5182055.48088845 -1726824.569636395 0 0 0 0 0 31714881.27032059 -7071074.583988881 -7071074.583988881 -1485448.916893248 0 0 0 0 0 33182698.11009846 -9059623.311533215 -9059623.311533215 -1525246.858554992 0 0 0 0 0 34776280.22624914 -11000085.51228806 -11000085.51228806 -1666909.600042691 0 0 0 0 0 36565922.62175336 -12854342.93751149 -12854342.93751149 -1884522.372416215 0 0 0 0 0 38526341.25285978 -14584187.58296757 -14584187.58296757 -2165833.558405986 0 0 0 0 0 39376840.24794661 -14322562.58175192 -14322562.58175192 -2073444.514284284 0 0 0 0 0 42760373.24987651 -16082188.174898 -16082188.174898 -1969338.300668244 0 0 0 0 0 44932996.15285947 -17471723.76233432 -17471723.76233432 -2399536.819445288 0 0 0 0 0 47203587.37604249 -18729105.86633037 -18729105.86633037 -2872467.09136557 0 0 0 0 0 49554473.5906688 -19852299.7069945 -19852299.7069945 -3380731.772438088 0 0 0 0 0 53633263.59378256 -20449475.6572644 -20449475.6572644 -3518256.005001925 0 0 0 0 0 51049283.87094586 -19370979.88363261 -19370979.88363261 -3136920.014812723 0 0 0 0 0 55980154.34095632 -21255124.96134278 -21255124.96134278 -4081204.250895186 0 0 0 0 0 58346842.14691103 -21936444.20997978 -21936444.20997978 -4652262.839662309 0 0 0 0 0 60718402.44987103 -22497691.28670411 -22497691.28670411 -5227259.132849722 0 0 0 0 0 63081006.01156726 -22943162.44123758 -22943162.44123758 -5800530.834365791 0 0 0 0 0 65423034.51451732 -23277615.15692675 -23277615.15692675 -6365817.024255565 0 0 0 0 0 67733143.44999719 -23506954.87889138 -23506954.87889138 -6916846.389451716 0 0 0 0 0 69645131.33018555 -22833703.36980304 -22833703.36980304 -6384392.566587332 0 0 0 0 0 70874543.84897964 -23048115.13377129 -23048115.13377129 -7071724.073370379 0 0 0 0 0 72991523.8303104 -23082039.04265328 -23082039.04265328 -7575334.179079987 0 0 0 0 0 75053675.309496 -23035682.20720515 -23035682.20720515 -8053027.815471854 0 0 0 0 0 77048993.05368173 -22915770.85113847 -22915770.85113847 -8501845.476878531 0 0 0 0 0 78983260.15114979 -22725684.88272012 -22725684.88272012 -8907833.929266661 0 0 0 0 0 80784577.38466497 -22465373.05775823 -22465373.05775823 -9275838.624989361 0 0 0 0 0 82510321.33021793 -21813623.9311121 -21813623.9311121 -8650605.774043193 0 0 0 0 0 82857254.77225624 -21630519.43277726 -21630519.43277726 -9240909.993425932 0 0 0 0 0 84497325.14636576 -21302949.47843313 -21302949.47843313 -9575735.239084495 0 0 0 0 0 86267588.57455835 -20205198.63070485 -20205198.63070485 -8570748.166458981 0 0 0 0 0 87712660.27039631 -19860668.34963164 -19860668.34963164 -8859005.621210607 0 0 0 0 0 89188953.11271188 -19049413.13986663 -19049413.13986663 -8771373.121735148 0 0 0 0 0 87776768.3950419 -19595954.84383582 -19595954.84383582 -9359198.66477859 0 0 0 0 0 90486225.75691535 -18666819.16332348 -18666819.16332348 -9013662.784754351 0 0 0 0 0 91717583.17451888 -18260167.44563872 -18260167.44563872 -9229852.108347666 0 0 0 0 0 92884385.85262766 -17833629.42626125 -17833629.42626125 -9420980.981519777 0 0 0 0 0 93987847.13656887 -17390252.06052363 -17390252.06052363 -9587309.536978424 0 0 0 0 0 94922080.15401174 -16600910.4231065 -16600910.4231065 -9404547.621547906 0 0 0 0 0 93776078.23793161 -17060948.82441084 -17060948.82441084 -9942338.766616901 0 0 0 0 0 95873155.92274702 -16153570.48945657 -16153570.48945657 -9526997.15506193 0 0 0 0 0 96769048.47535497 -15698031.74232299 -15698031.74232299 -9627603.427355407 0 0 0 0 0 97611413.86500889 -15237005.57219907 -15237005.57219907 -9708110.318943851 0 0 0 0 0 98401398.94829328 -14772319.06948778 -14772319.06948778 -9768685.247656686 0 0 0 0 0 99141151.24306463 -14306339.27222814 -14306339.27222814 -9811073.234351289 0 0 0 0 0 98751115.88530633 -13984035.05229264 -13984035.05229264 -9994884.727087464 0 0 0 0 0 100237480.5327679 -13182680.02354048 -13182680.02354048 -9561712.226840055 0 0 0 0 0 99423567.56675009 -13522586.87155839 -13522586.87155839 -9995101.877239266 0 0 0 0 0 100831833.9564347 -12737126.6027391 -12737126.6027391 -9559914.922363322 0 0 0 0 0 101383724.603929 -12296120.97615838 -12296120.97615838 -9545983.378359595 0 0 0 0 0 101892485.6725627 -11861394.50305135 -11861394.50305135 -9519170.046086516 0 0 0 0 0 102364546.689754 -11433260.54978923 -11433260.54978923 -9478353.714947745 0 0 0 0 0 102532648.0683542 -10896301.82344963 -10896301.82344963 -9186099.477657611 0 0 0 0 0 101919560.0294841 -11158447.64494491 -11158447.64494491 -9535575.771066917 0 0 0 0 0 102935435.9160673 -10494687.72538235 -10494687.72538235 -9131371.489025785 0 0 0 0 0 103307996.441782 -10100171.53037309 -10100171.53037309 -9066620.341155818 0 0 0 0 0 103650767.4757058 -9713527.18677468 -9713527.18677468 -8993027.618331997 0 0 0 0 0 103967731.4247293 -9335383.880776582 -9335383.880776582 -8911419.257343819 0 0 0 0 0 104258097.6052633 -8965511.744605958 -8965511.744605958 -8821935.436221663 0 0 0 0 0 104096631.5527032 -8393376.097793389 -8393376.097793389 -8689790.656549333 0 0 0 0 0 104525004.6465999 -8604694.238996558 -8604694.238996558 -8726357.627609244 0 0 0 0 0 104498879.0190173 -8217306.401748347 -8217306.401748347 -8444499.443059132 0 0 0 0 0 104720395.0621603 -7884156.768356223 -7884156.768356223 -8345202.732851179 0 0 0 0 0 104922242.9828191 -7560907.322990262 -7560907.322990262 -8240530.355287649 0 0 0 0 0 105087892.702635 -7258990.178400577 -7258990.178400577 -8142595.67318511 0 0 0 0 0 105244036.6100288 -6964880.889013079 -6964880.889013079 -8028679.20210443 0 0 0 0 0 105390726.0135185 -6667482.011371571 -6667482.011371571 -7903324.843914036 0 0 0 0 0 105006701.5734417 -6503062.270805274 -6503062.270805274 -7814557.077811249 0 0 0 0 0 105278664.179832 -6382349.541537893 -6382349.541537893 -7642194.040920351 0 0 0 0 0 105404210.933581 -6108582.221594066 -6108582.221594066 -7528334.578081164 0 0 0 0 0 105516804.7432001 -5843109.89388682 -5843109.89388682 -7412225.356130469 0 0 0 0 0 105617065.8838928 -5586042.525597459 -5586042.525597459 -7294798.565078089 0 0 0 0 0 105272002.2657708 -5454263.064285942 -5454263.064285942 -7199331.654485988 0 0 0 0 0 105481264.3863304 -5360669.420231787 -5360669.420231787 -7063984.306326465 0 0 0 0 0 105562636.1950701 -5124360.973903065 -5124360.973903065 -6949525.3588541 0 0 0 0 0 105633517.9867774 -4895718.823926562 -4895718.823926562 -6834009.122304809 0 0 0 0 0 105695014.5887867 -4674174.71069593 -4674174.71069593 -6717204.978095951 0 0 0 0 0 105747488.7963678 -4459971.900163929 -4459971.900163929 -6599833.343319695 0 0 0 0 0 105791858.300892 -4252652.848561624 -4252652.848561624 -6482175.928260118 0 0 0 0 0 105828425.7263673 -4052518.566554023 -4052518.566554023 -6364733.062398599 0 0 0 0 0 105857674.6996085 -3859501.874226612 -3859501.874226612 -6247493.812503436 0 0 0 0 0 105693569.726438 -3721031.630407239 -3721031.630407239 -6059649.694588017 0 0 0 0 0 105577375.6090854 -3772918.926268751 -3772918.926268751 -6134475.07267814 0 0 0 0 0 105714080.3499129 -3543547.973120077 -3543547.973120077 -5947181.770289477 0 0 0 0 0 105452326.9740174 -3465365.419701573 -3465365.419701573 -5837350.281765538 0 0 0 0 0 105553860.918148 -3419839.62499644 -3419839.62499644 -5771254.87500596 0 0 0 0 0 105566446.5198346 -3256249.650478313 -3256249.650478313 -5663839.946382477 0 0 0 0 0 105574269.0408308 -3098493.380786295 -3098493.380786295 -5555784.808976097 0 0 0 0 0 105585312.1896538 -2947708.822348735 -2947708.822348735 -5448958.38840236 0 0 0 0 0 105556305.4376749 -2815492.241697522 -2815492.241697522 -5359883.944356733 0 0 0 0 0 105487781.817006 -2728407.968996659 -2728407.968996659 -5317898.904452599 0 0 0 0 0 105428799.8703085 -2640114.544779769 -2640114.544779769 -5225939.513498453 0 0 0 0 0 105376465.9922432 -2550544.274826662 -2550544.274826662 -5128287.434272588 0 0 0 0 0 86110901.71483566 -20689722.36085383 -20689722.36085383 -8941790.337118467 0 0 0 0 0 25517476.35179823 -838830.6309094987 -838830.6309094987 -3282666.194839675 0 0 0 0 0 26968550.63624379 -2849645.917435653 -2849645.917435653 -2756384.854424426 0 0 0 0 0 28581939.10684164 -4771552.647823577 -4771552.647823577 -2368165.735362552 0 0 0 0 0 29499542.58616319 -6754917.763027336 -6754917.763027336 -2226614.297305407 0 0 0 0 0 30985083.85384025 -8749471.675457368 -8749471.675457368 -2262698.849366725 0 0 0 0 0 32797451.0064457 -10689444.82103822 -10689444.82103822 -2351195.521305567 0 0 0 0 0 34867481.56600063 -12552651.4092506 -12552651.4092506 -2495569.743527703 0 0 0 0 0 37112424.2882137 -14296917.04277307 -14296917.04277307 -2699267.387792917 0 0 0 0 0 40649905.24368848 -16183296.42917038 -16183296.42917038 -2507427.00317501 0 0 0 0 0 41691492.94655277 -15857929.01324896 -15857929.01324896 -2377307.492306662 0 0 0 0 0 44125581.55755038 -17263199.55363779 -17263199.55363779 -2734339.010613583 0 0 0 0 0 46650159.3747422 -18535003.92657825 -18535003.92657825 -3136808.666154424 0 0 0 0 0 49243533.16997676 -19671281.466203 -19671281.466203 -3578264.661784589 0 0 0 0 0 53578528.37660433 -20313288.14180831 -20313288.14180831 -3623976.457897072 0 0 0 0 0 51964426.4549418 -20840910.74162982 -20840910.74162982 -3916758.417081748 0 0 0 0 0 56131091.20833001 -21127377.94052088 -21127377.94052088 -4132006.031648227 0 0 0 0 0 58684485.62320216 -21814935.92959409 -21814935.92959409 -4654160.981949358 0 0 0 0 0 61232116.11107801 -22380280.77261457 -22380280.77261457 -5184254.733781976 0 0 0 0 0 63763905.65686822 -22828129.33377212 -22828129.33377212 -5715555.08461797 0 0 0 0 0 66262171.60018101 -23164392.59497783 -23164392.59497783 -6242202.965477898 0 0 0 0 0 68708509.01156648 -23393841.22527074 -23393841.22527074 -6760666.594139997 0 0 0 0 0 70001225.91287737 -23637375.83855827 -23637375.83855827 -7449904.113456113 0 0 0 0 0 71925054.18563899 -22952608.12875929 -22952608.12875929 -6885589.785183613 0 0 0 0 0 74142914.20447743 -22982755.54319587 -22982755.54319587 -7368448.227897774 0 0 0 0 0 76292943.88432686 -22930557.11902495 -22930557.11902495 -7829382.99189813 0 0 0 0 0 78366482.40130423 -22805909.06137644 -22805909.06137644 -8267043.603315582 0 0 0 0 0 80321132.47401865 -22617436.7401753 -22617436.7401753 -8679346.327907939 0 0 0 0 0 82190144.41715232 -22360140.98504474 -22360140.98504474 -9041399.731110731 0 0 0 0 0 82537100.25465845 -22164691.2363023 -22164691.2363023 -9625599.249940056 0 0 0 0 0 84236115.82635897 -21516749.34324625 -21516749.34324625 -8990528.239616374 0 0 0 0 0 85918331.38542858 -21183857.00606588 -21183857.00606588 -9315753.530034674 0 0 0 0 0 86214494.24798 -20442197.14220212 -20442197.14220212 -9469661.890977211 0 0 0 0 0 87643312.99812016 -20055905.71991607 -20055905.71991607 -9719371.795457408 0 0 0 0 0 89114437.43996705 -19202352.50327208 -19202352.50327208 -9598445.582841963 0 0 0 0 0 89100262.62054758 -19487100.67951019 -19487100.67951019 -9114323.244622849 0 0 0 0 0 90390878.82997021 -18781666.49643049 -18781666.49643049 -9809661.732926942 0 0 0 0 0 91603878.68393968 -18340525.36565439 -18340525.36565439 -9994069.696415225 0 0 0 0 0 92754342.05653955 -17881807.33633732 -17881807.33633732 -10152037.41616475 0 0 0 0 0 93843372.31544045 -17408669.45213749 -17408669.45213749 -10284163.17634677 0 0 0 0 0 94772503.13463889 -16598231.71212335 -16598231.71212335 -10054264.59874211 0 0 0 0 0 95029336.42751317 -16933131.00672289 -16933131.00672289 -9729648.420019159 0 0 0 0 0 95713478.11402759 -16127058.34501597 -16127058.34501597 -10143119.86378378 0 0 0 0 0 96601024.84796907 -15650049.48726224 -15650049.48726224 -10210558.90210412 0 0 0 0 0 97436240.78288066 -15169139.07802269 -15169139.07802269 -10257028.35532417 0 0 0 0 0 98220691.0606346 -14686839.28783143 -14686839.28783143 -10284247.51724531 0 0 0 0 0 98956061.70797992 -14204721.81594228 -14204721.81594228 -10292872.04161717 0 0 0 0 0 99832832.3353941 -13840681.65391997 -13840681.65391997 -9834979.989111913 0 0 0 0 0 100053444.0967987 -13062952.29382353 -13062952.29382353 -9979647.930535104 0 0 0 0 0 100479041.2620541 -13375643.0961181 -13375643.0961181 -9842139.452718927 0 0 0 0 0 100645477.6879312 -12606346.34664171 -12606346.34664171 -9951282.744309699 0 0 0 0 0 101198770.2060993 -12154898.57131172 -12154898.57131172 -9904810.894785723 0 0 0 0 0 101708576.8243643 -11711969.73164553 -11711969.73164553 -9847334.169731386 0 0 0 0 0 102181149.0784229 -11276078.93749552 -11276078.93749552 -9778500.076220319 0 0 0 0 0 102355562.0859861 -10743758.4830912 -10743758.4830912 -9465651.038607735 0 0 0 0 0 102803994.5508981 -11010428.60835829 -11010428.60835829 -9424416.135551242 0 0 0 0 0 102760021.6775077 -10336474.45388596 -10336474.45388596 -9386125.684111053 0 0 0 0 0 103134424.7892398 -9936906.316410737 -9936906.316410737 -9296811.461840075 0 0 0 0 0 103479917.1030397 -9547118.096163278 -9547118.096163278 -9201211.732473517 0 0 0 0 0 103799238.893407 -9164970.1628119 -9164970.1628119 -9096157.119109252 0 0 0 0 0 104092396.9041337 -8793349.362701777 -8793349.362701777 -8987252.773854233 0 0 0 0 0 104768922.9989676 -8252834.6868928 -8252834.6868928 -8624618.799999429 0 0 0 0 0 104362408.4624619 -8430527.02645315 -8430527.02645315 -8871441.865748884 0 0 0 0 0 104343910.6874057 -8049657.241861857 -8049657.241861857 -8577440.900760453 0 0 0 0 0 104569784.0275484 -7716493.511047396 -7716493.511047396 -8458422.683938496 0 0 0 0 0 104775032.0800413 -7396925.991911808 -7396925.991911808 -8331757.64785747 0 0 0 0 0 104951575.7262059 -7086861.815565563 -7086861.815565563 -8198024.392976098 0 0 0 0 0 105103164.6740783 -6789682.296765034 -6789682.296765034 -8075128.245552437 0 0 0 0 0 105251812.9192794 -6497241.478094351 -6497241.478094351 -7952965.496901456 0 0 0 0 0 105526021.9832265 -6376704.965319056 -6376704.965319056 -7781354.694088853 0 0 0 0 0 105148470.3669571 -6222457.767839017 -6222457.767839017 -7691834.452102412 0 0 0 0 0 105277679.0210238 -5949670.165714754 -5949670.165714754 -7565409.34418975 0 0 0 0 0 105393715.0674534 -5685572.679951906 -5685572.679951906 -7437850.176207609 0 0 0 0 0 105497653.6603912 -5429815.985545951 -5429815.985545951 -7309076.193426729 0 0 0 0 0 105705709.3613161 -5337028.928039261 -5337028.928039261 -7175587.634691483 0 0 0 0 0 105367694.5702653 -5211612.840864658 -5211612.840864658 -7075849.819506883 0 0 0 0 0 105452471.2811956 -4976764.664374702 -4976764.664374702 -6951429.13753132 0 0 0 0 0 105526732.0410993 -4749538.976282618 -4749538.976282618 -6826452.859884473 0 0 0 0 0 105591625.691714 -4529816.500116469 -4529816.500116469 -6701129.53577333 0 0 0 0 0 105647265.0418781 -4317366.37338156 -4317366.37338156 -6575819.792135372 0 0 0 0 0 105694852.0543708 -4112175.605213641 -4112175.605213641 -6450742.094022498 0 0 0 0 0 105734771.0572507 -3914180.874597129 -3914180.874597129 -6325842.801115278 0 0 0 0 0 105767050.3944074 -3723472.840024274 -3723472.840024274 -6201901.619401127 0 0 0 0 0 105607002.9825547 -3591299.218730953 -3591299.218730953 -6015886.847222985 0 0 0 0 0 105880362.8440003 -3673228.443575919 -3673228.443575919 -6130279.971082408 0 0 0 0 0 105630176.6456771 -3415696.898773595 -3415696.898773595 -5897908.898679993 0 0 0 0 0 105728790.566941 -3371816.361896876 -3371816.361896876 -5835018.33562715 0 0 0 0 0 105473737.9122034 -3297828.381644774 -3297828.381644774 -5724162.449477317 0 0 0 0 0 105489249.155648 -3136684.756516466 -3136684.756516466 -5611039.138840536 0 0 0 0 0 105501895.1123051 -2984382.392482915 -2984382.392482915 -5498490.208219443 0 0 0 0 0 105513239.6460157 -2838318.978233766 -2838318.978233766 -5400528.141480034 0 0 0 0 0 105541112.0417583 -2694818.804985702 -2694818.804985702 -5255648.62615132 0 0 0 0 0 105527952.4772336 -2592147.689518865 -2592147.689518865 -5148722.605071183 0 0 0 0 0 105481459.9866834 -2501973.46667379 -2501973.46667379 -5051165.422177671 0 0 0 0 0 86054607.43876322 -20934528.05638077 -20934528.05638077 -9858916.827153647 0 0 0 0 0 24168038.58405823 -1268311.921993527 -1268311.921993527 -3936914.815431105 0 0 0 0 0 25461129.89618935 -3301568.180598792 -3301568.180598792 -3409810.561608422 0 0 0 0 0 27032709.44609917 -5203319.89593595 -5203319.89593595 -2952123.803907837 0 0 0 0 0 28883874.36785943 -6981122.36538853 -6981122.36538853 -2483623.55645969 0 0 0 0 0 30857447.10413555 -8806798.319167456 -8806798.319167456 -2345644.889275515 0 0 0 0 0 32466717.21013565 -10801380.25968043 -10801380.25968043 -2426031.552425467 0 0 0 0 0 34258197.93673985 -12749967.86568587 -12749967.86568587 -2600302.752448159 0 0 0 0 0 36269670.73257449 -14568416.76168084 -14568416.76168084 -2836511.634704281 0 0 0 0 0 38448960.06712116 -16251684.36001468 -16251684.36001468 -3133653.735542664 0 0 0 0 0 39502265.84913262 -15912966.24111519 -15912966.24111519 -2965816.146366902 0 0 0 0 0 42903078.5482226 -17649932.42200526 -17649932.42200526 -2906866.237725303 0 0 0 0 0 45260223.70016765 -18980432.14451652 -18980432.14451652 -3355616.742837075 0 0 0 0 0 47705084.10942738 -20170640.86560035 -20170640.86560035 -3843986.113854063 0 0 0 0 0 50215851.36766963 -21219766.77487215 -21219766.77487215 -4364626.542242514 0 0 0 0 0 54414407.60876796 -21696297.93768502 -21696297.93768502 -4473040.659589377 0 0 0 0 0 51884313.22149133 -20671599.43091925 -20671599.43091925 -4051115.893870452 0 0 0 0 0 56887039.2823909 -22420176.89756557 -22420176.89756557 -5040657.705952883 0 0 0 0 0 59370137.62062448 -23016159.99752675 -23016159.99752675 -5612271.106075891 0 0 0 0 0 61844410.22294885 -23491154.16663361 -23491154.16663361 -6186973.248122675 0 0 0 0 0 64296431.89167668 -23847942.00158024 -23847942.00158024 -6754790.946753618 0 0 0 0 0 66713394.40306938 -24095494.0567393 -24095494.0567393 -7313031.534582391 0 0 0 0 0 69088271.31672312 -24236926.18818308 -24236926.18818308 -7851548.233873309 0 0 0 0 0 71097140.30913283 -23522716.73125019 -23522716.73125019 -7265912.043893024 0 0 0 0 0 72217797.5687297 -23675193.58698525 -23675193.58698525 -7961054.692494778 0 0 0 0 0 74375884.22495128 -23627198.8982637 -23627198.8982637 -8446562.422270387 0 0 0 0 0 76469538.88856751 -23501738.02722254 -23501738.02722254 -8904000.594930956 0 0 0 0 0 78474994.00409088 -23306822.28207394 -23306822.28207394 -9325036.468152203 0 0 0 0 0 80370589.39493273 -23038843.10052751 -23038843.10052751 -9698416.855249541 0 0 0 0 0 82197388.74055615 -22719925.31911546 -22719925.31911546 -10043778.38181613 0 0 0 0 0 83983607.48417711 -22043878.02366292 -22043878.02366292 -9371207.140727066 0 0 0 0 0 84239827.40770194 -21822156.33327932 -21822156.33327932 -9963597.132495869 0 0 0 0 0 85888398.21852571 -21433399.98159823 -21433399.98159823 -10261338.82405169 0 0 0 0 0 87610068.67371227 -20328590.75479466 -20328590.75479466 -9224915.618031226 0 0 0 0 0 89046368.42438431 -19940425.00466934 -19940425.00466934 -9481616.468984444 0 0 0 0 0 90448352.80323613 -19088436.80256039 -19088436.80256039 -9356525.996301431 0 0 0 0 0 89024768.87287053 -19644439.32602469 -19644439.32602469 -9961626.425881052 0 0 0 0 0 91723341.05697487 -18661421.20650709 -18661421.20650709 -9572939.189448599 0 0 0 0 0 92931065.55328305 -18213938.43237967 -18213938.43237967 -9762890.90970342 0 0 0 0 0 94072365.73276073 -17749195.03439488 -17749195.03439488 -9927036.195535256 0 0 0 0 0 95147749.56978792 -17270294.73840966 -17270294.73840966 -10066229.04312308 0 0 0 0 0 96010248.18142664 -16465100.57795281 -16465100.57795281 -9848876.531555586 0 0 0 0 0 94872328.08969428 -16924300.62016989 -16924300.62016989 -10391933.16655304 0 0 0 0 0 96932113.48005308 -15988973.8099363 -15988973.8099363 -9945771.545788294 0 0 0 0 0 97797925.78339131 -15507445.92250106 -15507445.92250106 -10021015.72040474 0 0 0 0 0 98609135.29184267 -15022823.0365586 -15022823.0365586 -10076320.1593481 0 0 0 0 0 99367235.75066762 -14537082.48692929 -14537082.48692929 -10112121.46985626 0 0 0 0 0 100075726.2182743 -14051962.51751197 -14051962.51751197 -10130092.41542825 0 0 0 0 0 99643768.52319734 -13724025.0574738 -13724025.0574738 -10285194.20542071 0 0 0 0 0 101083452.1958548 -12913118.04718466 -12913118.04718466 -9833781.643329035 0 0 0 0 0 100287338.9162211 -13246245.65308269 -13246245.65308269 -10261897.40924932 0 0 0 0 0 101650623.2800319 -12452353.10469689 -12452353.10469689 -9809601.795875287 0 0 0 0 0 102171377.1607914 -12000797.49867791 -12000797.49867791 -9778141.488891818 0 0 0 0 0 102649031.7344627 -11556855.32060879 -11556855.32060879 -9729823.764767058 0 0 0 0 0 103092391.2637879 -11119993.50177242 -11119993.50177242 -9668229.035352418 0 0 0 0 0 103211341.2469565 -10594501.07356377 -10594501.07356377 -9361063.947682766 0 0 0 0 0 102621332.5364012 -10847592.82090466 -10847592.82090466 -9701001.502968278 0 0 0 0 0 103587768.0457762 -10187068.93905878 -10187068.93905878 -9289745.270621603 0 0 0 0 0 103933105.4549588 -9787775.308388315 -9787775.308388315 -9207088.742968509 0 0 0 0 0 104250377.2636289 -9397573.978291569 -9397573.978291569 -9118905.228358453 0 0 0 0 0 104540680.2178598 -9017279.451896612 -9017279.451896612 -9020572.548919767 0 0 0 0 0 104807537.6851731 -8645583.303120065 -8645583.303120065 -8916746.431859365 0 0 0 0 0 104609574.3449214 -8077373.552239135 -8077373.552239135 -8750819.965560405 0 0 0 0 0 105049859.786622 -8283596.770941066 -8283596.770941066 -8807156.005350374 0 0 0 0 0 104991772.3193771 -7909961.664527338 -7909961.664527338 -8517477.684862928 0 0 0 0 0 105188023.8713219 -7579242.248942798 -7579242.248942798 -8408365.393488167 0 0 0 0 0 105354813.2536774 -7267673.978464291 -7267673.978464291 -8299181.35188914 0 0 0 0 0 105500603.8822232 -6963627.721403996 -6963627.721403996 -8185156.882434596 0 0 0 0 0 105644882.280895 -6663610.157727197 -6663610.157727197 -8047973.990796412 0 0 0 0 0 105782081.1293191 -6365957.148414771 -6365957.148414771 -7915236.042866818 0 0 0 0 0 105392261.7925947 -6208907.619254127 -6208907.619254127 -7820719.073477459 0 0 0 0 0 105647002.7855087 -6095753.283762506 -6095753.283762506 -7658960.665842951 0 0 0 0 0 105755655.2449514 -5824801.840995602 -5824801.840995602 -7536173.652146638 0 0 0 0 0 105852493.2010621 -5562558.328985698 -5562558.328985698 -7412108.789552858 0 0 0 0 0 105937203.9961271 -5308528.926485874 -5308528.926485874 -7286743.301675819 0 0 0 0 0 105589778.1719473 -5182324.828556592 -5182324.828556592 -7179478.989903137 0 0 0 0 0 105783344.6677402 -5095987.942416084 -5095987.942416084 -7055212.393002075 0 0 0 0 0 105850518.9094999 -4862839.11608737 -4862839.11608737 -6933882.742204309 0 0 0 0 0 105908099.7524325 -4637286.125710973 -4637286.125710973 -6811652.230755473 0 0 0 0 0 105956608.3306 -4419367.705624905 -4419367.705624905 -6689039.670058654 0 0 0 0 0 105996698.4317772 -4208823.97038203 -4208823.97038203 -6566148.65966177 0 0 0 0 0 106028994.2283077 -4005595.400331037 -4005595.400331037 -6443424.233371375 0 0 0 0 0 106053772.288376 -3809846.78723389 -3809846.78723389 -6321339.775599698 0 0 0 0 0 106071900.8927089 -3621042.742311667 -3621042.742311667 -6199271.621490312 0 0 0 0 0 105896865.2148158 -3493343.977248907 -3493343.977248907 -6013262.32474477 0 0 0 0 0 105792600.4480232 -3539452.532213334 -3539452.532213334 -6078649.424309321 0 0 0 0 0 105907662.0127127 -3319680.808611058 -3319680.808611058 -5896884.182920973 0 0 0 0 0 105647672.1436031 -3246039.007935375 -3246039.007935375 -5780859.243979312 0 0 0 0 0 105737884.2064938 -3205986.292829813 -3205986.292829813 -5723673.379742255 0 0 0 0 0 105740633.8214726 -3046377.859908493 -3046377.859908493 -5613025.972648151 0 0 0 0 0 105735859.2991085 -2895104.559427085 -2895104.559427085 -5503245.070736338 0 0 0 0 0 105747863.0290175 -2750221.023339679 -2750221.023339679 -5389665.11332807 0 0 0 0 0 105688013.7728115 -2631138.958607432 -2631138.958607432 -5321783.047468005 0 0 0 0 0 105594777.2296932 -2535959.378149672 -2535959.378149672 -5245367.305840893 0 0 0 0 0 105536490.1238744 -2446536.684278679 -2446536.684278679 -5145752.751047155 0 0 0 0 0 87510118.82417318 -20807044.81484606 -20807044.81484606 -9608706.227314278 0 0 0 0 0 23076127.18715299 -846158.7468325351 -846158.7468325351 -4599179.128856137 0 0 0 0 0 24721267.93502535 -2961475.281278625 -2961475.281278625 -3949833.635082056 0 0 0 0 0 26425491.24425777 -4918771.50480401 -4918771.50480401 -3416739.179558456 0 0 0 0 0 27819037.9342239 -6623527.302493402 -6623527.302493402 -3036731.268856219 0 0 0 0 0 28649361.94341224 -8490172.58378203 -8490172.58378203 -3092606.551526722 0 0 0 0 0 30334470.14085811 -10446611.51953798 -10446611.51953798 -3177150.735034867 0 0 0 0 0 32445162.77258955 -12400063.9201856 -12400063.9201856 -3271379.023494213 0 0 0 0 0 34744166.23427713 -14229399.63514736 -14229399.63514736 -3431692.767344303 0 0 0 0 0 37207761.96947594 -15927531.30243098 -15927531.30243098 -3651448.469543326 0 0 0 0 0 40778627.82365037 -17798179.81871577 -17798179.81871577 -3494769.640814465 0 0 0 0 0 42022024.59455826 -17396985.84327225 -17396985.84327225 -3289491.511292973 0 0 0 0 0 44647430.25716048 -18743850.74771062 -18743850.74771062 -3663007.953778949 0 0 0 0 0 47349084.23252346 -19949049.88893325 -19949049.88893325 -4079832.008768651 0 0 0 0 0 50105799.5318038 -21012029.34071853 -21012029.34071853 -4532287.776537153 0 0 0 0 0 54552521.04363548 -21537149.22976554 -21537149.22976554 -4548268.204493111 0 0 0 0 0 52772837.10696673 -22128876.36072823 -22128876.36072823 -4909264.67717242 0 0 0 0 0 57225251.15964413 -22268774.09267119 -22268774.09267119 -5063218.10531386 0 0 0 0 0 59883964.37129008 -22870890.75178356 -22870890.75178356 -5588035.079064708 0 0 0 0 0 62531734.26132532 -23350688.54861487 -23350688.54861487 -6117696.573240359 0 0 0 0 0 65142816.02200713 -23710839.58482855 -23710839.58482855 -6645468.920215033 0 0 0 0 0 67721194.45206811 -23958810.25352019 -23958810.25352019 -7164956.552448923 0 0 0 0 0 70230419.29075757 -24100028.66863763 -24100028.66863763 -7671652.574559085 0 0 0 0 0 71410604.76133707 -24279802.68908978 -24279802.68908978 -8367742.546307432 0 0 0 0 0 73420497.60785422 -23557817.66820904 -23557817.66820904 -7753670.227891967 0 0 0 0 0 75671189.06210151 -23506108.54460612 -23506108.54460612 -8219687.184249566 0 0 0 0 0 77844493.19752295 -23374696.46210424 -23374696.46210424 -8661239.963086735 0 0 0 0 0 79921129.06814137 -23177537.0883581 -23177537.0883581 -9083440.353330836 0 0 0 0 0 81882054.21014209 -22906787.35805647 -22906787.35805647 -9449015.421603555 0 0 0 0 0 83753740.02544349 -22582438.46260148 -22582438.46260148 -9798599.725551104 0 0 0 0 0 83975161.31269316 -22354475.57667616 -22354475.57667616 -10376214.26775405 0 0 0 0 0 85726454.64972009 -21688873.28588743 -21688873.28588743 -9698656.973979374 0 0 0 0 0 87387767.46960618 -21292464.79804379 -21292464.79804379 -9995698.289240334 0 0 0 0 0 87529547.02621727 -20526429.36238635 -20526429.36238635 -10112486.16900154 0 0 0 0 0 88942445.76424818 -20089114.12478639 -20089114.12478639 -10339358.09072857 0 0 0 0 0 90347392.97447854 -19201586.01539717 -19201586.01539717 -10171566.43708347 0 0 0 0 0 90421783.70918028 -19518224.09344944 -19518224.09344944 -9712765.500424758 0 0 0 0 0 91603500.70325142 -18738812.96669292 -18738812.96669292 -10354454.44691246 0 0 0 0 0 92794254.65453246 -18257810.81645619 -18257810.81645619 -10509510.73868035 0 0 0 0 0 93920469.13404466 -17761787.38343149 -17761787.38343149 -10637759.76770272 0 0 0 0 0 94983285.84493506 -17254883.67637989 -17254883.67637989 -10740275.56958191 0 0 0 0 0 95842644.93288223 -16431401.6190575 -16431401.6190575 -10476206.92316273 0 0 0 0 0 96160346.20940675 -16780738.42079793 -16780738.42079793 -10181384.45990652 0 0 0 0 0 96755980.32018815 -15932925.25335787 -15932925.25335787 -10537441.40529547 0 0 0 0 0 97614713.70506403 -15431041.33695723 -15431041.33695723 -10577389.98581613 0 0 0 0 0 98420082.99987732 -14927803.95392494 -14927803.95392494 -10597218.65474091 0 0 0 0 0 99173709.93325539 -14425733.98228543 -14425733.98228543 -10599078.08511127 0 0 0 0 0 99878736.78600016 -13925374.85685279 -13925374.85685279 -10582512.13827656 0 0 0 0 0 100736665.4409054 -13568219.59319871 -13568219.59319871 -10129962.46949591 0 0 0 0 0 100889547.2437224 -12772103.40425759 -12772103.40425759 -10224744.03400279 0 0 0 0 0 101351894.9981249 -13087184.68683204 -13087184.68683204 -10114029.27530614 0 0 0 0 0 101455917.8360295 -12303575.47455988 -12303575.47455988 -10173839.44991441 0 0 0 0 0 101980040.4785316 -11840997.78013286 -11840997.78013286 -10104912.73473857 0 0 0 0 0 102459314.9827032 -11389191.89389354 -11389191.89389354 -10026768.48026046 0 0 0 0 0 102904090.4729028 -10946369.65097182 -10946369.65097182 -9939620.844165102 0 0 0 0 0 103030703.1064706 -10427705.22551375 -10427705.22551375 -9614298.350259278 0 0 0 0 0 103503052.0499594 -10690222.99061162 -10690222.99061162 -9596349.836030398 0 0 0 0 0 103409346.1438114 -10013845.6055888 -10013845.6055888 -9513891.444472127 0 0 0 0 0 103756780.4657774 -9612771.072050491 -9612771.072050491 -9412854.43231871 0 0 0 0 0 104078327.1801859 -9217465.350374369 -9217465.350374369 -9294615.566735581 0 0 0 0 0 104370115.1173805 -8836111.128021223 -8836111.128021223 -9179465.504900349 0 0 0 0 0 104640307.1212746 -8462367.381620647 -8462367.381620647 -9054809.855024431 0 0 0 0 0 105270828.6007056 -7931450.794797797 -7931450.794797797 -8691857.945500225 0 0 0 0 0 104886565.1999113 -8099449.644974808 -8099449.644974808 -8925362.140233507 0 0 0 0 0 104836158.8762058 -7734052.815114303 -7734052.815114303 -8625726.324264677 0 0 0 0 0 105043351.0696831 -7403577.207584844 -7403577.207584844 -8489100.420165014 0 0 0 0 0 105216037.77191 -7084722.891747716 -7084722.891747716 -8353117.219747115 0 0 0 0 0 105369267.6323723 -6779943.132924443 -6779943.132924443 -8208520.254830683 0 0 0 0 0 105505557.4337226 -6487442.548980076 -6487442.548980076 -8086289.86916457 0 0 0 0 0 105643355.8016104 -6191450.025070447 -6191450.025070447 -7950384.854718351 0 0 0 0 0 105898631.5740325 -6078171.235318031 -6078171.235318031 -7788713.332210329 0 0 0 0 0 105517634.533543 -5930505.739966098 -5930505.739966098 -7687172.484623788 0 0 0 0 0 105630098.7989819 -5661379.084086124 -5661379.084086124 -7553386.755425726 0 0 0 0 0 105730434.1537246 -5400388.108406098 -5400388.108406098 -7418067.203202425 0 0 0 0 0 105818877.1919651 -5148057.178367854 -5148057.178367854 -7282059.602649258 0 0 0 0 0 106010739.1535272 -5062842.267683814 -5062842.267683814 -7160277.538051103 0 0 0 0 0 105670847.1946249 -4942977.52200725 -4942977.52200725 -7049232.976150009 0 0 0 0 0 105741498.2790568 -4711572.235809889 -4711572.235809889 -6918524.377098663 0 0 0 0 0 105802480.8096121 -4488037.070793353 -4488037.070793353 -6787690.60835338 0 0 0 0 0 105854338.3422033 -4272175.106761628 -4272175.106761628 -6656973.669598311 0 0 0 0 0 105897778.8749624 -4063851.726734522 -4063851.726734522 -6526589.27333382 0 0 0 0 0 105933461.6960707 -3863036.784076018 -3863036.784076018 -6396683.670138645 0 0 0 0 0 105961670.6157705 -3669559.530317508 -3669559.530317508 -6267532.959670999 0 0 0 0 0 105982963.3197621 -3483123.776831476 -3483123.776831476 -6139418.360105881 0 0 0 0 0 105811939.0377032 -3361827.316402308 -3361827.316402308 -5956208.992993267 0 0 0 0 0 106083943.5170446 -3438879.660356894 -3438879.660356894 -6077646.371889639 0 0 0 0 0 105825569.8073051 -3190425.054856833 -3190425.054856833 -5834812.569216329 0 0 0 0 0 105912898.1628588 -3152212.826662851 -3152212.826662851 -5781599.337449582 0 0 0 0 0 105659495.8727086 -3082485.197317205 -3082485.197317205 -5664739.69131014 0 0 0 0 0 105666566.4888354 -2926080.136711546 -2926080.136711546 -5548065.305003279 0 0 0 0 0 105671241.7871934 -2782088.150101349 -2782088.150101349 -5428413.340421071 0 0 0 0 0 105667193.2070329 -2638048.718352912 -2638048.718352912 -5327454.011914398 0 0 0 0 0 105689467.7753842 -2486319.645182667 -2486319.645182667 -5165916.288156825 0 0 0 0 0 105649923.0486481 -2393082.210015968 -2393082.210015968 -5060776.00786758 0 0 0 0 0 87429254.25838161 -21006196.26018274 -21006196.26018274 -10519912.4301087 0 0 0 0 0 21648806.65705362 -1341006.873520586 -1341006.873520586 -5371639.787447117 0 0 0 0 0 22918439.96479037 -3442083.27938514 -3442083.27938514 -4692648.915424535 0 0 0 0 0 24383844.33629339 -5375284.493655686 -5375284.493655686 -4136830.518722405 0 0 0 0 0 26060253.24896975 -7159988.990543575 -7159988.990543575 -3778073.300568939 0 0 0 0 0 28433890.15664712 -8569653.121089842 -8569653.121089842 -3156105.737270392 0 0 0 0 0 30098476.52677607 -10557466.7980864 -10557466.7980864 -3350068.17485694 0 0 0 0 0 31870563.87433793 -12608758.90526316 -12608758.90526316 -3456344.533509076 0 0 0 0 0 33923966.62916105 -14510773.38183418 -14510773.38183418 -3625119.07500879 0 0 0 0 0 36162269.70304825 -16278037.77821038 -16278037.77821038 -3866694.064134016 0 0 0 0 0 38565303.08239496 -17907580.32262099 -17907580.32262099 -4174351.070070696 0 0 0 0 0 39822109.12214618 -17492723.25888635 -17492723.25888635 -3931339.141791793 0 0 0 0 0 43226168.89631945 -19205525.38722231 -19205525.38722231 -3910087.072767637 0 0 0 0 0 45767206.72709633 -20467435.22510282 -20467435.22510282 -4371967.574432266 0 0 0 0 0 48383230.37099709 -21581320.63042185 -21581320.63042185 -4869324.093989288 0 0 0 0 0 51051627.74695959 -22548523.32938631 -22548523.32938631 -5396907.464803297 0 0 0 0 0 55357366.7417518 -22899649.61109064 -22899649.61109064 -5469311.810885402 0 0 0 0 0 52895448.60610764 -21933043.12619021 -21933043.12619021 -5013186.498601459 0 0 0 0 0 57946316.67805823 -23534305.80342044 -23534305.80342044 -6037003.647250268 0 0 0 0 0 60536589.28143363 -24039753.60573148 -24039753.60573148 -6606495.788893911 0 0 0 0 0 63106032.63274849 -24423070.87878828 -24423070.87878828 -7171858.928505003 0 0 0 0 0 65647572.81016282 -24688517.94828732 -24688517.94828732 -7730828.672266019 0 0 0 0 0 68134747.56061018 -24843239.07338891 -24843239.07338891 -8275872.629876342 0 0 0 0 0 70565812.18017185 -24893837.44322789 -24893837.44322789 -8797565.290651279 0 0 0 0 0 72665261.5385291 -24141356.06753256 -24141356.06753256 -8161997.504697584 0 0 0 0 0 73670199.44477138 -24231591.498282 -24231591.498282 -8858321.389720226 0 0 0 0 0 75861858.69486177 -24100277.70084775 -24100277.70084775 -9321601.582678251 0 0 0 0 0 77985907.63401185 -23899604.03173283 -23899604.03173283 -9753449.299862666 0 0 0 0 0 79972591.89794715 -23618794.11936383 -23618794.11936383 -10137175.00237232 0 0 0 0 0 81893407.79252505 -23289871.0290163 -23289871.0290163 -10497826.39779437 0 0 0 0 0 83717249.74276029 -22902142.50515666 -22902142.50515666 -10803098.52867523 0 0 0 0 0 85533071.50234108 -22203544.88807836 -22203544.88807836 -10103761.92158669 0 0 0 0 0 85688723.28004442 -21942080.15177067 -21942080.15177067 -10667607.59255541 0 0 0 0 0 87322237.78644964 -21495780.37245843 -21495780.37245843 -10938262.22539202 0 0 0 0 0 88999592.4900537 -20399103.05591199 -20399103.05591199 -9872270.28976801 0 0 0 0 0 90416031.5002733 -19954750.96237464 -19954750.96237464 -10097548.42298316 0 0 0 0 0 91737590.1807677 -19070288.67951847 -19070288.67951847 -9928604.071433356 0 0 0 0 0 90308749.09999891 -19628871.23801314 -19628871.23801314 -10548486.25335167 0 0 0 0 0 92987125.73816684 -18601051.49255023 -18601051.49255023 -10117348.995601 0 0 0 0 0 94167657.2610607 -18114034.92638291 -18114034.92638291 -10278876.89837356 0 0 0 0 0 95278926.08316444 -17612249.62162547 -17612249.62162547 -10414366.76362748 0 0 0 0 0 96323353.24247254 -17099755.63622064 -17099755.63622064 -10524982.77655757 0 0 0 0 0 97109477.6972152 -16283104.97461988 -16283104.97461988 -10274107.2526639 0 0 0 0 0 95984719.66260074 -16739365.1081794 -16739365.1081794 -10818996.00176114 0 0 0 0 0 97999306.93244667 -15780209.4851358 -15780209.4851358 -10344181.48706025 0 0 0 0 0 98831977.21596934 -15274437.62398269 -15274437.62398269 -10392921.52750112 0 0 0 0 0 99608265.8763662 -14768217.80914868 -14768217.80914868 -10422191.42879811 0 0 0 0 0 100333553.9908872 -14263004.06971435 -14263004.06971435 -10432473.12826511 0 0 0 0 0 101007826.0380779 -13760051.47432853 -13760051.47432853 -10425190.57749918 0 0 0 0 0 100536624.7064828 -13428018.81142861 -13428018.81142861 -10551089.44823741 0 0 0 0 0 101927384.62025 -12610216.89950185 -12610216.89950185 -10083068.34770911 0 0 0 0 0 101150597.5253481 -12936091.93359501 -12936091.93359501 -10504757.2655983 0 0 0 0 0 102459504.5410272 -12139998.44171925 -12139998.44171925 -10039338.8813245 0 0 0 0 0 102947799.778088 -11677655.87902929 -11677655.87902929 -9984900.204604976 0 0 0 0 0 103396434.0754891 -11225422.58000663 -11225422.58000663 -9916392.792846382 0 0 0 0 0 103809365.4617862 -10781147.28580418 -10781147.28580418 -9835204.126364255 0 0 0 0 0 103881891.7394309 -10268784.5574393 -10268784.5574393 -9514529.927096533 0 0 0 0 0 103316714.4878508 -10511878.33864799 -10511878.33864799 -9843018.544497665 0 0 0 0 0 104228211.0294355 -9858358.952752022 -9858358.952752022 -9427776.620404018 0 0 0 0 0 104549117.5119398 -9454095.901924208 -9454095.901924208 -9325148.270136252 0 0 0 0 0 104837704.8733375 -9064273.468307054 -9064273.468307054 -9225573.091999117 0 0 0 0 0 105101697.3274335 -8680710.581795411 -8680710.581795411 -9109510.800822144 0 0 0 0 0 105343123.3620071 -8308639.625314287 -8308639.625314287 -8991429.143754451 0 0 0 0 0 105111048.5679451 -7747115.259454292 -7747115.259454292 -8792307.488928931 0 0 0 0 0 105561133.9281124 -7947225.583847036 -7947225.583847036 -8868389.213859849 0 0 0 0 0 105471461.6969406 -7589212.399575369 -7589212.399575369 -8572168.11537178 0 0 0 0 0 105637762.5489133 -7265023.242610599 -7265023.242610599 -8457837.63616962 0 0 0 0 0 105785335.778333 -6951470.537199042 -6951470.537199042 -8331072.062298392 0 0 0 0 0 105908724.4963116 -6649501.084173227 -6649501.084173227 -8205309.281376276 0 0 0 0 0 106041195.5524296 -6349626.001582405 -6349626.001582405 -8053488.099462218 0 0 0 0 0 106161121.8516588 -6055877.072533894 -6055877.072533894 -7916515.459517175 0 0 0 0 0 105765768.3769475 -5905750.927781075 -5905750.927781075 -7808945.196962769 0 0 0 0 0 106001417.5920983 -5801141.304151272 -5801141.304151272 -7659582.336358169 0 0 0 0 0 106095429.0822009 -5534035.788882558 -5534035.788882558 -7528877.526536578 0 0 0 0 0 106175912.5997348 -5274882.554571395 -5274882.554571395 -7397187.919216658 0 0 0 0 0 106244930.1293016 -5024577.849678841 -5024577.849678841 -7264371.506271389 0 0 0 0 0 105896037.6812907 -4904243.930281743 -4904243.930281743 -7145702.553827197 0 0 0 0 0 106073781.422917 -4825323.661793301 -4825323.661793301 -7032980.986697837 0 0 0 0 0 106127013.7008636 -4595828.625333162 -4595828.625333162 -6905134.160460873 0 0 0 0 0 106171110.4770404 -4374267.548050339 -4374267.548050339 -6776992.969393619 0 0 0 0 0 106206732.7719864 -4160422.279739642 -4160422.279739642 -6648759.191076085 0 0 0 0 0 106234415.462058 -3954204.348291242 -3954204.348291242 -6520767.801642488 0 0 0 0 0 106254576.0762625 -3755616.237085794 -3755616.237085794 -6393381.695430127 0 0 0 0 0 106268118.7466852 -3564309.714401303 -3564309.714401303 -6266517.594882823 0 0 0 0 0 106275511.8114096 -3379873.181632559 -3379873.181632559 -6140129.307928603 0 0 0 0 0 106090322.6052065 -3263203.619160044 -3263203.619160044 -5956750.189260906 0 0 0 0 0 105998004.4360696 -3303437.222872728 -3303437.222872728 -6012364.077291567 0 0 0 0 0 106091367.1407028 -3093992.519696321 -3093992.519696321 -5836913.19617428 0 0 0 0 0 105833763.6910881 -3025086.591624935 -3025086.591624935 -5714941.73195506 0 0 0 0 0 105912292.3766355 -2990826.087901663 -2990826.087901663 -5667518.248958587 0 0 0 0 0 105903302.9280084 -2836555.348179186 -2836555.348179186 -5555300.018058363 0 0 0 0 0 105878495.0740699 -2696385.02901365 -2696385.02901365 -5448060.571502937 0 0 0 0 0 105893997.1455413 -2543438.350736556 -2543438.350736556 -5310381.962697889 0 0 0 0 0 105760350.3483924 -2432840.934090685 -2432840.934090685 -5265613.455179868 0 0 0 0 0 105698220.1975022 -2337532.281741995 -2337532.281741995 -5155218.44957976 0 0 0 0 0 88960983.97720265 -20863703.46803262 -20863703.46803262 -10268550.67550226 0 0 0 0 0 20525944.85263904 -840714.7670364612 -840714.7670364612 -6164440.815995811 0 0 0 0 0 22257178.18907263 -3017028.754898255 -3017028.754898255 -5370678.431046247 0 0 0 0 0 24475558.6621105 -5110362.042061827 -5110362.042061827 -4652458.955026322 0 0 0 0 0 26921382.93541275 -7216111.228937984 -7216111.228937984 -4007095.362730229 0 0 0 0 0 25627614.09174607 -8301084.944792632 -8301084.944792632 -4044169.07172325 0 0 0 0 0 27700394.26692289 -10081387.86031887 -10081387.86031887 -4239739.681969826 0 0 0 0 0 29917612.04762882 -12173541.04892003 -12173541.04892003 -4217396.00284781 0 0 0 0 0 32283161.21709631 -14101627.08601868 -14101627.08601868 -4294773.43535272 0 0 0 0 0 34829494.24441405 -15890244.08229286 -15890244.08229286 -4450344.239470081 0 0 0 0 0 37519358.55688384 -17541955.61953298 -17541955.61953298 -4673291.930028377 0 0 0 0 0 41097929.90274695 -19397245.99044805 -19397245.99044805 -4547326.513801804 0 0 0 0 0 42549268.31976512 -18918926.71240605 -18918926.71240605 -4266767.88464293 0 0 0 0 0 45366897.96519078 -20198409.37375544 -20198409.37375544 -4650670.87296837 0 0 0 0 0 48239602.22220889 -21328732.6707546 -21328732.6707546 -5075459.219253267 0 0 0 0 0 51156663.50427438 -22310329.05816326 -22310329.05816326 -5533856.08512542 0 0 0 0 0 55694222.78107041 -22713389.89365232 -22713389.89365232 -5515551.360891879 0 0 0 0 0 53752812.03552905 -23370083.59511427 -23370083.59511427 -5943780.55034811 0 0 0 0 0 58482532.65846518 -23356111.42301122 -23356111.42301122 -6031313.603085798 0 0 0 0 0 61243657.77296694 -23868867.03240416 -23868867.03240416 -6552824.522839107 0 0 0 0 0 63977870.24093381 -24256819.29608307 -24256819.29608307 -7075684.863862601 0 0 0 0 0 66674130.52274351 -24526892.22061193 -24526892.22061193 -7594535.222798013 0 0 0 0 0 69314546.5396325 -24682486.05398762 -24682486.05398762 -8102944.356777285 0 0 0 0 0 71875856.75050785 -24731656.71926174 -24731656.71926174 -8594616.494379697 0 0 0 0 0 72933438.63340227 -24846228.63472668 -24846228.63472668 -9291393.060007609 0 0 0 0 0 75022220.3774799 -24090490.2219069 -24090490.2219069 -8631449.286926448 0 0 0 0 0 77297599.48090546 -23955512.81742813 -23955512.81742813 -9076901.052993918 0 0 0 0 0 79480950.50064036 -23747382.18596291 -23747382.18596291 -9495836.361497181 0 0 0 0 0 81563919.01372756 -23469031.33298569 -23469031.33298569 -9887577.210222445 0 0 0 0 0 83517108.40197971 -23124362.89573607 -23124362.89573607 -10229201.95023132 0 0 0 0 0 85400317.7610203 -22736486.00514361 -22736486.00514361 -10539603.05576378 0 0 0 0 0 85489820.46966453 -22468462.26081905 -22468462.26081905 -11096863.11684805 0 0 0 0 0 87261383.99523844 -21790042.52216911 -21790042.52216911 -10397978.45076105 0 0 0 0 0 88907637.89429288 -21333188.03854348 -21333188.03854348 -10666607.19369517 0 0 0 0 0 88892708.99568811 -20544217.31890854 -20544217.31890854 -10738486.42840427 0 0 0 0 0 90292548.55356982 -20060925.58972653 -20060925.58972653 -10933894.80168549 0 0 0 0 0 91610200.24022412 -19144846.71429528 -19144846.71429528 -10728825.91906823 0 0 0 0 0 91763386.4287484 -19483708.56417908 -19483708.56417908 -10299538.47481371 0 0 0 0 0 92843348.11620487 -18640364.26727377 -18640364.26727377 -10879462.94080666 0 0 0 0 0 94008237.14175317 -18120565.54667911 -18120565.54667911 -11003074.08686431 0 0 0 0 0 95106246.589316 -17589272.77817699 -17589272.77817699 -11100663.21111451 0 0 0 0 0 96139580.71737285 -17050295.44998066 -17050295.44998066 -11171860.28416857 0 0 0 0 0 96924892.12887773 -16218609.60579802 -16218609.60579802 -10875034.52470329 0 0 0 0 0 97302910.94263959 -16579123.30775629 -16579123.30775629 -10611395.31445712 0 0 0 0 0 97807478.63475817 -15694387.94914164 -15694387.94914164 -10907346.30043362 0 0 0 0 0 98634355.63966167 -15169230.52256528 -15169230.52256528 -10918122.36279837 0 0 0 0 0 99406491.35929327 -14646784.37157694 -14646784.37157694 -10912541.12013092 0 0 0 0 0 100128156.7477201 -14125900.23433204 -14125900.23433204 -10887248.14030395 0 0 0 0 0 100800160.2447379 -13609658.21327596 -13609658.21327596 -10845860.15928984 0 0 0 0 0 101637174.5064702 -13260050.19745846 -13260050.19745846 -10400653.19518483 0 0 0 0 0 101725676.2753187 -12449375.23371591 -12449375.23371591 -10443541.1413531 0 0 0 0 0 102220549.7580506 -12764667.46283126 -12764667.46283126 -10361352.5263497 0 0 0 0 0 102257663.8516191 -11969887.52446275 -11969887.52446275 -10368243.33209998 0 0 0 0 0 102749464.9790706 -11499982.8576131 -11499982.8576131 -10280150.21770466 0 0 0 0 0 103200499.900247 -11040859.98396077 -11040859.98396077 -10181881.14187578 0 0 0 0 0 103616141.7991862 -10591816.99701021 -10591816.99701021 -10074908.5767278 0 0 0 0 0 103698292.2566158 -10086222.92098734 -10086222.92098734 -9736148.788253155 0 0 0 0 0 104190520.0286953 -10345673.09292765 -10345673.09292765 -9744244.036784725 0 0 0 0 0 104046973.3727827 -9671518.335546922 -9671518.335546922 -9621478.082042346 0 0 0 0 0 104369400.620358 -9265568.61654266 -9265568.61654266 -9501246.765640998 0 0 0 0 0 104664138.5133666 -8870407.761974989 -8870407.761974989 -9370657.990708685 0 0 0 0 0 104931578.8012949 -8487477.234948492 -8487477.234948492 -9238420.048515163 0 0 0 0 0 105176000.3179609 -8115102.245475323 -8115102.245475323 -9101072.491096336 0 0 0 0 0 105758590.8946303 -7596421.270367809 -7596421.270367809 -8740155.896009281 0 0 0 0 0 105398465.0041665 -7753597.663619434 -7753597.663619434 -8958342.007526884 0 0 0 0 0 105316402.4449237 -7406258.7334762 -7406258.7334762 -8655112.863862691 0 0 0 0 0 105497596.9302691 -7074974.89308191 -7074974.89308191 -8501530.065156324 0 0 0 0 0 105649489.4562878 -6761756.868327424 -6761756.868327424 -8362344.208316533 0 0 0 0 0 105786645.120608 -6460591.987459034 -6460591.987459034 -8205920.859276089 0 0 0 0 0 105905913.773962 -6168553.405177085 -6168553.405177085 -8072800.59640782 0 0 0 0 0 106018856.267673 -5879895.699359692 -5879895.699359692 -7934939.309902313 0 0 0 0 0 106258377.2774042 -5771869.040110854 -5771869.040110854 -7782320.229395255 0 0 0 0 0 105873751.0375996 -5632070.420519302 -5632070.420519302 -7667825.898646233 0 0 0 0 0 105970726.7488236 -5365752.802928266 -5365752.802928266 -7526301.92955952 0 0 0 0 0 106055130.5039189 -5108446.062712757 -5108446.062712757 -7383194.932773236 0 0 0 0 0 106128073.1072721 -4860239.787286058 -4860239.787286058 -7240512.520768153 0 0 0 0 0 106303489.8641753 -4782786.827980267 -4782786.827980267 -7130947.522697384 0 0 0 0 0 105962668.0066131 -4668732.042593747 -4668732.042593747 -7009096.323954375 0 0 0 0 0 106019507.4096029 -4441427.23450229 -4441427.23450229 -6872540.704789074 0 0 0 0 0 106067134.4688724 -4222138.952340487 -4222138.952340487 -6736246.787724091 0 0 0 0 0 106106229.432936 -4010717.212263334 -4010717.212263334 -6600486.522885775 0 0 0 0 0 106137512.8812663 -3806998.711597186 -3806998.711597186 -6465320.14736849 0 0 0 0 0 106161268.2309538 -3610864.529364798 -3610864.529364798 -6331000.835458251 0 0 0 0 0 106177997.1256508 -3422149.877117726 -3422149.877117726 -6198100.940657074 0 0 0 0 0 106188513.8514504 -3240430.092513547 -3240430.092513547 -6066340.028468951 0 0 0 0 0 106007391.4441975 -3130262.453716347 -3130262.453716347 -5886233.578540634 0 0 0 0 0 106277331.2600387 -3202161.677212178 -3202161.677212178 -6014531.943527783 0 0 0 0 0 106011546.8300441 -2963630.243186492 -2963630.243186492 -5761266.438616006 0 0 0 0 0 106087223.8930446 -2931477.166206847 -2931477.166206847 -5718879.775705143 0 0 0 0 0 105836044.0668747 -2866111.919858031 -2866111.919858031 -5596645.314346713 0 0 0 0 0 105832827.2188369 -2716689.678082071 -2716689.678082071 -5476307.56178287 0 0 0 0 0 105815397.2506948 -2584953.877722733 -2584953.877722733 -5360824.956580314 0 0 0 0 0 105794043.1509076 -2490202.770293868 -2490202.770293868 -5355194.407283023 0 0 0 0 0 105824234.3706114 -2277343.048446247 -2277343.048446247 -5059496.277696894 0 0 0 0 0 105922146.5562583 -2355731.300648121 -2355731.300648121 -5157625.698416984 0 0 0 0 0 88845869.78738172 -21008205.42457107 -21008205.42457107 -11156285.30672763 0 0 0 0 0 19092884.1047702 -1403801.211091361 -1403801.211091361 -7050558.299267171 0 0 0 0 0 20492573.37761107 -3598948.43517933 -3598948.43517933 -6275831.864326295 0 0 0 0 0 22117167.97210905 -5653215.550962377 -5653215.550962377 -5539945.100630352 0 0 0 0 0 23871628.70929744 -7601999.103616178 -7601999.103616178 -4903355.951700024 0 0 0 0 0 27658796.86154028 -10129821.89795989 -10129821.89795989 -4399296.10771981 0 0 0 0 0 29365149.82580588 -12387059.21095141 -12387059.21095141 -4435681.875139771 0 0 0 0 0 31492702.89990846 -14388804.52888075 -14388804.52888075 -4540912.286923094 0 0 0 0 0 33779585.8255874 -16254974.59048494 -16254974.59048494 -4719433.011129824 0 0 0 0 0 36246591.44046943 -17975186.93986217 -17975186.93986217 -4969281.451627092 0 0 0 0 0 38875487.46853846 -19548510.17324645 -19548510.17324645 -5283808.390821612 0 0 0 0 0 40357264.44301381 -19052018.14822005 -19052018.14822005 -4959096.310660463 0 0 0 0 0 43739447.7028202 -20736474.48446419 -20736474.48446419 -4973931.425798356 0 0 0 0 0 46460679.62962303 -21920899.87072831 -21920899.87072831 -5440963.507434852 0 0 0 0 0 49246654.41276169 -22950297.07049666 -22950297.07049666 -5942962.889171249 0 0 0 0 0 52067561.03461164 -23826872.9298081 -23826872.9298081 -6469781.391255475 0 0 0 0 0 56460826.63142159 -24050088.36777003 -24050088.36777003 -6503923.832909644 0 0 0 0 0 54086510.38345301 -23144455.46628154 -23144455.46628154 -6017142.471012317 0 0 0 0 0 59157982.84391367 -24590813.27624111 -24590813.27624111 -7066617.577216509 0 0 0 0 0 61850845.24118306 -24999279.53717763 -24999279.53717763 -7625615.872301998 0 0 0 0 0 64508532.39144317 -25283852.2892982 -25283852.2892982 -8180193.339617444 0 0 0 0 0 67130162.17566307 -25454202.51424918 -25454202.51424918 -8723245.194379736 0 0 0 0 0 69682047.51342091 -25515956.99690297 -25515956.99690297 -9251416.746231062 0 0 0 0 0 72163654.87955913 -25469349.62160884 -25469349.62160884 -9746281.113981914 0 0 0 0 0 74344310.38346906 -24682474.77464417 -24682474.77464417 -9065554.480122454 0 0 0 0 0 75228027.03249153 -24711162.73347791 -24711162.73347791 -9757376.838068075 0 0 0 0 0 77447327.32772931 -24497317.13214022 -24497317.13214022 -10192894.46273421 0 0 0 0 0 79570831.44470908 -24212708.66855006 -24212708.66855006 -10598194.40025541 0 0 0 0 0 81578253.42846164 -23864613.97429124 -23864613.97429124 -10948235.08236023 0 0 0 0 0 83490013.84269722 -23457645.52306819 -23457645.52306819 -11273466.58370041 0 0 0 0 0 85321172.20485052 -22993175.69324281 -22993175.69324281 -11550145.82592708 0 0 0 0 0 87162119.91163978 -22300634.70173334 -22300634.70173334 -10832107.52187686 0 0 0 0 0 87193150.23520163 -21992519.42940424 -21992519.42940424 -11359413.68827852 0 0 0 0 0 88807349.99655524 -21485102.43736951 -21485102.43736951 -11595572.11893666 0 0 0 0 0 90430382.13137263 -20399828.17907305 -20399828.17907305 -10493751.431241 0 0 0 0 0 91816007.62994289 -19907341.38245372 -19907341.38245372 -10694651.03686158 0 0 0 0 0 93054795.43207346 -18993680.15352851 -18993680.15352851 -10485583.31705615 0 0 0 0 0 91631671.86221708 -19556653.76802532 -19556653.76802532 -11114311.88863712 0 0 0 0 0 94275541.05937393 -18484268.70868512 -18484268.70868512 -10643185.56162191 0 0 0 0 0 95423168.75861001 -17959169.327516 -17959169.327516 -10774379.64556002 0 0 0 0 0 96500555.95657675 -17422482.67560562 -17422482.67560562 -10879704.35164321 0 0 0 0 0 97507904.61126246 -16877693.17909941 -16877693.17909941 -10960430.47353337 0 0 0 0 0 98218235.34354585 -16054097.82026116 -16054097.82026116 -10678103.27077885 0 0 0 0 0 97110322.22131275 -16507322.00173525 -16507322.00173525 -11223927.08426664 0 0 0 0 0 99071304.61444658 -15526764.23267971 -15526764.23267971 -10720237.7528622 0 0 0 0 0 99864610.51806514 -14999289.55492117 -14999289.55492117 -10739484.35775541 0 0 0 0 0 100609389.5593898 -14473690.3829725 -14473690.3829725 -10742937.80072326 0 0 0 0 0 101295838.4175487 -13950258.70877279 -13950258.70877279 -10727745.73572266 0 0 0 0 0 101935738.6818022 -13432076.96213497 -13432076.96213497 -10694736.22687125 0 0 0 0 0 101426616.3031851 -13097309.15922487 -13097309.15922487 -10790711.46281432 0 0 0 0 0 102761841.954032 -12276622.64309585 -12276622.64309585 -10309050.31730999 0 0 0 0 0 102010927.9086142 -12592676.52644662 -12592676.52644662 -10719808.71246745 0 0 0 0 0 103257342.2127165 -11797771.98497851 -11797771.98497851 -10244372.73041752 0 0 0 0 0 103712131.109609 -11327789.76097165 -11327789.76097165 -10167095.04953902 0 0 0 0 0 104129767.1536292 -10868289.45234236 -10868289.45234236 -10077158.34543077 0 0 0 0 0 104512370.0497043 -10419044.05534253 -10419044.05534253 -9977420.45138634 0 0 0 0 0 104538104.1152631 -9922167.621385809 -9922167.621385809 -9647532.994364951 0 0 0 0 0 103999736.0837923 -10153559.77138003 -10153559.77138003 -9959433.685972629 0 0 0 0 0 104857413.9099242 -9507550.657509711 -9507550.657509711 -9539768.609967118 0 0 0 0 0 105148275.9807692 -9103383.095193829 -9103383.095193829 -9425471.441363076 0 0 0 0 0 105411593.174861 -8709323.28757816 -8709323.28757816 -9304026.059301151 0 0 0 0 0 105649220.6667689 -8327128.552135308 -8327128.552135308 -9176927.416655436 0 0 0 0 0 105865157.6462296 -7956176.144789376 -7956176.144789376 -9044562.441770278 0 0 0 0 0 105599553.0580993 -7403596.981209455 -7403596.981209455 -8813244.57519716 0 0 0 0 0 106057780.8343534 -7596891.545027748 -7596891.545027748 -8908959.329268165 0 0 0 0 0 105935129.0219981 -7256651.886303801 -7256651.886303801 -8608245.582420761 0 0 0 0 0 106079511.2833428 -6933781.905334535 -6933781.905334535 -8484547.157053171 0 0 0 0 0 106214184.6013924 -6617676.003621732 -6617676.003621732 -8340765.679429578 0 0 0 0 0 106315557.3608849 -6318161.667259668 -6318161.667259668 -8209260.238037663 0 0 0 0 0 106421264.4752482 -6027054.609559798 -6027054.609559798 -8055640.865149168 0 0 0 0 0 106526004.146015 -5739866.861658609 -5739866.861658609 -7900106.233708587 0 0 0 0 0 106124057.5607374 -5598174.858617688 -5598174.858617688 -7781456.095450119 0 0 0 0 0 106345838.7659855 -5500626.347012647 -5500626.347012647 -7644338.324419506 0 0 0 0 0 106422786.6856657 -5235896.818731631 -5235896.818731631 -7506647.581869161 0 0 0 0 0 106485944.1068844 -4980824.708149795 -4980824.708149795 -7367332.101160802 0 0 0 0 0 106539737.1841985 -4734863.099921285 -4734863.099921285 -7227424.29325839 0 0 0 0 0 106190357.9822391 -4620690.526654902 -4620690.526654902 -7097825.319495437 0 0 0 0 0 106352094.3701349 -4549385.000300765 -4549385.000300765 -6997205.821494737 0 0 0 0 0 106391522.9364672 -4324207.372505931 -4324207.372505931 -6863375.884990804 0 0 0 0 0 106422266.5380892 -4107081.950484138 -4107081.950484138 -6729628.273501902 0 0 0 0 0 106445182.6451952 -3897862.425380318 -3897862.425380318 -6596210.065836 0 0 0 0 0 106460598.7291056 -3696488.294292631 -3696488.294292631 -6463558.432680253 0 0 0 0 0 106469054.2540697 -3502713.485270991 -3502713.485270991 -6331742.420039911 0 0 0 0 0 106471571.6945511 -3316158.626696936 -3316158.626696936 -6200408.555807465 0 0 0 0 0 106468536.4835799 -3136526.091363904 -3136526.091363904 -6070107.374423485 0 0 0 0 0 106273722.0344004 -3031042.188570655 -3031042.188570655 -5890060.013909815 0 0 0 0 0 106193399.4367248 -3065351.796461359 -3065351.796461359 -5935752.475593709 0 0 0 0 0 106265216.9460248 -2866478.532326305 -2866478.532326305 -5766740.809245385 0 0 0 0 0 106010917.3810358 -2802920.380394535 -2802920.380394535 -5638294.492179803 0 0 0 0 0 106075698.8976358 -2775783.631099992 -2775783.631099992 -5603381.993398774 0 0 0 0 0 106045880.7116797 -2634526.313294613 -2634526.313294613 -5497697.788685493 0 0 0 0 0 105961476.2003376 -2525868.140775655 -2525868.140775655 -5413392.835817797 0 0 0 0 0 106028647.1333588 -2394353.515899114 -2394353.515899114 -5235900.289725583 0 0 0 0 0 105862644.9291176 -2222037.638966745 -2222037.638966745 -5152509.706792608 0 0 0 0 0 105916034.7923709 -2313622.353402454 -2313622.353402454 -5260712.034461799 0 0 0 0 0 90454168.40082988 -20846705.77654506 -20846705.77654506 -10910574.22402357 0 0 0 0 0 17908109.63629435 -855562.3040046021 -855562.3040046021 -7921085.951608473 0 0 0 0 0 19696473.59097116 -3105851.098962422 -3105851.098962422 -7068665.365323882 0 0 0 0 0 21645940.42429304 -5236811.057109822 -5236811.057109822 -6257772.676624537 0 0 0 0 0 23841503.89950712 -7295196.887800963 -7295196.887800963 -5467597.445543698 0 0 0 0 0 25163423.40503467 -9701120.891748296 -9701120.891748296 -5279749.523138977 0 0 0 0 0 27315500.11889559 -11907734.96887592 -11907734.96887592 -5251962.755541827 0 0 0 0 0 29728870.87408307 -13911933.94345741 -13911933.94345741 -5285931.095021095 0 0 0 0 0 32357525.98233522 -15795703.45599099 -15795703.45599099 -5372518.262301722 0 0 0 0 0 35154980.41693306 -17539287.3315607 -17539287.3315607 -5527550.9069353 0 0 0 0 0 38073915.48519383 -19139382.0009442 -19139382.0009442 -5754161.562591779 0 0 0 0 0 41616928.23933223 -20970880.17667191 -20970880.17667191 -5660668.317682822 0 0 0 0 0 43294337.35011797 -20412572.2621839 -20412572.2621839 -5300203.539001889 0 0 0 0 0 46292884.05948438 -21616107.57077449 -21616107.57077449 -5688579.787492862 0 0 0 0 0 49333160.74998373 -22663740.39241585 -22663740.39241585 -6116895.222394903 0 0 0 0 0 52395868.47639107 -23556255.65000272 -23556255.65000272 -6575933.488122624 0 0 0 0 0 57014562.13401686 -23835082.55774015 -23835082.55774015 -6516840.688422977 0 0 0 0 0 54903263.38117806 -24552973.77359943 -24552973.77359943 -7014487.97125583 0 0 0 0 0 59907880.04502384 -24384564.88681662 -24384564.88681662 -7029424.881965256 0 0 0 0 0 62763833.530197 -24802347.82742896 -24802347.82742896 -7543144.812948958 0 0 0 0 0 65573165.4770789 -25092485.25931996 -25092485.25931996 -8055119.740446382 0 0 0 0 0 68336760.65703194 -25263976.41987111 -25263976.41987111 -8561245.310899131 0 0 0 0 0 71047637.17927763 -25325988.67323162 -25325988.67323162 -9053206.289465643 0 0 0 0 0 73634912.05962624 -25280535.29126789 -25280535.29126789 -9522811.120853845 0 0 0 0 0 74566399.43930295 -25331152.40002965 -25331152.40002965 -10213736.78549044 0 0 0 0 0 76725890.98886837 -24544845.5663541 -24544845.5663541 -9512485.559503091 0 0 0 0 0 79015000.5316902 -24327254.06991372 -24327254.06991372 -9933787.834686907 0 0 0 0 0 81204931.31797576 -24036950.89707043 -24036950.89707043 -10324036.79233345 0 0 0 0 0 83298849.18663454 -23679242.12625904 -23679242.12625904 -10670485.0507447 0 0 0 0 0 85259592.75928572 -23271885.17096142 -23271885.17096142 -11003009.1423134 0 0 0 0 0 87088255.28304914 -22806986.75891209 -22806986.75891209 -11285629.82535412 0 0 0 0 0 87061769.00927889 -22495551.30197308 -22495551.30197308 -11797948.97095592 0 0 0 0 0 88848688.59072904 -21816607.77048305 -21816607.77048305 -11082630.02522166 0 0 0 0 0 90467318.87379737 -21301770.76373269 -21301770.76373269 -11320006.13795148 0 0 0 0 0 90296036.8795888 -20499563.23907255 -20499563.23907255 -11348426.70524097 0 0 0 0 0 91665653.96804461 -19969924.28575351 -19969924.28575351 -11509387.18365944 0 0 0 0 0 92904307.00597851 -19028140.59843113 -19028140.59843113 -11261039.62331077 0 0 0 0 0 93134355.69631284 -19391007.15322115 -19391007.15322115 -10864022.94720951 0 0 0 0 0 94108064.37295586 -18483965.55524007 -18483965.55524007 -11379617.15709166 0 0 0 0 0 95241612.1337197 -17927922.7396636 -17927922.7396636 -11471444.6096176 0 0 0 0 0 96307764.7349685 -17363985.39365825 -17363985.39365825 -11537505.04128457 0 0 0 0 0 97308231.15733555 -16797680.64429451 -16797680.64429451 -11577576.10367158 0 0 0 0 0 98018299.51581131 -15959594.83295951 -15959594.83295951 -11248020.40115354 0 0 0 0 0 98452958.02527295 -16328408.12972391 -16328408.12972391 -11017364.5547485 0 0 0 0 0 98865262.71839853 -15410051.67635543 -15410051.67635543 -11245472.47235835 0 0 0 0 0 99654727.36833335 -14868506.3245707 -14868506.3245707 -11234798.12210608 0 0 0 0 0 100394946.4241154 -14324706.20333838 -14324706.20333838 -11199129.01841649 0 0 0 0 0 101080367.9478822 -13788791.79326243 -13788791.79326243 -11147638.52037586 0 0 0 0 0 101717426.0540499 -13256552.32919015 -13256552.32919015 -11079532.23248117 0 0 0 0 0 102529930.0948856 -12916573.51764305 -12916573.51764305 -10644164.83265742 0 0 0 0 0 102552824.7243405 -12095826.74749515 -12095826.74749515 -10634176.14821025 0 0 0 0 0 103080675.5385414 -12410556.21662842 -12410556.21662842 -10583535.21150228 0 0 0 0 0 103050014.1193178 -11608712.54045094 -11608712.54045094 -10536380.25769745 0 0 0 0 0 103507892.4665242 -11133233.15415724 -11133233.15415724 -10428144.71996664 0 0 0 0 0 103928160.2378314 -10668804.41268674 -10668804.41268674 -10310453.91570269 0 0 0 0 0 104314674.8964691 -10216112.27688418 -10216112.27688418 -10184671.42388837 0 0 0 0 0 104350940.5768989 -9725829.524050316 -9725829.524050316 -9835829.590994496 0 0 0 0 0 104860823.3647963 -9981757.589308748 -9981757.589308748 -9870175.562394902 0 0 0 0 0 104672489.617668 -9308080.99959055 -9308080.99959055 -9703906.643261548 0 0 0 0 0 104966105.7050873 -8901373.654718278 -8901373.654718278 -9566530.567046029 0 0 0 0 0 105235102.3445628 -8506745.881586732 -8506745.881586732 -9423557.505693475 0 0 0 0 0 105477862.308675 -8124411.617859417 -8124411.617859417 -9276185.467858145 0 0 0 0 0 105697422.6109787 -7753490.783601856 -7753490.783601856 -9125239.487843195 0 0 0 0 0 106230021.6675542 -7248782.349803673 -7248782.349803673 -8768422.857626647 0 0 0 0 0 105896018.7462512 -7394139.7502299 -7394139.7502299 -8969403.974148849 0 0 0 0 0 105779805.9841273 -7064459.0501419 -7064459.0501419 -8665385.803405227 0 0 0 0 0 105941320.5973688 -6737532.482889653 -6737532.482889653 -8505850.402456129 0 0 0 0 0 106079460.3680975 -6425058.968579263 -6425058.968579263 -8361175.429142322 0 0 0 0 0 106212494.5841645 -6121531.540309261 -6121531.540309261 -8180013.296565327 0 0 0 0 0 106295476.288166 -5842938.130174722 -5842938.130174722 -8037186.714987127 0 0 0 0 0 106375878.1072972 -5569385.834276912 -5569385.834276912 -7918526.849784859 0 0 0 0 0 106611017.1935707 -5459318.874209801 -5459318.874209801 -7763186.19412254 0 0 0 0 0 106218551.876404 -5326214.580596778 -5326214.580596778 -7633991.851134754 0 0 0 0 0 106298917.8839705 -5063047.49067007 -5063047.49067007 -7482955.170933669 0 0 0 0 0 106367018.2718544 -4810597.888106473 -4810597.888106473 -7333257.479481908 0 0 0 0 0 106424673.1329454 -4567111.473680922 -4567111.473680922 -7184202.01382925 0 0 0 0 0 106583384.4490166 -4497687.944588891 -4497687.944588891 -7087573.835604731 0 0 0 0 0 106242694.9352637 -4389695.627091349 -4389695.627091349 -6955470.326050723 0 0 0 0 0 106285819.2660279 -4166960.602410434 -4166960.602410434 -6813427.028521976 0 0 0 0 0 106320257.9977049 -3952476.275279015 -3952476.275279015 -6672125.631620694 0 0 0 0 0 106346754.1751526 -3746003.937663619 -3746003.937663619 -6531743.82019161 0 0 0 0 0 106365880.7207601 -3547292.67245442 -3547292.67245442 -6392399.157167306 0 0 0 0 0 106378064.653929 -3356205.897792733 -3356205.897792733 -6254021.250797032 0 0 0 0 0 106383569.5220395 -3172639.545247552 -3172639.545247552 -6117738.025404175 0 0 0 0 0 106383710.0811418 -2995860.290006391 -2995860.290006391 -5982592.141610112 0 0 0 0 0 106192933.2543406 -2896950.97379299 -2896950.97379299 -5806300.264284129 0 0 0 0 0 106460330.6671234 -2963674.212702879 -2963674.212702879 -5941105.843086371 0 0 0 0 0 106187662.1408546 -2735193.65905167 -2735193.65905167 -5677981.180593463 0 0 0 0 0 106253650.64342 -2708194.164273668 -2708194.164273668 -5644906.811612801 0 0 0 0 0 106006713.6493306 -2649607.062035828 -2649607.062035828 -5513835.751010637 0 0 0 0 0 106005112.8954637 -2500429.395381172 -2500429.395381172 -5365955.298943504 0 0 0 0 0 105982904.9070077 -2356727.851491873 -2356727.851491873 -5331145.398111573 0 0 0 0 0 105987349.3296722 -2162065.959107695 -2162065.959107695 -5056637.222094373 0 0 0 0 0 106093606.2830159 -2232498.163512816 -2232498.163512816 -5140485.250624347 0 0 0 0 0 90317114.24456896 -20950068.35826661 -20950068.35826661 -11775285.55846019 0 0 0 0 0 16447304.67396725 -1460185.182713007 -1460185.182713007 -8875800.516505038 0 0 0 0 0 17867288.97630148 -3772427.829899634 -3772427.829899634 -8112693.156594385 0 0 0 0 0 19661112.74754195 -5838952.006548311 -5838952.006548311 -7195765.943579623 0 0 0 0 0 21850374.5941851 -7834029.371102747 -7834029.371102747 -6258537.758759232 0 0 0 0 0 24429250.46006028 -10011693.52374078 -10011693.52374078 -5738907.017280507 0 0 0 0 0 26821216.62375326 -12137885.69871713 -12137885.69871713 -5606174.771267801 0 0 0 0 0 28950433.96564302 -14217437.00713047 -14217437.00713047 -5621616.576450589 0 0 0 0 0 31303983.25196207 -16179568.53368381 -16179568.53368381 -5719583.2127698 0 0 0 0 0 33837184.79673486 -17998144.82807371 -17998144.82807371 -5892998.733944356 0 0 0 0 0 36535363.48261817 -19663079.45568358 -19663079.45568358 -6138096.854529441 0 0 0 0 0 39394217.0855846 -21166388.80599016 -21166388.80599016 -6448931.641222045 0 0 0 0 0 41110668.0668234 -20584894.17375999 -20584894.17375999 -6042893.829119663 0 0 0 0 0 44449675.28268653 -22233010.54567088 -22233010.54567088 -6089679.406211919 0 0 0 0 0 47349820.52451338 -23330211.80659518 -23330211.80659518 -6556457.877261242 0 0 0 0 0 50299440.9318952 -24266342.70339946 -24266342.70339946 -7053903.423303792 0 0 0 0 0 53268449.4865856 -25043380.54700793 -25043380.54700793 -7573139.852174353 0 0 0 0 0 57729925.33109757 -25137058.45876977 -25137058.45876977 -7569260.517198552 0 0 0 0 0 55457959.62268048 -24296424.50987037 -24296424.50987037 -7056619.894375312 0 0 0 0 0 60532817.8911084 -25575797.32324877 -25575797.32324877 -8117952.585579837 0 0 0 0 0 63316780.77834915 -25882357.63129646 -25882357.63129646 -8662467.672818435 0 0 0 0 0 66064818.64998809 -26067277.38958841 -26067277.38958841 -9198854.07919614 0 0 0 0 0 68757298.95227422 -26138381.84702436 -26138381.84702436 -9725364.362122582 0 0 0 0 0 71357429.82975733 -26099194.49010822 -26099194.49010822 -10221777.77975868 0 0 0 0 0 73874769.05223954 -25959641.08006218 -25959641.08006218 -10691164.14168778 0 0 0 0 0 76128204.98627937 -25140877.11771231 -25140877.11771231 -9969657.700397033 0 0 0 0 0 76887103.50603418 -25108917.88096607 -25108917.88096607 -10651260.33110122 0 0 0 0 0 79119940.28351584 -24809811.34721678 -24809811.34721678 -11053877.57987953 0 0 0 0 0 81245788.63554332 -24439785.91588385 -24439785.91588385 -11424228.07161215 0 0 0 0 0 83265677.33630048 -24010243.46819726 -24010243.46819726 -11755649.68420394 0 0 0 0 0 85174725.18795127 -23533775.08380935 -23533775.08380935 -12029086.12455934 0 0 0 0 0 86985152.4070546 -23009814.42785627 -23009814.42785627 -12262349.1872593 0 0 0 0 0 88827868.13737211 -22305892.38764459 -22305892.38764459 -11533343.87308747 0 0 0 0 0 88742960.62030371 -21968220.62066796 -21968220.62066796 -12029743.18992618 0 0 0 0 0 90336401.89367723 -21402835.87015171 -21402835.87015171 -12218875.33586578 0 0 0 0 0 91887194.43892114 -20330642.81975919 -20330642.81975919 -11104661.62789751 0 0 0 0 0 93246352.1979233 -19794424.86562938 -19794424.86562938 -11266502.13802573 0 0 0 0 0 94396185.05678329 -18859184.88112355 -18859184.88112355 -11019212.5572402 0 0 0 0 0 92975760.79012406 -19421375.52058811 -19421375.52058811 -11655513.42547802 0 0 0 0 0 95581759.04118887 -18309953.7115956 -18309953.7115956 -11145398.06877118 0 0 0 0 0 96692761.5952315 -17749011.05300264 -17749011.05300264 -11245036.71334195 0 0 0 0 0 97731162.98260425 -17180756.27832521 -17180756.27832521 -11319591.01610494 0 0 0 0 0 98698170.29581435 -16606032.47512599 -16606032.47512599 -11365856.66470843 0 0 0 0 0 99329659.97481091 -15780096.87399871 -15780096.87399871 -11057908.90867971 0 0 0 0 0 98245915.68218464 -16227314.48886518 -16227314.48886518 -11597747.03626143 0 0 0 0 0 100144309.1526034 -15231356.63718433 -15231356.63718433 -11068379.59135114 0 0 0 0 0 100903839.8129776 -14681972.74950256 -14681972.74950256 -11061724.95326591 0 0 0 0 0 101603695.5495105 -14137057.85413362 -14137057.85413362 -11037924.89007116 0 0 0 0 0 102255343.0581772 -13600232.94880083 -13600232.94880083 -10996091.31466929 0 0 0 0 0 102850896.5405165 -13066880.388867 -13066880.388867 -10935187.14650712 0 0 0 0 0 102310394.5923755 -12734027.02030645 -12734027.02030645 -11002147.61060597 0 0 0 0 0 103582602.0350537 -11914092.0424207 -11914092.0424207 -10509392.09991848 0 0 0 0 0 102863611.5866766 -12217188.56450482 -12217188.56450482 -10904514.03425538 0 0 0 0 0 104042094.1699525 -11427712.05902297 -11427712.05902297 -10422012.82855741 0 0 0 0 0 104462488.3462986 -10952307.2307793 -10952307.2307793 -10322944.50592034 0 0 0 0 0 104847105.9191115 -10488423.18502396 -10488423.18502396 -10213373.25829835 0 0 0 0 0 105197412.4116507 -10036148.34572272 -10036148.34572272 -10094769.10769952 0 0 0 0 0 105179528.3609418 -9554517.530802032 -9554517.530802032 -9753373.377315661 0 0 0 0 0 104666907.8244955 -9774632.860115688 -9774632.860115688 -10050183.81150054 0 0 0 0 0 105469249.7574693 -9138941.305099532 -9138941.305099532 -9630192.848867398 0 0 0 0 0 105731250.7668013 -8733411.676194843 -8733411.676194843 -9499027.95048864 0 0 0 0 0 105967540.1169336 -8339967.494392539 -8339967.494392539 -9362251.549904097 0 0 0 0 0 106179557.9654441 -7959325.476176152 -7959325.476176152 -9221400.412645407 0 0 0 0 0 106369722.4691399 -7590109.932684639 -7590109.932684639 -9075674.070076944 0 0 0 0 0 106071920.3762389 -7047645.23404615 -7047645.23404615 -8812942.30784004 0 0 0 0 0 106537323.205081 -7233748.057036305 -7233748.057036305 -8927540.374019437 0 0 0 0 0 106383251.754236 -6911766.382826228 -6911766.382826228 -8624594.4623749 0 0 0 0 0 106512037.1389097 -6588149.682645145 -6588149.682645145 -8484014.414242314 0 0 0 0 0 106638688.710519 -6265883.145218111 -6265883.145218111 -8323450.112503907 0 0 0 0 0 106715130.709128 -5980271.495041023 -5980271.495041023 -8205296.117599874 0 0 0 0 0 106787398.9258542 -5710058.464125765 -5710058.464125765 -8048113.081600809 0 0 0 0 0 106890974.4748647 -5416872.683333583 -5416872.683333583 -7863386.87898586 0 0 0 0 0 106476218.1282424 -5285793.052807942 -5285793.052807942 -7746109.702182632 0 0 0 0 0 106683247.8382012 -5188788.957178614 -5188788.957178614 -7615483.780868902 0 0 0 0 0 106738540.3408664 -4931773.657974024 -4931773.657974024 -7468156.375034205 0 0 0 0 0 106783254.4020618 -4681616.94782051 -4681616.94782051 -7321531.524359548 0 0 0 0 0 106820685.1937983 -4440238.68201752 -4440238.68201752 -7175840.133087229 0 0 0 0 0 106472192.7277496 -4332604.448225093 -4332604.448225093 -7036151.703454238 0 0 0 0 0 106617959.1748826 -4268955.464570229 -4268955.464570229 -6947880.756505143 0 0 0 0 0 106643468.2915995 -4048543.656012755 -4048543.656012755 -6808463.131936744 0 0 0 0 0 106661186.3866014 -3836440.83655274 -3836440.83655274 -6669554.104127679 0 0 0 0 0 106671608.0910725 -3632376.659078125 -3632376.659078125 -6531430.591083281 0 0 0 0 0 106675211.300001 -3436074.140070723 -3436074.140070723 -6394308.019701978 0 0 0 0 0 106672177.5313766 -3247554.58695538 -3247554.58695538 -6258581.044743736 0 0 0 0 0 106663921.9215923 -3066095.020149013 -3066095.020149013 -6123303.961899436 0 0 0 0 0 106650590.9139065 -2891680.528354035 -2891680.528354035 -5989649.644020375 0 0 0 0 0 106446922.0796564 -2797322.609398226 -2797322.609398226 -5813356.871006796 0 0 0 0 0 106378530.1050518 -2825742.473933937 -2825742.473933937 -5849190.117783153 0 0 0 0 0 106429065.2562637 -2637329.798012407 -2637329.798012407 -5686525.618671623 0 0 0 0 0 106177632.0364626 -2577408.689718777 -2577408.689718777 -5554172.808672228 0 0 0 0 0 106231968.7991196 -2554575.918501663 -2554575.918501663 -5524272.340878568 0 0 0 0 0 106194212.6364377 -2419816.729046216 -2419816.729046216 -5424218.353533461 0 0 0 0 0 106205717.738862 -2262192.235543916 -2262192.235543916 -5248979.547362011 0 0 0 0 0 106025624.5592556 -2104147.356384239 -2104147.356384239 -5150502.365020397 0 0 0 0 0 106092894.0384259 -2187536.672255203 -2187536.672255203 -5229446.34657826 0 0 0 0 0 91978177.13885042 -20763876.30094497 -20763876.30094497 -11525223.54884837 0 0 0 0 0 15276246.78350911 -732253.485496168 -732253.485496168 -10048183.86359736 0 0 0 0 0 17568789.84378493 -3238002.767197836 -3238002.767197836 -8991275.186794776 0 0 0 0 0 19617671.4741399 -5509987.099233442 -5509987.099233442 -7809801.87011858 0 0 0 0 0 21199491.19594315 -7380927.901392407 -7380927.901392407 -6998617.278826213 0 0 0 0 0 22703738.74581902 -9443649.488456301 -9443649.488456301 -6596092.78044762 0 0 0 0 0 24615577.90933454 -11560704.16637547 -11560704.16637547 -6529420.695780555 0 0 0 0 0 27076803.88595955 -13661948.41661671 -13661948.41661671 -6446577.609153378 0 0 0 0 0 29763427.91952391 -15641653.12383671 -15641653.12383671 -6453264.234642471 0 0 0 0 0 32637163.60223651 -17483163.19003888 -17483163.19003888 -6529994.500245842 0 0 0 0 0 35674767.24401349 -19170824.721424 -19170824.721424 -6679970.621934936 0 0 0 0 0 38831660.56082118 -20699967.97072404 -20699967.97072404 -6901129.994714359 0 0 0 0 0 42354596.7306802 -22505161.6790805 -22505161.6790805 -6820719.62607391 0 0 0 0 0 44243419.63507464 -21867537.12435019 -21867537.12435019 -6387112.894577336 0 0 0 0 0 47417682.7258102 -22985392.66982422 -22985392.66982422 -6774446.128032737 0 0 0 0 0 50618974.50694568 -23940720.23729596 -23940720.23729596 -7199970.547500285 0 0 0 0 0 53822846.91399594 -24735287.56086789 -24735287.56086789 -7651321.568146004 0 0 0 0 0 58502394.18136632 -24888881.8328514 -24888881.8328514 -7549569.974201257 0 0 0 0 0 56239966.9905742 -25668655.99569319 -25668655.99569319 -8108864.837766962 0 0 0 0 0 61504717.2733667 -25340647.08398043 -25340647.08398043 -8052830.198441248 0 0 0 0 0 64444202.07099558 -25654662.10746221 -25654662.10746221 -8550477.919055788 0 0 0 0 0 67320807.46618703 -25846381.61499639 -25846381.61499639 -9046873.812041476 0 0 0 0 0 70136292.59659606 -25921454.13862877 -25921454.13862877 -9535082.823775277 0 0 0 0 0 72872227.07707579 -25881437.66508113 -25881437.66508113 -10007560.19334119 0 0 0 0 0 75500200.60668658 -25740222.82625034 -25740222.82625034 -10451948.30306983 0 0 0 0 0 76305052.06992064 -25729570.85835475 -25729570.85835475 -11128811.80262658 0 0 0 0 0 78527553.01835281 -24915929.36182722 -24915929.36182722 -10390303.26154978 0 0 0 0 0 80817844.13770545 -24613362.4281734 -24613362.4281734 -10781541.44174764 0 0 0 0 0 83003574.48018757 -24239593.53861903 -24239593.53861903 -11140080.73865276 0 0 0 0 0 85083410.78639257 -23801633.52305809 -23801633.52305809 -11458235.47864719 0 0 0 0 0 87026464.36290778 -23325318.67253175 -23325318.67253175 -11757318.01409564 0 0 0 0 0 88820805.9449372 -22801477.44736023 -22801477.44736023 -12002113.70888255 0 0 0 0 0 88700035.78099811 -22451616.05841722 -22451616.05841722 -12474614.10211751 0 0 0 0 0 90485957.72487092 -21764822.75810503 -21764822.75810503 -11746325.70933924 0 0 0 0 0 92055914.61104479 -21195231.7319783 -21195231.7319783 -11945553.36510229 0 0 0 0 0 91732822.28174378 -20390522.90944836 -20390522.90944836 -11926470.54568095 0 0 0 0 0 93071338.54828653 -19813335.60981052 -19813335.60981052 -12056357.10548457 0 0 0 0 0 94220496.4997348 -18851662.07411953 -18851662.07411953 -11767040.31355671 0 0 0 0 0 94534357.51335418 -19236941.40495582 -19236941.40495582 -11404519.81405486 0 0 0 0 0 95391505.01016724 -18269912.10207992 -18269912.10207992 -11851239.78865729 0 0 0 0 0 96490883.87651812 -17680308.14948198 -17680308.14948198 -11908825.77672194 0 0 0 0 0 97518296.02822556 -17084422.03236771 -17084422.03236771 -11941158.13963389 0 0 0 0 0 98480469.65029877 -16492665.98278456 -16492665.98278456 -11952707.21536346 0 0 0 0 0 99114664.05940792 -15651531.76956003 -15651531.76956003 -11584317.89680167 0 0 0 0 0 99610301.75358681 -16030821.90927993 -16030821.90927993 -11394441.39592194 0 0 0 0 0 99923232.75918052 -15086175.02431241 -15086175.02431241 -11565641.33904392 0 0 0 0 0 100681430.4541984 -14520906.36871917 -14520906.36871917 -11518598.18011777 0 0 0 0 0 101380857.1608346 -13964535.96880059 -13964535.96880059 -11456712.27588947 0 0 0 0 0 102030047.2169706 -13409981.40226378 -13409981.40226378 -11372004.74911433 0 0 0 0 0 102625458.2251673 -12872390.36567818 -12872390.36567818 -11285997.94819915 0 0 0 0 0 103414618.9200075 -12541795.70537437 -12541795.70537437 -10860619.20396861 0 0 0 0 0 103367822.3404383 -11713130.42563849 -11713130.42563849 -10795927.15424767 0 0 0 0 0 103925629.5285401 -12025806.5330776 -12025806.5330776 -10778217.74081674 0 0 0 0 0 103830226.6949779 -11220864.41989618 -11220864.41989618 -10676741.46523539 0 0 0 0 0 104253998.7507309 -10741196.53957846 -10741196.53957846 -10548400.88625247 0 0 0 0 0 104642001.8653867 -10273627.04420208 -10273627.04420208 -10411201.20721961 0 0 0 0 0 104996156.1818516 -9818246.901580729 -9818246.901580729 -10266613.86584268 0 0 0 0 0 104989260.0587347 -9344789.134653751 -9344789.134653751 -9909336.707904834 0 0 0 0 0 105515411.2488582 -9596099.722823245 -9596099.722823245 -9968815.174083669 0 0 0 0 0 105282027.4070387 -8926613.202947697 -8926613.202947697 -9761449.661153523 0 0 0 0 0 105548312.5261628 -8521067.839215973 -8521067.839215973 -9608785.122693693 0 0 0 0 0 105789567.9994607 -8128131.59377814 -8128131.59377814 -9452157.044643052 0 0 0 0 0 106006936.2130811 -7747423.351635208 -7747423.351635208 -9291184.60463118 0 0 0 0 0 106201105.921235 -7379638.079431381 -7379638.079431381 -9126872.599619731 0 0 0 0 0 106685823.0957365 -6889409.381827623 -6889409.381827623 -8774938.649621213 0 0 0 0 0 106374469.8977997 -7024695.366424789 -7024695.366424789 -8959922.693130344 0 0 0 0 0 106228144.4631542 -6711558.96173224 -6711558.96173224 -8654476.164272519 0 0 0 0 0 106368027.3839356 -6387740.850410534 -6387740.850410534 -8494613.536132455 0 0 0 0 0 106493959.8137323 -6084108.791930611 -6084108.791930611 -8342839.669422502 0 0 0 0 0 106609609.8962174 -5786714.330910111 -5786714.330910111 -8136459.784679647 0 0 0 0 0 106653512.7270882 -5529664.313406725 -5529664.313406725 -8015982.547988882 0 0 0 0 0 106730697.4775861 -5247571.486370765 -5247571.486370765 -7877068.005714481 0 0 0 0 0 106958917.1365209 -5139770.094131568 -5139770.094131568 -7725777.991785342 0 0 0 0 0 106555538.1573197 -5011891.77683813 -5011891.77683813 -7575051.117417095 0 0 0 0 0 106612762.1074243 -4755822.779660938 -4755822.779660938 -7423862.331323843 0 0 0 0 0 106665797.717949 -4507708.871587533 -4507708.871587533 -7268717.846325187 0 0 0 0 0 106708268.5367126 -4269825.294669001 -4269825.294669001 -7113650.345620877 0 0 0 0 0 106850704.1795135 -4208281.394414097 -4208281.394414097 -7030043.693777258 0 0 0 0 0 106510588.0110778 -4106350.364728454 -4106350.364728454 -6888119.326981749 0 0 0 0 0 106539952.18229 -3888916.325710807 -3888916.325710807 -6741196.996478277 0 0 0 0 0 106561411.2547757 -3679780.358220299 -3679780.358220299 -6595409.571661857 0 0 0 0 0 106575497.7314384 -3478628.364292547 -3478628.364292547 -6450889.713782594 0 0 0 0 0 106582817.2556721 -3285284.960088474 -3285284.960088474 -6307715.97460929 0 0 0 0 0 106583688.6103644 -3099606.398821578 -3099606.398821578 -6165975.408784402 0 0 0 0 0 106578457.901748 -2921378.687389752 -2921378.687389752 -6026347.005960774 0 0 0 0 0 106568328.6417327 -2750100.772584003 -2750100.772584003 -5888402.450946573 0 0 0 0 0 106368253.3390644 -2662209.118746618 -2662209.118746618 -5716875.899715398 0 0 0 0 0 106632943.8029613 -2724025.890244826 -2724025.890244826 -5857555.30521582 0 0 0 0 0 106353619.1006855 -2505946.04502546 -2505946.04502546 -5584524.385991585 0 0 0 0 0 106414069.2605855 -2482716.641718786 -2482716.641718786 -5560307.552031165 0 0 0 0 0 106164700.3302033 -2428284.902262875 -2428284.902262875 -5424694.978447848 0 0 0 0 0 106141856.0468623 -2296556.468548181 -2296556.468548181 -5298441.242941516 0 0 0 0 0 106123117.7918942 -2166843.10605319 -2166843.10605319 -5188492.566024018 0 0 0 0 0 106139802.8325954 -2049647.66015365 -2049647.66015365 -5061522.997219823 0 0 0 0 0 91810603.15550233 -20812548.89189153 -20812548.89189153 -12363028.11231365 0 0 0 0 0 13861505.68575945 -1511777.347309968 -1511777.347309968 -11304000.89421063 0 0 0 0 0 15351048.89087962 -3940909.693506168 -3940909.693506168 -10096633.65713865 0 0 0 0 0 16446310.6071544 -6052092.354605496 -6052092.354605496 -8895235.251355302 0 0 0 0 0 18778384.77542209 -7977885.959577111 -7977885.959577111 -7991566.036469465 0 0 0 0 0 22102778.83471862 -9732252.370936513 -9732252.370936513 -7080868.954559363 0 0 0 0 0 24102000.17012951 -11830109.68578177 -11830109.68578177 -7014068.653140328 0 0 0 0 0 26335692.00472433 -13987541.59462897 -13987541.59462897 -6903259.476451948 0 0 0 0 0 28743283.3867176 -16037836.10861486 -16037836.10861486 -6883079.191422592 0 0 0 0 0 31358669.82295315 -17949138.63673836 -17949138.63673836 -6954941.814613038 0 0 0 0 0 34155553.79677934 -19706127.72465543 -19706127.72465543 -7112166.0174186 0 0 0 0 0 37089287.80793357 -21299772.4815731 -21299772.4815731 -7346604.005272105 0 0 0 0 0 40152250.026903 -22724927.93312486 -22724927.93312486 -7648636.631642602 0 0 0 0 0 42080544.33698682 -22067441.74058568 -22067441.74058568 -7183063.239468618 0 0 0 0 0 45375475.87740871 -23676078.9576391 -23676078.9576391 -7242213.601570999 0 0 0 0 0 48450470.21370403 -24677303.57498801 -24677303.57498801 -7701771.220653978 0 0 0 0 0 51551419.90215003 -25511250.05163501 -25511250.05163501 -8189483.614685216 0 0 0 0 0 54659893.34744825 -26183952.97562433 -26183952.97562433 -8697655.831668081 0 0 0 0 0 59175822.73398861 -26145814.61562401 -26145814.61562401 -8652444.044743657 0 0 0 0 0 57013560.23153719 -25375768.95812864 -25375768.95812864 -8122857.379934408 0 0 0 0 0 62077011.25787948 -26480076.59195363 -26480076.59195363 -9182926.6133695 0 0 0 0 0 64940071.95286769 -26682997.48068525 -26682997.48068525 -9708035.371893911 0 0 0 0 0 67753783.55488853 -26765003.37244222 -26765003.37244222 -10221685.36148471 0 0 0 0 0 70513220.42750005 -26734258.47918571 -26734258.47918571 -10716805.1023138 0 0 0 0 0 73158475.66606292 -26591599.34351993 -26591599.34351993 -11183689.27599565 0 0 0 0 0 75701256.2049914 -26353174.79108522 -26353174.79108522 -11621574.04998429 0 0 0 0 0 78020218.12484035 -25509736.24253862 -25509736.24253862 -10867887.90981982 0 0 0 0 0 78641635.86515862 -25416651.61369962 -25416651.61369962 -11530303.19575039 0 0 0 0 0 80875949.89815626 -25031110.20657941 -25031110.20657941 -11895690.23328736 0 0 0 0 0 83011258.90892459 -24580056.34801477 -24580056.34801477 -12223253.87565146 0 0 0 0 0 85044806.53841943 -24077228.70517093 -24077228.70517093 -12513524.74067597 0 0 0 0 0 86917972.51042941 -23523445.41239547 -23523445.41239547 -12744629.49921654 0 0 0 0 0 88691155.6162599 -22947599.83133274 -22947599.83133274 -12954721.72768139 0 0 0 0 0 90533337.55512741 -22234968.96157821 -22234968.96157821 -12214081.4154254 0 0 0 0 0 90342589.30956315 -21860261.04000182 -21860261.04000182 -12661667.75177244 0 0 0 0 0 91895800.47537675 -21249042.00329845 -21249042.00329845 -12820133.66264798 0 0 0 0 0 93383947.69304657 -20203700.07712944 -20203700.07712944 -11687741.69416612 0 0 0 0 0 94702110.87651321 -19617092.27373862 -19617092.27373862 -11820157.33804524 0 0 0 0 0 95757044.4055461 -18663656.71140911 -18663656.71140911 -11527441.45037536 0 0 0 0 0 94348015.67394398 -19221862.10199516 -19221862.10199516 -12167862.88320458 0 0 0 0 0 96901637.26936683 -18076873.9791424 -18076873.9791424 -11620801.57311433 0 0 0 0 0 97971278.73716888 -17483560.56657188 -17483560.56657188 -11687782.56942292 0 0 0 0 0 98965348.6008974 -16885559.28691389 -16885559.28691389 -11730439.59082706 0 0 0 0 0 99881712.00474784 -16285831.38768964 -16285831.38768964 -11745680.76841239 0 0 0 0 0 100445024.6963488 -15461819.19050115 -15461819.19050115 -11417521.94038195 0 0 0 0 0 99385090.63960209 -15898101.40132967 -15898101.40132967 -11948872.76740332 0 0 0 0 0 101220938.6773606 -14885536.77755383 -14885536.77755383 -11385402.65133777 0 0 0 0 0 101939614.874314 -14320012.19446081 -14320012.19446081 -11352279.1585574 0 0 0 0 0 102596486.0393758 -13762161.95535944 -13762161.95535944 -11304050.54211272 0 0 0 0 0 103197118.6273997 -13211687.93967239 -13211687.93967239 -11233742.9406053 0 0 0 0 0 103764925.3085084 -12669229.09724106 -12669229.09724106 -11147211.006018 0 0 0 0 0 103185802.740852 -12336888.50987891 -12336888.50987891 -11180869.6347538 0 0 0 0 0 104389048.645572 -11522494.34540466 -11522494.34540466 -10680947.02518836 0 0 0 0 0 103702014.03238 -11812457.57027081 -11812457.57027081 -11059000.06173621 0 0 0 0 0 104811296.6989474 -11030951.11684693 -11030951.11684693 -10571396.46015639 0 0 0 0 0 105197355.6335121 -10552021.3317934 -10552021.3317934 -10451536.41094195 0 0 0 0 0 105547780.8486019 -10085512.90087523 -10085512.90087523 -10322579.9690772 0 0 0 0 0 105865245.5181545 -9631430.63578614 -9631430.63578614 -10185486.77551392 0 0 0 0 0 105803531.4136736 -9167734.826761218 -9167734.826761218 -9835315.484633751 0 0 0 0 0 105318563.7160348 -9375214.656860678 -9375214.656860678 -10114566.9179449 0 0 0 0 0 106063620.8179044 -8751517.3663572 -8751517.3663572 -9694833.427104246 0 0 0 0 0 106296882.2358868 -8347624.352679584 -8347624.352679584 -9548884.705808107 0 0 0 0 0 106505795.862075 -7956167.850425292 -7956167.850425292 -9397821.306220612 0 0 0 0 0 106691612.088949 -7577783.443755466 -7577783.443755466 -9243162.408827169 0 0 0 0 0 106854978.7077616 -7212925.166823994 -7212925.166823994 -9085440.864945972 0 0 0 0 0 106526740.7460617 -6681573.368568318 -6681573.368568318 -8792252.489942431 0 0 0 0 0 106997810.086507 -6860550.419361007 -6860550.419361007 -8924819.460730096 0 0 0 0 0 106816693.8660816 -6555748.665934954 -6555748.665934954 -8619893.306646505 0 0 0 0 0 106930647.5271085 -6232366.238798031 -6232366.238798031 -8462566.688395211 0 0 0 0 0 107025637.6353488 -5925988.756433302 -5925988.756433302 -8302979.550112995 0 0 0 0 0 107063202.8280038 -5663211.558903874 -5663211.558903874 -8197481.009517251 0 0 0 0 0 107144649.1921593 -5378640.982058273 -5378640.982058273 -8000690.761606697 0 0 0 0 0 107242171.405836 -5090014.587246769 -5090014.587246769 -7819723.626506089 0 0 0 0 0 106823796.8012777 -4955953.438851367 -4955953.438851367 -7679376.664122987 0 0 0 0 0 107001867.4206071 -4879584.451899606 -4879584.451899606 -7582581.158646216 0 0 0 0 0 107038108.9430587 -4623585.85016228 -4623585.85016228 -7417691.002190658 0 0 0 0 0 107065580.9053292 -4376490.943701102 -4376490.943701102 -7261220.804111582 0 0 0 0 0 107089332.6808906 -4141640.459461787 -4141640.459461787 -7109980.113094307 0 0 0 0 0 106741712.582379 -4040028.480820155 -4040028.480820155 -6959966.935686214 0 0 0 0 0 106870476.0706535 -3984590.62042016 -3984590.62042016 -6885011.79909371 0 0 0 0 0 106882545.5117404 -3769664.632246329 -3769664.632246329 -6740413.763234335 0 0 0 0 0 106887591.2211901 -3563080.861527869 -3563080.861527869 -6596820.23373924 0 0 0 0 0 106885889.995163 -3364474.755817005 -3364474.755817005 -6454363.290018491 0 0 0 0 0 106877833.6648548 -3173705.979809275 -3173705.979809275 -6313284.445044112 0 0 0 0 0 106863853.1461395 -2990603.144853625 -2990603.144853625 -6173767.658165956 0 0 0 0 0 106844863.034859 -2814742.329901695 -2814742.329901695 -6035301.044672476 0 0 0 0 0 106821243.9507925 -2646172.897492616 -2646172.897492616 -5898811.34791855 0 0 0 0 0 106610341.5701401 -2562348.273978855 -2562348.273978855 -5726925.631316875 0 0 0 0 0 106553225.6569672 -2585238.796356454 -2585238.796356454 -5753584.409437942 0 0 0 0 0 106582990.4275054 -2406878.066036657 -2406878.066036657 -5597077.060466183 0 0 0 0 0 106334212.6935071 -2351135.293462076 -2351135.293462076 -5459451.834571821 0 0 0 0 0 106372647.1654076 -2335991.977571205 -2335991.977571205 -5440619.292996576 0 0 0 0 0 106318536.1088432 -2206630.43671146 -2206630.43671146 -5336739.335430718 0 0 0 0 0 106267513.6145806 -2078063.061942764 -2078063.061942764 -5216106.761057285 0 0 0 0 0 106186140.366704 -1984441.714898465 -1984441.714898465 -5151624.513850844 0 0 0 0 0 93535678.27622195 -20608918.16107373 -20608918.16107373 -12120807.71889923 0 0 0 0 0 12545335.94069879 -715910.8315199472 -715910.8315199472 -12592332.63886815 0 0 0 0 0 13632095.26686258 -3120665.683535307 -3120665.683535307 -11291804.94680217 0 0 0 0 0 18387437.19690205 -6204782.49351675 -6204782.49351675 -9658889.067516247 0 0 0 0 0 20452119.70777003 -8161173.269584443 -8161173.269584443 -8505412.617139809 0 0 0 0 0 19076932.91810853 -9161910.688015455 -9161910.688015455 -8186643.497229856 0 0 0 0 0 21795763.51098027 -11093012.9244809 -11093012.9244809 -8091550.057451328 0 0 0 0 0 24335719.13957449 -13312529.98175527 -13312529.98175527 -7840414.387398918 0 0 0 0 0 27078123.00471577 -15394649.73062735 -15394649.73062735 -7718153.271409684 0 0 0 0 0 30030086.17959994 -17333853.082768 -17333853.082768 -7691204.442889296 0 0 0 0 0 33157344.74095474 -19121464.90834486 -19121464.90834486 -7748238.310023182 0 0 0 0 0 36430127.56476434 -20746557.15093392 -20746557.15093392 -7880527.644875509 0 0 0 0 0 39812365.44627296 -22201460.57995968 -22201460.57995968 -8086022.317440809 0 0 0 0 0 43309014.14851444 -23975308.92274673 -23975308.92274673 -8009735.558300298 0 0 0 0 0 45397402.34815934 -23263460.36921248 -23263460.36921248 -7516790.031225266 0 0 0 0 0 48744197.52489018 -24287605.38648141 -24287605.38648141 -7897148.605374554 0 0 0 0 0 52102754.88855892 -25143771.62881692 -25143771.62881692 -8309790.418152327 0 0 0 0 0 55443332.59418011 -25836242.39287814 -25836242.39287814 -8747443.654318433 0 0 0 0 0 60162898.34320226 -25865933.0970904 -25865933.0970904 -8605886.65887983 0 0 0 0 0 57751502.54247344 -26703441.05160406 -26703441.05160406 -9218765.800125763 0 0 0 0 0 63259032.1026207 -26212842.36224433 -26212842.36224433 -9089158.661425276 0 0 0 0 0 66272608.16353962 -26422510.17798382 -26422510.17798382 -9569732.816862276 0 0 0 0 0 69212546.66189562 -26508640.07614842 -26508640.07614842 -10042711.86050359 0 0 0 0 0 72070322.45661986 -26482509.99907979 -26482509.99907979 -10510766.24220627 0 0 0 0 0 74828977.57395174 -26344395.65165613 -26344395.65165613 -10948414.37592981 0 0 0 0 0 77476354.48452823 -26106897.89273983 -26106897.89273983 -11362288.94640484 0 0 0 0 0 78145165.7485294 -26031027.02987432 -26031027.02987432 -12024079.0426353 0 0 0 0 0 80419368.55254114 -25195321.08148677 -25195321.08148677 -11255651.27597833 0 0 0 0 0 82703046.7206879 -24806766.64630639 -24806766.64630639 -11611370.97536259 0 0 0 0 0 84872376.77592634 -24351454.27730002 -24351454.27730002 -11933572.36473645 0 0 0 0 0 86911878.38439152 -23841926.80036473 -23841926.80036473 -12221248.88005342 0 0 0 0 0 88827682.93845353 -23293566.22913902 -23293566.22913902 -12483537.91160876 0 0 0 0 0 90586369.65293124 -22708336.96738172 -22708336.96738172 -12690696.0755235 0 0 0 0 0 90381240.39292817 -22317756.52794953 -22317756.52794953 -13098902.19091559 0 0 0 0 0 92132281.54980443 -21635170.41791502 -21635170.41791502 -12386439.71480716 0 0 0 0 0 93686341.20096946 -21020131.82360042 -21020131.82360042 -12544153.56958439 0 0 0 0 0 93197860.62845533 -20207794.28425591 -20207794.28425591 -12483282.05616539 0 0 0 0 0 94504943.35048997 -19589375.27524896 -19589375.27524896 -12571605.85037341 0 0 0 0 0 95556813.64104089 -18613773.43888783 -18613773.43888783 -12243071.37732012 0 0 0 0 0 95948778.82800238 -19016214.0302165 -19016214.0302165 -11921457.92148533 0 0 0 0 0 96690488.7273519 -17997659.68938572 -17997659.68938572 -12290229.11741973 0 0 0 0 0 97749628.54106753 -17376197.3083725 -17376197.3083725 -12311669.14289152 0 0 0 0 0 98734989.57189544 -16753361.18214153 -16753361.18214153 -12311242.09357193 0 0 0 0 0 99651665.47851126 -16143632.28384626 -16143632.28384626 -12291695.67242126 0 0 0 0 0 100217583.8358932 -15298595.42495629 -15298595.42495629 -11894590.94239 0 0 0 0 0 100762820.2486359 -15688037.74191447 -15688037.74191447 -11740602.33766608 0 0 0 0 0 100990067.5631986 -14712614.21978448 -14712614.21978448 -11844298.7445693 0 0 0 0 0 101707555.4024542 -14130956.44848576 -14130956.44848576 -11772965.40382884 0 0 0 0 0 102366436.6348635 -13556437.16035973 -13556437.16035973 -11670114.9667613 0 0 0 0 0 102965204.9964051 -13002621.72162651 -13002621.72162651 -11575873.96229227 0 0 0 0 0 103531543.1877323 -12448293.97863499 -12448293.97863499 -11456198.60902512 0 0 0 0 0 104283003.0531456 -12134057.54775651 -12134057.54775651 -11049841.92695048 0 0 0 0 0 104169621.5411382 -11302723.4954868 -11302723.4954868 -10927521.94697108 0 0 0 0 0 104752040.6491435 -11611411.72379967 -11611411.72379967 -10942536.90773203 0 0 0 0 0 104595742.9325946 -10807539.9766408 -10807539.9766408 -10788087.24690042 0 0 0 0 0 104985480.4842181 -10324994.73404154 -10324994.73404154 -10639688.76646618 0 0 0 0 0 105339934.7360644 -9855597.272423135 -9855597.272423135 -10483549.9873416 0 0 0 0 0 105661749.3169351 -9399753.73865029 -9399753.73865029 -10320791.06842052 0 0 0 0 0 105610920.0394493 -8945567.7434307 -8945567.7434307 -9956942.452302044 0 0 0 0 0 106151723.5520556 -9190433.180808211 -9190433.180808211 -10041533.50159794 0 0 0 0 0 105875203.157017 -8529048.927262044 -8529048.927262044 -9794296.956006996 0 0 0 0 0 106113571.7197089 -8125336.061609958 -8125336.061609958 -9627142.977058277 0 0 0 0 0 106327713.199043 -7734974.399637617 -7734974.399637617 -9456389.981501721 0 0 0 0 0 106519254.9454747 -7357966.601476897 -7357966.601476897 -9282399.373613721 0 0 0 0 0 106688040.7254818 -6994253.500280549 -6994253.500280549 -9106057.913406949 0 0 0 0 0 107123912.4115633 -6519116.255085155 -6519116.255085155 -8759920.58513424 0 0 0 0 0 106836501.8065781 -6643162.765536342 -6643162.765536342 -8928335.620052956 0 0 0 0 0 106662089.6041965 -6348828.417012436 -6348828.417012436 -8622023.412041167 0 0 0 0 0 106788865.9405112 -6032082.177459015 -6032082.177459015 -8454304.19610714 0 0 0 0 0 106897784.6821867 -5728723.26828431 -5728723.26828431 -8277095.096553196 0 0 0 0 0 106973033.8548717 -5457079.751496052 -5457079.751496052 -8104953.4287661 0 0 0 0 0 107013001.1616247 -5193912.49674794 -5193912.49674794 -7961607.343429546 0 0 0 0 0 107080277.6885576 -4899894.186478692 -4899894.186478692 -7791599.69617829 0 0 0 0 0 107273263.1183673 -4819595.924421563 -4819595.924421563 -7682851.742568559 0 0 0 0 0 106874218.6166005 -4692628.613164714 -4692628.613164714 -7506291.073931794 0 0 0 0 0 106912698.5828062 -4442526.513007221 -4442526.513007221 -7350108.22081863 0 0 0 0 0 106950010.7186037 -4201466.425780796 -4201466.425780796 -7189880.295951959 0 0 0 0 0 106980517.7910758 -3967109.203080007 -3967109.203080007 -7026779.847038492 0 0 0 0 0 107103687.4319105 -3915129.350714537 -3915129.350714537 -6958993.573745304 0 0 0 0 0 106765478.1162149 -3819752.651277124 -3819752.651277124 -6807336.54400792 0 0 0 0 0 106781492.4395342 -3608106.185245217 -3608106.185245217 -6656040.825863793 0 0 0 0 0 106790248.1016192 -3404672.768119821 -3404672.768119821 -6506237.649015107 0 0 0 0 0 106792237.3620223 -3209235.392366091 -3209235.392366091 -6357987.220509106 0 0 0 0 0 106787860.3155478 -3021636.429707892 -3021636.429707892 -6211492.505531195 0 0 0 0 0 106777679.014559 -2841712.696476753 -2841712.696476753 -6066796.457906123 0 0 0 0 0 106762071.3012454 -2669246.360569633 -2669246.360569633 -5923948.410937207 0 0 0 0 0 106741881.847157 -2504345.623014425 -2504345.623014425 -5783546.37531738 0 0 0 0 0 106533578.7279922 -2426654.157433366 -2426654.157433366 -5620039.539574952 0 0 0 0 0 106795079.8579022 -2484468.293772823 -2484468.293772823 -5764316.571882214 0 0 0 0 0 106509534.7939499 -2273882.952555771 -2273882.952555771 -5484579.024422978 0 0 0 0 0 106574357.5398223 -2250011.356882871 -2250011.356882871 -5458608.760948869 0 0 0 0 0 106329283.6377237 -2197766.960372113 -2197766.960372113 -5315658.553834904 0 0 0 0 0 106331444.3750556 -2052967.586876573 -2052967.586876573 -5181007.895918706 0 0 0 0 0 106306691.0342427 -1922431.188906105 -1922431.188906105 -5047069.981548049 0 0 0 0 0 93346259.50301844 -20611698.25933013 -20611698.25933013 -12921279.52104386 0 0 0 0 0 11169790.26347391 -1532222.195600334 -1532222.195600334 -13945154.75789252 0 0 0 0 0 12890767.43204601 -3768783.470407797 -3768783.470407797 -12559336.62434739 0 0 0 0 0 15167070.43182049 -6077094.723967249 -6077094.723967249 -11750449.80406065 0 0 0 0 0 16711666.62531444 -8421888.780320739 -8421888.780320739 -9585954.563703062 0 0 0 0 0 14305482.56596263 -6170998.169244423 -6170998.169244423 -10864951.9198145 0 0 0 0 0 21557386.63997351 -11303409.55595068 -11303409.55595068 -8674878.620312883 0 0 0 0 0 23573968.60872653 -13666470.88182675 -13666470.88182675 -8384478.802947355 0 0 0 0 0 26097863.46412401 -15804974.98871438 -15804974.98871438 -8243576.681510097 0 0 0 0 0 28772828.46467841 -17815997.03254526 -17815997.03254526 -8195076.207932754 0 0 0 0 0 31645492.82863937 -19672286.37172652 -19672286.37172652 -8241338.181622622 0 0 0 0 0 34684389.9220738 -21363110.2634363 -21363110.2634363 -8375771.024264987 0 0 0 0 0 37856665.67572378 -22879242.19061461 -22879242.19061461 -8590525.708388835 0 0 0 0 0 41132715.755537 -24215899.45782264 -24215899.45782264 -8875888.034680422 0 0 0 0 0 43272418.11547497 -23482177.06161984 -23482177.06161984 -8353935.249777653 0 0 0 0 0 46516137.31609068 -25049116.11664714 -25049116.11664714 -8420839.064708401 0 0 0 0 0 49752249.19386758 -25947451.12926544 -25947451.12926544 -8867092.333020037 0 0 0 0 0 52998956.77669676 -26674915.85328748 -26674915.85328748 -9340503.294254979 0 0 0 0 0 56240620.6388094 -27239092.22485362 -27239092.22485362 -9832635.792606719 0 0 0 0 0 60792900.38151851 -27069658.46508222 -27069658.46508222 -9740542.730429396 0 0 0 0 0 58752425.7712597 -26371720.16392108 -26371720.16392108 -9204337.461711504 0 0 0 0 0 63786915.62994841 -27294940.04764623 -27294940.04764623 -10250892.26753957 0 0 0 0 0 66720518.78948431 -27390436.13339284 -27390436.13339284 -10752965.00008363 0 0 0 0 0 69598031.36565098 -27367623.46851616 -27367623.46851616 -11240047.97452267 0 0 0 0 0 72375110.47861017 -27228227.03328016 -27228227.03328016 -11699745.95251893 0 0 0 0 0 75054558.35571958 -26984329.36718309 -26984329.36718309 -12132425.19184296 0 0 0 0 0 77629610.27789854 -26650850.14515563 -26650850.14515563 -12533263.63667183 0 0 0 0 0 80005257.65370826 -25782527.15183672 -25782527.15183672 -11748269.71865498 0 0 0 0 0 80485125.40391716 -25628846.41848365 -25628846.41848365 -12387338.934215 0 0 0 0 0 82715774.0778565 -25159365.63534729 -25159365.63534729 -12712386.68834464 0 0 0 0 0 84842386.98199882 -24628514.99253902 -24628514.99253902 -12991550.49850085 0 0 0 0 0 86845060.34155801 -24059518.50026632 -24059518.50026632 -13246911.85368472 0 0 0 0 0 88705885.81394199 -23446937.59792473 -23446937.59792473 -13435515.82390439 0 0 0 0 0 90427117.7075468 -22786778.00295764 -22786778.00295764 -13561963.02227635 0 0 0 0 0 92237848.81625377 -22090435.21291034 -22090435.21291034 -12846258.74553483 0 0 0 0 0 91970866.29582345 -21686807.60100831 -21686807.60100831 -13264873.48022275 0 0 0 0 0 93493393.29763198 -21016124.15790548 -21016124.15790548 -13375742.26171093 0 0 0 0 0 94895866.94490075 -19996668.5183746 -19996668.5183746 -12243806.71988337 0 0 0 0 0 96171684.52431142 -19372829.09648268 -19372829.09648268 -12336443.47531811 0 0 0 0 0 97128792.51695099 -18405575.4444871 -18405575.4444871 -12007421.55446786 0 0 0 0 0 95741948.31671928 -18959732.6338844 -18959732.6338844 -12644286.50790806 0 0 0 0 0 98229703.30929734 -17785858.31689065 -17785858.31689065 -12065426.9155795 0 0 0 0 0 99256895.80313951 -17161059.25259057 -17161059.25259057 -12097615.42135178 0 0 0 0 0 100217713.9943446 -16534616.27002422 -16534616.27002422 -12105346.97883644 0 0 0 0 0 101092310.0474062 -15915546.63147908 -15915546.63147908 -12091143.58738874 0 0 0 0 0 101568262.9383866 -15092124.71093665 -15092124.71093665 -11725454.80569098 0 0 0 0 0 100514715.4681358 -15515341.49911003 -15515341.49911003 -12251175.59611236 0 0 0 0 0 102298284.0514912 -14498703.08391391 -14498703.08391391 -11679250.0702895 0 0 0 0 0 102969832.2136229 -13910932.41085708 -13910932.41085708 -11611657.60416047 0 0 0 0 0 103577320.2599717 -13348550.7618415 -13348550.7618415 -11543717.74874257 0 0 0 0 0 104142218.9571938 -12784784.26033109 -12784784.26033109 -11438502.29348541 0 0 0 0 0 104658728.7461116 -12232519.81745465 -12232519.81745465 -11329244.91585275 0 0 0 0 0 104050155.1567912 -11906137.84883361 -11906137.84883361 -11324629.25149164 0 0 0 0 0 105176869.5859946 -11103488.14132019 -11103488.14132019 -10822436.60725787 0 0 0 0 0 104525151.613032 -11378629.48386148 -11378629.48386148 -11180522.05495411 0 0 0 0 0 105564034.749915 -10609277.15103688 -10609277.15103688 -10691559.82307003 0 0 0 0 0 105914238.1586982 -10128026.73644873 -10128026.73644873 -10551681.86473488 0 0 0 0 0 106230168.1745638 -9660348.754434746 -9660348.754434746 -10403605.11929812 0 0 0 0 0 106514140.1453294 -9206584.777640307 -9206584.777640307 -10248664.25358951 0 0 0 0 0 106408991.2438531 -8762671.07595109 -8762671.07595109 -9891164.21560823 0 0 0 0 0 105953088.9379822 -8957822.021072924 -8957822.021072924 -10152338.87112804 0 0 0 0 0 106639182.3725252 -8348042.51590954 -8348042.51590954 -9734807.374044428 0 0 0 0 0 106844264.3896625 -7946458.565350011 -7946458.565350011 -9574043.969757495 0 0 0 0 0 107025343.7714166 -7558503.760905161 -7558503.760905161 -9409628.447544927 0 0 0 0 0 107184044.9311766 -7184374.336589544 -7184374.336589544 -9242477.087873476 0 0 0 0 0 107321781.2850856 -6823605.282763208 -6823605.282763208 -9072123.644721096 0 0 0 0 0 106966214.8814493 -6304317.256877923 -6304317.256877923 -8749950.103095131 0 0 0 0 0 107441550.3934949 -6475224.978662747 -6475224.978662747 -8899189.348516336 0 0 0 0 0 107233874.2079497 -6189002.194530373 -6189002.194530373 -8593941.119104255 0 0 0 0 0 107326190.1370081 -5872323.714030641 -5872323.714030641 -8426821.952032855 0 0 0 0 0 107383619.6630725 -5583225.837454781 -5583225.837454781 -8279431.196439727 0 0 0 0 0 107420404.590359 -5312823.854093957 -5312823.854093957 -8132695.129445259 0 0 0 0 0 107471146.6184691 -5033593.304119176 -5033593.304119176 -7946326.724586395 0 0 0 0 0 107541692.931323 -4746766.332913146 -4746766.332913146 -7771205.3925887 0 0 0 0 0 107151049.7282366 -4617087.962863887 -4617087.962863887 -7592321.359631514 0 0 0 0 0 107294447.8130949 -4561809.137671873 -4561809.137671873 -7523031.782894845 0 0 0 0 0 107315758.4602116 -4308435.507712914 -4308435.507712914 -7350300.039126102 0 0 0 0 0 107332333.5746663 -4065178.419193248 -4065178.419193248 -7187022.328069923 0 0 0 0 0 107342033.9982468 -3839046.008382461 -3839046.008382461 -7032175.117216361 0 0 0 0 0 106996950.688899 -3744746.854315478 -3744746.854315478 -6870416.833720271 0 0 0 0 0 107109312.9885983 -3697279.223175697 -3697279.223175697 -6808511.367489274 0 0 0 0 0 107108642.8883975 -3488343.422791865 -3488343.422791865 -6659319.415123812 0 0 0 0 0 107101295.8602958 -3287608.244824589 -3287608.244824589 -6511497.049576403 0 0 0 0 0 107087653.0526668 -3094903.057202977 -3094903.057202977 -6365231.108161927 0 0 0 0 0 107068252.2006044 -2909982.250613357 -2909982.250613357 -6220568.735145284 0 0 0 0 0 107043500.2104706 -2732643.08241485 -2732643.08241485 -6077656.109419357 0 0 0 0 0 107013684.9508827 -2562880.631798944 -2562880.631798944 -5936560.466998243 0 0 0 0 0 106979694.6646744 -2400720.414287434 -2400720.414287434 -5797316.799423459 0 0 0 0 0 106762542.2347498 -2328141.982371208 -2328141.982371208 -5632288.340810996 0 0 0 0 0 106717388.1668615 -2345011.25318261 -2345011.25318261 -5648691.014724758 0 0 0 0 0 106725857.7073812 -2170331.985038423 -2170331.985038423 -5492800.757851304 0 0 0 0 0 106486429.7660029 -2107289.125017319 -2107289.125017319 -5358478.205047161 0 0 0 0 0 106514947.8299621 -2092652.483794247 -2092652.483794247 -5333086.058566458 0 0 0 0 0 106432671.3785915 -1950166.996524014 -1950166.996524014 -5221662.122512555 0 0 0 0 0 106349533.2687471 -1860735.171282403 -1860735.171282403 -5137061.334277593 0 0 0 0 0 95116144.99316519 -20381011.36686251 -20381011.36686251 -12676090.99576007 0 0 0 0 0 10149375.41150126 -645613.9168246448 -645613.9168246448 -15457288.88824606 0 0 0 0 0 11037435.87087674 -2820799.28773496 -2820799.28773496 -13953422.25812292 0 0 0 0 0 12101769.03767968 -5214426.730877993 -5214426.730877993 -13096841.5214426 0 0 0 0 0 17203734.97635534 -8024339.70395272 -8024339.70395272 -10368295.28303845 0 0 0 0 0 16716765.04441375 -8447650.172365909 -8447650.172365909 -11196525.71478158 0 0 0 0 0 18968196.75914683 -10526527.95053785 -10526527.95053785 -9827026.60886405 0 0 0 0 0 21531305.69943466 -12904270.39889236 -12904270.39889236 -9396264.113271112 0 0 0 0 0 24300911.96638522 -15047019.99761702 -15047019.99761702 -9188661.193859959 0 0 0 0 0 27319039.71098217 -17087354.50861309 -17087354.50861309 -9038130.874666659 0 0 0 0 0 30538634.08837255 -18976745.02564428 -18976745.02564428 -8979006.396654878 0 0 0 0 0 33921938.01742475 -20703424.50257741 -20703424.50257741 -9006841.321888974 0 0 0 0 0 37432319.26106755 -22257187.24295829 -22257187.24295829 -9115087.25604428 0 0 0 0 0 41034155.84231212 -23631101.97414733 -23631101.97414733 -9297408.031511208 0 0 0 0 0 44478304.96107987 -25370622.26450837 -25370622.26450837 -9221291.388195876 0 0 0 0 0 46774365.6827625 -24585446.94593471 -24585446.94593471 -8672501.452254049 0 0 0 0 0 50288872.43153007 -25511878.28088036 -25511878.28088036 -9036888.615702698 0 0 0 0 0 53792784.65994 -26264101.18091203 -26264101.18091203 -9432363.294262571 0 0 0 0 0 57260002.84600877 -26849976.79623408 -26849976.79623408 -9853066.362488478 0 0 0 0 0 61999337.93129187 -26754617.20754968 -26754617.20754968 -9670463.698124219 0 0 0 0 0 59437836.48811024 -27646422.46245272 -27646422.46245272 -10333747.49648932 0 0 0 0 0 65168853.41118205 -26991844.83157454 -26991844.83157454 -10131768.881381 0 0 0 0 0 68253193.51122949 -27095505.71963265 -27095505.71963265 -10588084.97078106 0 0 0 0 0 71239743.31929934 -27078996.8707227 -27078996.8707227 -11038128.12923004 0 0 0 0 0 74122189.3786968 -26946046.02914203 -26946046.02914203 -11470885.71211886 0 0 0 0 0 76896337.11652404 -26704548.3206396 -26704548.3206396 -11876479.84472558 0 0 0 0 0 79558181.24653374 -26372173.01181312 -26372173.01181312 -12257533.27755264 0 0 0 0 0 80080407.8599252 -26232769.71798155 -26232769.71798155 -12894153.01870707 0 0 0 0 0 82396922.54558089 -25378523.24415708 -25378523.24415708 -12100437.68201842 0 0 0 0 0 84660576.04092392 -24908104.36607721 -24908104.36607721 -12419761.97160653 0 0 0 0 0 86772937.3648351 -24376065.73798079 -24376065.73798079 -12701202.50539 0 0 0 0 0 88778544.78082787 -23799278.81264615 -23799278.81264615 -12952222.20879459 0 0 0 0 0 90670866.77448735 -23178838.57445698 -23178838.57445698 -13151978.77637707 0 0 0 0 0 92387996.42260902 -22555214.46742873 -22555214.46742873 -13359855.46354284 0 0 0 0 0 92062790.85153368 -22122532.00591372 -22122532.00591372 -13721929.60235403 0 0 0 0 0 93835924.21669963 -21437288.47934613 -21437288.47934613 -12988083.92281373 0 0 0 0 0 95338355.76486979 -20761816.30570986 -20761816.30570986 -13103917.35528535 0 0 0 0 0 94691909.89937527 -19959159.87232805 -19959159.87232805 -12994142.27607755 0 0 0 0 0 95953149.77786149 -19300521.75608821 -19300521.75608821 -13047812.64744462 0 0 0 0 0 96908326.29661612 -18315598.23282128 -18315598.23282128 -12682706.27108342 0 0 0 0 0 97373796.42063509 -18735421.65375842 -18735421.65375842 -12402247.95287049 0 0 0 0 0 97998909.21068899 -17667883.90577331 -17667883.90577331 -12694838.96892532 0 0 0 0 0 99016793.99025933 -17017237.5547594 -17017237.5547594 -12683237.29168937 0 0 0 0 0 99967057.58675295 -16361605.33864015 -16361605.33864015 -12649050.46754663 0 0 0 0 0 100843519.4290398 -15715964.46569519 -15715964.46569519 -12590756.27678641 0 0 0 0 0 101320480.1096775 -14895044.78076266 -14895044.78076266 -12174728.545332 0 0 0 0 0 101907235.5494598 -15290144.90824416 -15290144.90824416 -12056935.11296544 0 0 0 0 0 102053434.3566862 -14287693.82354891 -14287693.82354891 -12088334.13965489 0 0 0 0 0 102730519.9670407 -13696669.78871978 -13696669.78871978 -11984571.36037597 0 0 0 0 0 103342125.3661769 -13114849.45382803 -13114849.45382803 -11864472.31918794 0 0 0 0 0 103908418.1901267 -12544065.26719202 -12544065.26719202 -11732756.88887036 0 0 0 0 0 104427127.9498123 -11987860.45636307 -11987860.45636307 -11587515.43731761 0 0 0 0 0 105131520.9788164 -11693616.26393516 -11693616.26393516 -11206791.93688861 0 0 0 0 0 104954130.6498974 -10867445.7821062 -10867445.7821062 -11029380.93031177 0 0 0 0 0 105559485.2507945 -11169390.75279412 -11169390.75279412 -11076182.04173649 0 0 0 0 0 105345188.6201002 -10369455.91221765 -10369455.91221765 -10868988.24221466 0 0 0 0 0 105699910.5453957 -9885758.463130012 -9885758.463130012 -10700995.78442061 0 0 0 0 0 106020743.1961553 -9416643.25326314 -9416643.25326314 -10526596.21412955 0 0 0 0 0 106309918.4275434 -8962200.998299219 -8962200.998299219 -10346622.54126685 0 0 0 0 0 106215600.7391312 -8529760.968445653 -8529760.968445653 -9978722.51491431 0 0 0 0 0 106768499.1495369 -8766680.134282541 -8766680.134282541 -10087291.72256931 0 0 0 0 0 106450830.2478876 -8115370.689915025 -8115370.689915025 -9801065.822583735 0 0 0 0 0 106661332.4520111 -7714880.01723946 -7714880.01723946 -9620014.186882438 0 0 0 0 0 106848500.6333292 -7328512.646787633 -7328512.646787633 -9436180.150014739 0 0 0 0 0 107013164.0273159 -6956074.398701022 -6956074.398701022 -9249939.362148209 0 0 0 0 0 107156453.3806572 -6597319.698427113 -6597319.698427113 -9062504.4637146 0 0 0 0 0 107544723.6272031 -6138885.754095765 -6138885.754095765 -8724073.271252032 0 0 0 0 0 107281016.9139042 -6251817.493333671 -6251817.493333671 -8875150.704114178 0 0 0 0 0 107081973.0921323 -5977712.040414358 -5977712.040414358 -8569818.8965078 0 0 0 0 0 107187811.8655331 -5667551.28705376 -5667551.28705376 -8393069.486769279 0 0 0 0 0 107277215.7162483 -5371082.983489154 -5371082.983489154 -8204965.165188377 0 0 0 0 0 107353983.4031427 -5084926.674175967 -5084926.674175967 -8026384.835434162 0 0 0 0 0 107404436.872879 -4802480.607813268 -4802480.607813268 -7850353.22371857 0 0 0 0 0 107420757.5951865 -4531730.009811231 -4531730.009811231 -7676867.887981637 0 0 0 0 0 107560990.5226351 -4479346.416324245 -4479346.416324245 -7610522.217459418 0 0 0 0 0 107182806.8593085 -4362501.085441026 -4362501.085441026 -7419332.388297467 0 0 0 0 0 107202438.0972591 -4122179.350575236 -4122179.350575236 -7264975.979421468 0 0 0 0 0 107229405.2068223 -3884819.63789656 -3884819.63789656 -7086445.908361336 0 0 0 0 0 107239587.435479 -3660480.815436703 -3660480.815436703 -6924897.521919313 0 0 0 0 0 107341211.8242063 -3618786.261878483 -3618786.261878483 -6873720.557585433 0 0 0 0 0 107007013.3816051 -3530780.351034234 -3530780.351034234 -6713365.201716848 0 0 0 0 0 107010178.8277209 -3325176.83765171 -3325176.83765171 -6558102.64644434 0 0 0 0 0 107006578.4429401 -3127811.448786431 -3127811.448786431 -6404690.296466374 0 0 0 0 0 106996667.6279351 -2938474.970296098 -2938474.970296098 -6253229.016013808 0 0 0 0 0 106980926.1651148 -2756934.493361361 -2756934.493361361 -6103821.221779463 0 0 0 0 0 106959899.3756675 -2583055.129474715 -2583055.129474715 -5956313.459102512 0 0 0 0 0 106933738.5701212 -2417049.700216 -2417049.700216 -5810617.259754592 0 0 0 0 0 106903995.8910017 -2259423.201931923 -2259423.201931923 -5665962.59500036 0 0 0 0 0 106684956.4252478 -2188111.577898609 -2188111.577898609 -5517550.759128622 0 0 0 0 0 106946613.2702432 -2246139.854744814 -2246139.854744814 -5660814.597845252 0 0 0 0 0 106628547.3938368 -2036246.758144725 -2036246.758144725 -5385877.405749112 0 0 0 0 0 106757386.7823707 -1970990.48289022 -1970990.48289022 -5283406.609309082 0 0 0 0 0 106519048.6550029 -1913730.128448321 -1913730.128448321 -5164666.172877927 0 0 0 0 0 106497255.8773686 -1787250.700038537 -1787250.700038537 -5017149.37165017 0 0 0 0 0 94897993.34067857 -20325745.68754882 -20325745.68754882 -13432391.3159051 0 0 0 0 0 8462519.19347674 -1668998.809093523 -1668998.809093523 -17125782.33143554 0 0 0 0 0 9933047.638771212 -3556865.809086325 -3556865.809086325 -15409656.31968508 0 0 0 0 0 11985241.79962509 -5590759.723893883 -5590759.723893883 -14274786.63615485 0 0 0 0 0 14098557.59080767 -7859888.999943995 -7859888.999943995 -13470181.90300676 0 0 0 0 0 18290744.48196838 -10907071.50965409 -10907071.50965409 -10534557.82640862 0 0 0 0 0 13858912.25676949 -7641387.036295963 -7641387.036295963 -12436371.68431118 0 0 0 0 0 20947470.7899458 -13257643.39311528 -13257643.39311528 -10132830.24227349 0 0 0 0 0 23347338.42565773 -15480480.38406299 -15480480.38406299 -9832501.417815248 0 0 0 0 0 26088325.82561516 -17588234.36031201 -17588234.36031201 -9642011.773456205 0 0 0 0 0 29034142.64565307 -19546503.58385335 -19546503.58385335 -9553051.512830827 0 0 0 0 0 32164304.72306293 -21339470.88337069 -21339470.88337069 -9564122.011651244 0 0 0 0 0 35447663.3753065 -22955722.35063189 -22955722.35063189 -9667948.385886032 0 0 0 0 0 38848791.91707768 -24387111.46767128 -24387111.46767128 -9855270.973523056 0 0 0 0 0 42335266.37584132 -25629569.35204336 -25629569.35204336 -10116060.30182549 0 0 0 0 0 44693073.29758443 -24821076.03949331 -24821076.03949331 -9543034.686773539 0 0 0 0 0 47858570.47336992 -26342166.02391375 -26342166.02391375 -9616080.557551 0 0 0 0 0 51255697.82994564 -27132560.64579798 -27132560.64579798 -10043045.86547358 0 0 0 0 0 54645158.22146437 -27748022.16431399 -27748022.16431399 -10496019.61340221 0 0 0 0 0 58007115.32419226 -28197148.58414291 -28197148.58414291 -10966947.67786227 0 0 0 0 0 62578613.12365182 -27900032.45644697 -27900032.45644697 -10827244.52373207 0 0 0 0 0 60678143.4342563 -27275386.36036531 -27275386.36036531 -10288549.61348955 0 0 0 0 0 65650639.30057837 -28012801.72061825 -28012801.72061825 -11314241.52313549 0 0 0 0 0 68650768.65055312 -27997841.94950034 -27997841.94950034 -11786865.59680432 0 0 0 0 0 71561255.98773174 -27863379.03746036 -27863379.03746036 -12237929.45047835 0 0 0 0 0 74371370.47056337 -27617408.9363023 -27617408.9363023 -12658870.14011478 0 0 0 0 0 77077571.73190574 -27271033.13169148 -27271033.13169148 -13053970.09925569 0 0 0 0 0 79657280.91966778 -26841366.5803713 -26841366.5803713 -13414383.69943056 0 0 0 0 0 82079432.78079012 -25953670.6565447 -25953670.6565447 -12605611.03586226 0 0 0 0 0 82415405.56620196 -25742306.68348587 -25742306.68348587 -13212690.63667285 0 0 0 0 0 84624689.96062957 -25188007.92164683 -25188007.92164683 -13481287.05514614 0 0 0 0 0 86714735.08879617 -24596561.20457936 -24596561.20457936 -13727569.55525855 0 0 0 0 0 88675864.54881369 -23947349.93138957 -23947349.93138957 -13926568.22507988 0 0 0 0 0 90521146.97030139 -23263406.99905944 -23263406.99905944 -14080541.61420465 0 0 0 0 0 92186176.32488889 -22551010.16872092 -22551010.16872092 -14170323.63082333 0 0 0 0 0 94002158.42434369 -21853195.77475772 -21853195.77475772 -13440150.03918467 0 0 0 0 0 93635355.49847633 -21424208.02206079 -21424208.02206079 -13824161.47764266 0 0 0 0 0 95114201.52821918 -20700626.71016569 -20700626.71016569 -13887229.55686191 0 0 0 0 0 96429715.67091173 -19730172.61234773 -19730172.61234773 -12765311.11937541 0 0 0 0 0 97652236.19177984 -19063867.73153503 -19063867.73153503 -12822923.70188159 0 0 0 0 0 98506853.96256904 -18090067.54446632 -18090067.54446632 -12454007.81427548 0 0 0 0 0 97143832.181385 -18634750.16084064 -18634750.16084064 -13083854.02953427 0 0 0 0 0 99556921.36161856 -17439907.52682587 -17439907.52682587 -12477403.85730995 0 0 0 0 0 100533928.9426192 -16786054.7429164 -16786054.7429164 -12473252.97313903 0 0 0 0 0 101456202.0354658 -16123003.29307423 -16123003.29307423 -12442099.36916375 0 0 0 0 0 102295166.6036155 -15473504.14835194 -15473504.14835194 -12401524.56745082 0 0 0 0 0 102667925.7623816 -14672298.83282519 -14672298.83282519 -12002904.56360565 0 0 0 0 0 101650738.1668442 -15082830.78701131 -15082830.78701131 -12515190.66839678 0 0 0 0 0 103352025.4161001 -14061071.46673623 -14061071.46673623 -11926497.68604937 0 0 0 0 0 103973107.8677711 -13474010.99146982 -13474010.99146982 -11842289.15547572 0 0 0 0 0 104547882.5287934 -12887805.90804916 -12887805.90804916 -11729326.35373261 0 0 0 0 0 105069377.1487431 -12318132.48875823 -12318132.48875823 -11608892.89853111 0 0 0 0 0 105538232.9276581 -11765822.59342302 -11765822.59342302 -11478436.48576435 0 0 0 0 0 104898709.434845 -11447213.49478177 -11447213.49478177 -11434855.45317792 0 0 0 0 0 105947753.6279258 -10659461.18403968 -10659461.18403968 -10933335.46094247 0 0 0 0 0 105329951.8714446 -10919902.49473833 -10919902.49473833 -11271383.90281704 0 0 0 0 0 106297171.5430007 -10163215.15543969 -10163215.15543969 -10781694.46861477 0 0 0 0 0 106611039.6147996 -9681586.161397437 -9681586.161397437 -10622125.13229594 0 0 0 0 0 106892107.7711778 -9214789.819288051 -9214789.819288051 -10455616.7243062 0 0 0 0 0 107142540.5993757 -8762821.44845546 -8762821.44845546 -10283095.49016574 0 0 0 0 0 106994935.1737773 -8340896.75041827 -8340896.75041827 -9920713.481432917 0 0 0 0 0 106569558.335523 -8522457.049169747 -8522457.049169747 -10162015.09995889 0 0 0 0 0 107195430.575075 -7929129.217789934 -7929129.217789934 -9749551.962123431 0 0 0 0 0 107371745.5801835 -7531425.358265158 -7531425.358265158 -9574829.130138865 0 0 0 0 0 107524925.8513569 -7148008.341900259 -7148008.341900259 -9397317.891739953 0 0 0 0 0 107657067.2717485 -6779028.830215554 -6779028.830215554 -9217696.554359937 0 0 0 0 0 107769542.7546145 -6423652.647498099 -6423652.647498099 -9036034.726989552 0 0 0 0 0 107389224.5683291 -5918672.601010082 -5918672.601010082 -8686521.912682416 0 0 0 0 0 107865627.2122393 -6080767.725894275 -6080767.725894275 -8851849.051843885 0 0 0 0 0 107631587.3593102 -5815185.796107903 -5815185.796107903 -8548862.675239261 0 0 0 0 0 107700564.5403772 -5505790.855628585 -5505790.855628585 -8372512.217990588 0 0 0 0 0 107745293.1751863 -5214943.439442494 -5214943.439442494 -8208093.057886412 0 0 0 0 0 107795899.478975 -4925077.390270494 -4925077.390270494 -8034371.046350307 0 0 0 0 0 107820229.7077846 -4652974.610248976 -4652974.610248976 -7857358.525337029 0 0 0 0 0 107850241.5339627 -4384397.623500086 -4384397.623500086 -7675160.099843299 0 0 0 0 0 107463637.5980333 -4269176.845473984 -4269176.845473984 -7486448.51561756 0 0 0 0 0 107574035.19465 -4227241.944130574 -4227241.944130574 -7438485.919446641 0 0 0 0 0 107593699.2184653 -3979518.03680965 -3979518.03680965 -7257054.925821011 0 0 0 0 0 107585431.751798 -3748241.699043603 -3748241.699043603 -7102406.339030033 0 0 0 0 0 107577996.0800583 -3533343.531757791 -3533343.531757791 -6940255.607000502 0 0 0 0 0 107237948.5649829 -3447524.738194709 -3447524.738194709 -6767047.673110458 0 0 0 0 0 107334802.2694746 -3407880.242021618 -3407880.242021618 -6718626.077158359 0 0 0 0 0 107321476.2327716 -3205175.723498502 -3205175.723498502 -6565313.806303726 0 0 0 0 0 107301976.5390954 -3010701.389020565 -3010701.389020565 -6413754.46578871 0 0 0 0 0 107276750.6105341 -2824212.019432824 -2824212.019432824 -6264046.428133715 0 0 0 0 0 107246347.0507491 -2645451.58710023 -2645451.58710023 -6116258.666246444 0 0 0 0 0 107210900.0439072 -2474368.066606885 -2474368.066606885 -5970663.584187086 0 0 0 0 0 107170488.4148878 -2310601.912767695 -2310601.912767695 -5826783.917209753 0 0 0 0 0 107125734.0326041 -2154543.870915185 -2154543.870915185 -5684370.890578163 0 0 0 0 0 106905529.258115 -2093847.26922429 -2093847.26922429 -5527411.82805631 0 0 0 0 0 106869601.1518226 -2104573.826979029 -2104573.826979029 -5530644.052677761 0 0 0 0 0 106833259.917045 -1950829.929594308 -1950829.929594308 -5399135.547519088 0 0 0 0 0 106616988.8959354 -1904614.890570583 -1904614.890570583 -5345641.287517997 0 0 0 0 0 106603430.3131228 -1820121.921314263 -1820121.921314263 -5231053.390097883 0 0 0 0 0 106512470.1419411 -1727801.768952213 -1727801.768952213 -5116867.781321025 0 0 0 0 0 96705556.84947337 -20078060.5839078 -20078060.5839078 -13201595.31595659 0 0 0 0 0 7327809.961278466 -590071.0906363619 -590071.0906363619 -18923214.76142044 0 0 0 0 0 8577001.806415172 -2625892.402662572 -2625892.402662572 -16944613.77077274 0 0 0 0 0 9706698.603451876 -4537453.975565625 -4537453.975565625 -15814955.63180401 0 0 0 0 0 11190947.83708674 -6839978.577962836 -6839978.577962836 -14875522.86618403 0 0 0 0 0 16105000.23081137 -10006871.79037685 -10006871.79037685 -11738126.40328621 0 0 0 0 0 16033019.67732736 -10320392.42914767 -10320392.42914767 -12758686.15933 0 0 0 0 0 18637393.34219331 -12329977.62184256 -12329977.62184256 -11331683.81339207 0 0 0 0 0 21444914.62851354 -14600783.34168049 -14600783.34168049 -10885692.00550258 0 0 0 0 0 24513662.74268917 -16730525.40676202 -16730525.40676202 -10601737.32241724 0 0 0 0 0 27811427.69860311 -18723631.52074344 -18723631.52074344 -10405115.02544475 0 0 0 0 0 31299884.19685074 -20556750.87853436 -20556750.87853436 -10303097.44416932 0 0 0 0 0 34936460.07569116 -22216502.4864483 -22216502.4864483 -10293092.76611101 0 0 0 0 0 38679530.27271558 -23692420.49799171 -23692420.49799171 -10368376.66874825 0 0 0 0 0 42494945.71292584 -24978571.66094782 -24978571.66094782 -10520804.02856654 0 0 0 0 0 45871669.35020967 -26681453.4515569 -26681453.4515569 -10438322.26519852 0 0 0 0 0 48374781.71266893 -25826368.30878639 -25826368.30878639 -9841868.24818016 0 0 0 0 0 52044040.66488285 -26648355.39841519 -26648355.39841519 -10185807.35848152 0 0 0 0 0 55681483.37867431 -27291868.88937725 -27291868.88937725 -10560542.42336121 0 0 0 0 0 59267406.65266653 -27765448.9365952 -27765448.9365952 -10959394.35389274 0 0 0 0 0 64010480.47272877 -27546275.59756076 -27546275.59756076 -10732105.07591114 0 0 0 0 0 61305381.35024332 -28486879.51313341 -28486879.51313341 -11442722.40503257 0 0 0 0 0 67251539.46644461 -27672391.39753885 -27672391.39753885 -11167462.73113046 0 0 0 0 0 70384819.36419033 -27666992.11330365 -27666992.11330365 -11597294.16856284 0 0 0 0 0 73402577.74436091 -27541043.29131356 -27541043.29131356 -12014539.50364434 0 0 0 0 0 76297220.17143181 -27303290.66027571 -27303290.66027571 -12410291.82455093 0 0 0 0 0 79070314.36547165 -26959968.24593019 -26959968.24593019 -12778233.02800978 0 0 0 0 0 81729792.78256457 -26530723.27639809 -26530723.27639809 -13123789.87210003 0 0 0 0 0 82103856.64405268 -26327481.90950197 -26327481.90950197 -13725318.23110391 0 0 0 0 0 84444883.29990518 -25462499.02410627 -25462499.02410627 -12917487.30265773 0 0 0 0 0 86656533.14297594 -24911345.10467764 -24911345.10467764 -13196945.0898373 0 0 0 0 0 88744782.3785443 -24308861.7625625 -24308861.7625625 -13426509.86917244 0 0 0 0 0 90715682.60695791 -23662934.64719662 -23662934.64719662 -13633250.81576047 0 0 0 0 0 92545756.30375567 -22988068.78959595 -22988068.78959595 -13810486.96400549 0 0 0 0 0 94252321.90097323 -22273649.29011649 -22273649.29011649 -13930597.97991242 0 0 0 0 0 93794757.74661265 -21835037.20214161 -21835037.20214161 -14287201.4644268 0 0 0 0 0 95570156.90049873 -21152492.15300538 -21152492.15300538 -13547598.058402 0 0 0 0 0 96989227.14947987 -20427295.28171845 -20427295.28171845 -13620779.81861284 0 0 0 0 0 96198067.72098461 -19637315.96054174 -19637315.96054174 -13471949.49552703 0 0 0 0 0 97412858.7767283 -18944132.32570827 -18944132.32570827 -13483752.23525913 0 0 0 0 0 98265800.65173011 -17958247.32506586 -17958247.32506586 -13083195.0029853 0 0 0 0 0 98804292.75724645 -18390831.99145381 -18390831.99145381 -12849182.99786586 0 0 0 0 0 99306797.99702951 -17280873.83559722 -17280873.83559722 -13057287.16695659 0 0 0 0 0 100272170.705836 -16602064.05565719 -16602064.05565719 -13013791.89423971 0 0 0 0 0 101190883.3764311 -15929933.41606363 -15929933.41606363 -12946339.95294876 0 0 0 0 0 102035569.6332238 -15257643.93483951 -15257643.93483951 -12848640.01861683 0 0 0 0 0 102411745.6671391 -14447980.14086731 -14447980.14086731 -12408155.51250218 0 0 0 0 0 103058282.7746345 -14841116.11902384 -14841116.11902384 -12333189.16855126 0 0 0 0 0 103100700.4712125 -13833755.36115913 -13833755.36115913 -12292887.39125735 0 0 0 0 0 103721811.9097141 -13228755.16339075 -13228755.16339075 -12160569.84147567 0 0 0 0 0 104298082.0287868 -12639805.39234123 -12639805.39234123 -12016208.25471561 0 0 0 0 0 104823889.6548128 -12064888.01756434 -12064888.01756434 -11858263.01908387 0 0 0 0 0 105299069.9773847 -11505983.63956757 -11505983.63956757 -11687997.82653107 0 0 0 0 0 105962955.5499969 -11227453.70575714 -11227453.70575714 -11332418.16784697 0 0 0 0 0 105721738.6008792 -10406289.30281404 -10406289.30281404 -11098445.30809464 0 0 0 0 0 106349233.4290548 -10701544.71539 -10701544.71539 -11176706.0349841 0 0 0 0 0 106076104.908375 -9907922.921986731 -9907922.921986731 -10918012.9991539 0 0 0 0 0 106395329.9113009 -9425268.529576262 -9425268.529576262 -10731443.26430985 0 0 0 0 0 106681943.8305792 -8958145.858424457 -8958145.858424457 -10539495.71746933 0 0 0 0 0 106938069.0249203 -8506688.789112655 -8506688.789112655 -10343189.52988721 0 0 0 0 0 106801581.4498081 -8097309.265450207 -8097309.265450207 -9973307.993970413 0 0 0 0 0 107364564.3653079 -8325726.399602167 -8325726.399602167 -10105407.18351531 0 0 0 0 0 107007671.3980977 -7686889.067617901 -7686889.067617901 -9781621.000287117 0 0 0 0 0 107189865.3682512 -7291108.118547056 -7291108.118547056 -9587455.684054693 0 0 0 0 0 107349698.2442114 -6909922.174996331 -6909922.174996331 -9390961.000447508 0 0 0 0 0 107487897.1304679 -6543394.907727613 -6543394.907727613 -9193998.603527697 0 0 0 0 0 107606624.7605767 -6190651.086830373 -6190651.086830373 -8996227.405047314 0 0 0 0 0 107945434.3702875 -5750997.958224318 -5750997.958224318 -8667489.491692955 0 0 0 0 0 107707394.8590846 -5851710.741196719 -5851710.741196719 -8799124.932970792 0 0 0 0 0 107482388.9751344 -5599109.361052454 -5599109.361052454 -8497042.916434458 0 0 0 0 0 107562067.1232252 -5290386.326710739 -5290386.326710739 -8308176.096322073 0 0 0 0 0 107627928.0751254 -4991449.352770091 -4991449.352770091 -8120820.314177001 0 0 0 0 0 107677109.2031114 -4711654.092496509 -4711654.092496509 -7933230.089030255 0 0 0 0 0 107720510.2725042 -4437559.884514687 -4437559.884514687 -7747400.067451243 0 0 0 0 0 107731082.9304909 -4177025.227255249 -4177025.227255249 -7559782.324152917 0 0 0 0 0 107849530.9126458 -4131612.508119986 -4131612.508119986 -7511693.409868311 0 0 0 0 0 107471232.1112987 -4031770.673682257 -4031770.673682257 -7324199.767801005 0 0 0 0 0 107485790.9554804 -3792107.162263213 -3792107.162263213 -7160625.12533534 0 0 0 0 0 107502788.18064 -3558692.740905248 -3558692.740905248 -6957695.813284812 0 0 0 0 0 107478459.3773123 -3355859.673996423 -3355859.673996423 -6813434.519403295 0 0 0 0 0 107565918.7024056 -3321308.634946476 -3321308.634946476 -6774503.555763602 0 0 0 0 0 107235297.6639735 -3239867.325633379 -3239867.325633379 -6606145.435609693 0 0 0 0 0 107225843.9277183 -3040728.113438837 -3040728.113438837 -6447416.517356101 0 0 0 0 0 107210106.6139258 -2849828.022328719 -2849828.022328719 -6290932.842247915 0 0 0 0 0 107188598.2375125 -2666930.172884341 -2666930.172884341 -6136770.523142621 0 0 0 0 0 107161788.7087766 -2491822.431330012 -2491822.431330012 -5984954.532451415 0 0 0 0 0 107129979.6504301 -2324236.925180328 -2324236.925180328 -5835601.989263801 0 0 0 0 0 107093388.1087884 -2164518.254398301 -2164518.254398301 -5687670.021670086 0 0 0 0 0 107052895.1737601 -2015473.273545505 -2015473.273545505 -5539328.901255838 0 0 0 0 0 106833069.7131672 -1947444.304482063 -1947444.304482063 -5387633.207340473 0 0 0 0 0 107096725.6077079 -2002667.687919255 -2002667.687919255 -5540397.670184952 0 0 0 0 0 106859475.6041791 -1794428.422486811 -1794428.422486811 -5176195.954591176 0 0 0 0 0 106771135.031565 -1739941.860830036 -1739941.860830036 -5105966.554248447 0 0 0 0 0 106669191.1007538 -1650774.3176427 -1650774.3176427 -4994198.115336677 0 0 0 0 0 96470063.77625802 -19978519.45075415 -19978519.45075415 -13904075.75125363 0 0 0 0 0 5919198.332492592 -1729439.107416414 -1729439.107416414 -20859226.79750629 0 0 0 0 0 6948003.782377793 -3548698.156292752 -3548698.156292752 -18717318.71747948 0 0 0 0 0 9488613.707449902 -4980624.330365764 -4980624.330365764 -17318517.74204572 0 0 0 0 0 11074993.68881936 -7216368.272723373 -7216368.272723373 -16358762.4982578 0 0 0 0 0 13123340.32339753 -9628947.998810859 -9628947.998810859 -15456906.6273216 0 0 0 0 0 18066113.36435794 -12709894.68148542 -12709894.68148542 -12177913.15970764 0 0 0 0 0 13225353.7725796 -9261548.697600385 -9261548.697600385 -14150113.27672486 0 0 0 0 0 20578303.18862602 -15054181.29884194 -15054181.29884194 -11700734.4848248 0 0 0 0 0 23316643.37419693 -17254892.43254713 -17254892.43254713 -11333481.15696868 0 0 0 0 0 26326597.9655487 -19313631.85296545 -19313631.85296545 -11079059.48018861 0 0 0 0 0 29544933.8718152 -21211726.80670945 -21211726.80670945 -10936442.23983439 0 0 0 0 0 32933666.43523839 -22934009.72518739 -22934009.72518739 -10900718.42799856 0 0 0 0 0 36458758.30399145 -24468491.01615018 -24468491.01615018 -10965090.51518007 0 0 0 0 0 40084704.15462895 -25808000.7505234 -25808000.7505234 -11118214.12723323 0 0 0 0 0 43775438.70266192 -26950132.35137683 -26950132.35137683 -11348217.63029123 0 0 0 0 0 46342611.45856991 -26071925.38166214 -26071925.38166214 -10739781.75264313 0 0 0 0 0 49423474.57412776 -27543426.64306584 -27543426.64306584 -10808271.47153106 0 0 0 0 0 52972164.57519142 -28219537.35942039 -28219537.35942039 -11211099.97523491 0 0 0 0 0 56494508.42966853 -28718310.59336358 -28718310.59336358 -11640708.61967139 0 0 0 0 0 59967360.58130539 -29048330.33058181 -29048330.33058181 -12083092.89429389 0 0 0 0 0 64528007.2201247 -28624141.90395019 -28624141.90395019 -11908215.99904261 0 0 0 0 0 62775968.26173704 -28075149.34839988 -28075149.34839988 -11369951.41608377 0 0 0 0 0 67671214.96047801 -28623524.62702921 -28623524.62702921 -12363741.80090769 0 0 0 0 0 70719514.90879191 -28494630.16530675 -28494630.16530675 -12798842.41674176 0 0 0 0 0 73656048.76355323 -28247826.13470981 -28247826.13470981 -13208707.61234532 0 0 0 0 0 76478522.86925496 -27895298.53773685 -27895298.53773685 -13588506.24362887 0 0 0 0 0 79201942.98485294 -27451592.68568267 -27451592.68568267 -13942531.94517212 0 0 0 0 0 81775266.61315386 -26920132.90930318 -26920132.90930318 -14245269.58117585 0 0 0 0 0 84211501.14526598 -26018798.4223792 -26018798.4223792 -13430646.61980553 0 0 0 0 0 84418788.97003645 -25754126.73875748 -25754126.73875748 -13990633.34201714 0 0 0 0 0 86584132.7336203 -25127442.93996066 -25127442.93996066 -14221709.87577584 0 0 0 0 0 88627507.96091741 -24452949.0394237 -24452949.0394237 -14422197.71269279 0 0 0 0 0 90560978.86804794 -23741409.65741852 -23741409.65741852 -14575229.8117515 0 0 0 0 0 92347828.63481586 -22996422.11133388 -22996422.11133388 -14684599.42495077 0 0 0 0 0 94019636.15732285 -22221196.67479168 -22221196.67479168 -14740930.87049446 0 0 0 0 0 95829822.76091114 -21537316.82766246 -21537316.82766246 -14005891.92541102 0 0 0 0 0 95330840.49747558 -21069537.57617131 -21069537.57617131 -14320636.74225661 0 0 0 0 0 96741940.17147119 -20318880.98293575 -20318880.98293575 -14352546.4878777 0 0 0 0 0 97964446.06929545 -19384386.05345909 -19384386.05345909 -13245888.02091817 0 0 0 0 0 99136517.55275112 -18687835.13089524 -18687835.13089524 -13263945.54576714 0 0 0 0 0 99884210.83149719 -17713862.12907133 -17713862.12907133 -12862307.16841736 0 0 0 0 0 98553674.42471717 -18246289.37059421 -18246289.37059421 -13479665.86893724 0 0 0 0 0 100883650.5825693 -17034606.4186938 -17034606.4186938 -12847719.43201268 0 0 0 0 0 101817406.9668891 -16352141.56890276 -16352141.56890276 -12805102.77656503 0 0 0 0 0 102681053.0200246 -15675885.55525709 -15675885.55525709 -12744510.59327339 0 0 0 0 0 103467125.6804448 -15003212.10742599 -15003212.10742599 -12670738.19848913 0 0 0 0 0 103751109.6838223 -14210920.76653874 -14210920.76653874 -12249625.5599171 0 0 0 0 0 102791550.7251734 -14604764.27854242 -14604764.27854242 -12732803.71978356 0 0 0 0 0 104383136.7561685 -13597779.57556704 -13597779.57556704 -12147058.24912069 0 0 0 0 0 104961786.0003314 -12993328.10972907 -12993328.10972907 -12025078.24431586 0 0 0 0 0 105486657.8065248 -12405653.61430988 -12405653.61430988 -11890779.96286966 0 0 0 0 0 105960086.6687337 -11832912.89233569 -11832912.89233569 -11745458.01099103 0 0 0 0 0 106384933.8356596 -11276764.02513845 -11276764.02513845 -11589309.83203883 0 0 0 0 0 105726283.8400555 -10962868.03596607 -10962868.03596607 -11512337.2260524 0 0 0 0 0 106696789.2663733 -10190276.80760952 -10190276.80760952 -11012232.53748981 0 0 0 0 0 106117061.542039 -10433819.59138335 -10433819.59138335 -11326302.10872701 0 0 0 0 0 107008055.5179205 -9694509.846195312 -9694509.846195312 -10840325.32761984 0 0 0 0 0 107285729.0417452 -9214586.262856422 -9214586.262856422 -10661833.65506662 0 0 0 0 0 107531581.2650556 -8750382.308653537 -8750382.308653537 -10477631.95942651 0 0 0 0 0 107748230.567018 -8302029.413740833 -8302029.413740833 -10288507.53996419 0 0 0 0 0 107559901.0525443 -7903602.291230807 -7903602.291230807 -9923618.116093496 0 0 0 0 0 107165805.5074045 -8070795.137541058 -8070795.137541058 -10143279.58879571 0 0 0 0 0 107730432.3352332 -7496257.317141489 -7496257.317141489 -9738208.275353437 0 0 0 0 0 107877949.4795725 -7103717.672132782 -7103717.672132782 -9550071.365111858 0 0 0 0 0 108003187.5322087 -6726274.85583483 -6726274.85583483 -9360601.523591395 0 0 0 0 0 108109365.1321024 -6363243.107344504 -6363243.107344504 -9168886.005299471 0 0 0 0 0 108197245.417944 -6014249.893837481 -6014249.893837481 -8976374.664545275 0 0 0 0 0 107792575.6330539 -5525692.952594911 -5525692.952594911 -8601622.019039625 0 0 0 0 0 108269052.8337243 -5678646.4076749 -5678646.4076749 -8782685.231851807 0 0 0 0 0 108008718.9675094 -5434488.702594895 -5434488.702594895 -8483060.508678228 0 0 0 0 0 108057350.5540367 -5129774.762109424 -5129774.762109424 -8298912.41714961 0 0 0 0 0 108096593.1512207 -4834540.910130073 -4834540.910130073 -8115407.251371087 0 0 0 0 0 108122108.8485484 -4555749.106136983 -4555749.106136983 -7931807.849048579 0 0 0 0 0 108137797.0651298 -4285927.746132707 -4285927.746132707 -7750522.8330057 0 0 0 0 0 108135250.4130752 -4033755.896938868 -4033755.896938868 -7570875.312282151 0 0 0 0 0 107747437.8844959 -3931428.09768859 -3931428.09768859 -7381142.7692932 0 0 0 0 0 107855473.893942 -3887041.471832564 -3887041.471832564 -7329123.188434776 0 0 0 0 0 107860953.9735749 -3644886.78042875 -3644886.78042875 -7149353.212876275 0 0 0 0 0 107816544.3482689 -3434909.293934851 -3434909.293934851 -7011483.026644706 0 0 0 0 0 107799678.8662296 -3227103.199819196 -3227103.199819196 -6829407.175112768 0 0 0 0 0 107465714.2056942 -3148309.303562033 -3148309.303562033 -6649737.260959027 0 0 0 0 0 107546406.2927645 -3116852.229186453 -3116852.229186453 -6615444.678719534 0 0 0 0 0 107520757.5835034 -2920826.11894497 -2920826.11894497 -6458470.10660742 0 0 0 0 0 107489436.4585397 -2732992.684668334 -2732992.684668334 -6303635.25976978 0 0 0 0 0 107452963.4128268 -2553109.092918675 -2553109.092918675 -6151033.049040688 0 0 0 0 0 107411736.6733349 -2380987.259994478 -2380987.259994478 -6000790.35875092 0 0 0 0 0 107366264.164661 -2216332.196981986 -2216332.196981986 -5852952.6850957 0 0 0 0 0 107314981.7195465 -2058958.467969011 -2058958.467969011 -5707609.502292815 0 0 0 0 0 107257092.6176941 -1911939.988305594 -1911939.988305594 -5567233.112076125 0 0 0 0 0 107063472.8738705 -1830815.477318909 -1830815.477318909 -5382175.872966564 0 0 0 0 0 106994238.6966344 -1867192.577940855 -1867192.577940855 -5431218.694581931 0 0 0 0 0 106862774.5085624 -1734833.914345872 -1734833.914345872 -5295802.325247578 0 0 0 0 0 106747523.3488515 -1680356.74475798 -1680356.74475798 -5218709.055362543 0 0 0 0 0 106677311.7014323 -1590041.985279447 -1590041.985279447 -5082076.334696845 0 0 0 0 0 98305537.76244669 -19705229.06357722 -19705229.06357722 -13673179.41205436 0 0 0 0 0 4655862.667715658 -394617.7473100424 -394617.7473100424 -22778154.58246883 0 0 0 0 0 8136467.744650923 -3648653.787203917 -3648653.787203917 -20378898.54837869 0 0 0 0 0 6678087.471704598 -3922627.047168782 -3922627.047168782 -18876862.4104488 0 0 0 0 0 8414325.782994404 -6054989.609682208 -6054989.609682208 -17871168.62895772 0 0 0 0 0 10300331.53877498 -8388608.529010525 -8388608.529010525 -16975716.2214262 0 0 0 0 0 15703779.3697572 -11690769.29289377 -11690769.29289377 -13435804.25935994 0 0 0 0 0 15244608.01551267 -12127769.20541416 -12127769.20541416 -14628257.05519216 0 0 0 0 0 18512518.06022107 -14015812.19697084 -14015812.19697084 -12900841.67839527 0 0 0 0 0 21621126.59631365 -16247139.2197711 -16247139.2197711 -12424404.86691661 0 0 0 0 0 24984888.8196669 -18341288.16011299 -18341288.16011299 -12061165.47454598 0 0 0 0 0 28564359.04393456 -20284676.42913384 -20284676.42913384 -11801128.91834731 0 0 0 0 0 32316437.4241163 -22057055.95789685 -22057055.95789685 -11644854.82912346 0 0 0 0 0 36200707.32988824 -23643977.29091877 -23643977.29091877 -11588075.54515336 0 0 0 0 0 40171358.81343672 -25036349.12974114 -25036349.12974114 -11622560.18150441 0 0 0 0 0 44190888.45151909 -26228711.48066003 -26228711.48066003 -11738675.65187518 0 0 0 0 0 47494898.22031672 -27892907.61604352 -27892907.61604352 -11640453.56911866 0 0 0 0 0 50187661.39388534 -26971964.40647756 -26971964.40647756 -11013054.50136796 0 0 0 0 0 54006073.06173474 -27684132.20439534 -27684132.20439534 -11330678.11059173 0 0 0 0 0 57773156.70049816 -28214396.06682649 -28214396.06682649 -11678557.70080761 0 0 0 0 0 61461735.94457314 -28571638.79650924 -28571638.79650924 -12049167.71524794 0 0 0 0 0 66188006.49030461 -28232208.57835012 -28232208.57835012 -11782886.05280285 0 0 0 0 0 63352713.74428862 -29215357.59375584 -29215357.59375584 -12527784.6697071 0 0 0 0 0 69482793.60460506 -28244548.36434701 -28244548.36434701 -12190717.43466237 0 0 0 0 0 72651667.32813358 -28127711.31002786 -28127711.31002786 -12588183.87115848 0 0 0 0 0 75686684.69364759 -27891454.27544437 -27891454.27544437 -12967972.62659351 0 0 0 0 0 78580912.85015433 -27546391.37077565 -27546391.37077565 -13321664.69546847 0 0 0 0 0 81339505.31600459 -27104548.40445167 -27104548.40445167 -13648605.56283075 0 0 0 0 0 83957737.83234268 -26578198.2179785 -26578198.2179785 -13953235.73799991 0 0 0 0 0 84202995.63649774 -26323060.1932922 -26323060.1932922 -14506757.07075379 0 0 0 0 0 86533994.46717507 -25450275.16136401 -25450275.16136401 -13704577.1151494 0 0 0 0 0 88717334.88374907 -24819902.23591202 -24819902.23591202 -13925098.49300766 0 0 0 0 0 90774716.81172618 -24143555.80332499 -24143555.80332499 -14114691.56278373 0 0 0 0 0 92695366.80132872 -23435567.80791819 -23435567.80791819 -14280235.28000628 0 0 0 0 0 94473642.43908723 -22686978.19940083 -22686978.19940083 -14395637.52620345 0 0 0 0 0 96129741.80196984 -21906499.25782149 -21906499.25782149 -14469405.94221682 0 0 0 0 0 95576842.56939541 -21431220.98039793 -21431220.98039793 -14760132.35822916 0 0 0 0 0 97282482.2521755 -20781849.80804047 -20781849.80804047 -14060340.0768229 0 0 0 0 0 98653225.45456865 -20020458.67900068 -20020458.67900068 -14091196.69989511 0 0 0 0 0 97718042.92707403 -19251705.04680464 -19251705.04680464 -13898552.04454394 0 0 0 0 0 98879484.76895992 -18523908.94964531 -18523908.94964531 -13871062.76053502 0 0 0 0 0 99623959.62005898 -17540757.2270283 -17540757.2270283 -13440434.02242626 0 0 0 0 0 100234066.6778174 -17984429.55679296 -17984429.55679296 -13251851.56033915 0 0 0 0 0 100615111.2097693 -16836303.07586995 -16836303.07586995 -13379806.87627741 0 0 0 0 0 101542314.0332236 -16136942.96367402 -16136942.96367402 -13301464.06069078 0 0 0 0 0 102398002.4732971 -15437580.64457951 -15437580.64457951 -13193640.2527844 0 0 0 0 0 103194600.930429 -14756248.82819 -14756248.82819 -13060290.9898734 0 0 0 0 0 103488658.34964 -13966185.16762952 -13966185.16762952 -12602815.37448471 0 0 0 0 0 104170904.0251398 -14356511.27245706 -14356511.27245706 -12572302.72228924 0 0 0 0 0 104121196.86301 -13340478.2510533 -13340478.2510533 -12457340.96269197 0 0 0 0 0 104704042.055648 -12730154.87737833 -12730154.87737833 -12298066.45913013 0 0 0 0 0 105232105.0165586 -12135482.20163732 -12135482.20163732 -12127123.30297571 0 0 0 0 0 105711164.8193029 -11557204.10021358 -11557204.10021358 -11944218.14927988 0 0 0 0 0 106142566.9900723 -10995934.471887 -10995934.471887 -11751501.74598555 0 0 0 0 0 106769635.4629626 -10734583.0803754 -10734583.0803754 -11419043.95043338 0 0 0 0 0 106469347.9710394 -9921187.657242281 -9921187.657242281 -11133431.6289501 0 0 0 0 0 107114308.8734196 -10208234.57435357 -10208234.57435357 -11242291.85994318 0 0 0 0 0 106786016.2193864 -9425072.409540061 -9425072.409540061 -10934527.83018686 0 0 0 0 0 107069510.2627582 -8945123.756898252 -8945123.756898252 -10730174.63498265 0 0 0 0 0 107321534.0180178 -8481854.697143018 -8481854.697143018 -10521666.36346452 0 0 0 0 0 107544360.8333854 -8035111.27692866 -8035111.27692866 -10309989.05784932 0 0 0 0 0 107367231.2451823 -7650305.910242122 -7650305.910242122 -9940464.308407228 0 0 0 0 0 107937725.27895 -7869404.142557689 -7869404.142557689 -10095336.83206849 0 0 0 0 0 107544012.9483242 -7245197.09131271 -7245197.09131271 -9735379.780947868 0 0 0 0 0 107697857.1036547 -6855376.411559391 -6855376.411559391 -9529010.273978287 0 0 0 0 0 107830438.8304876 -6480812.152869408 -6480812.152869408 -9321157.326083863 0 0 0 0 0 107942467.263244 -6121154.419088655 -6121154.419088655 -9113768.498740183 0 0 0 0 0 108036503.7518065 -5775884.127197266 -5775884.127197266 -8906868.092872459 0 0 0 0 0 108325359.4770191 -5356346.167720611 -5356346.167720611 -8589321.856091281 0 0 0 0 0 108113713.8919106 -5444384.53494617 -5444384.53494617 -8700524.183045909 0 0 0 0 0 107860871.7383983 -5212154.171071443 -5212154.171071443 -8404631.862305939 0 0 0 0 0 107913941.2825215 -4909979.341732838 -4909979.341732838 -8209252.383136116 0 0 0 0 0 107961273.2980093 -4622263.594873542 -4622263.594873542 -8014774.34641475 0 0 0 0 0 107990086.39259 -4345710.858446852 -4345710.858446852 -7821884.121645072 0 0 0 0 0 108013492.2537043 -4083019.237788792 -4083019.237788792 -7629623.543675742 0 0 0 0 0 108016848.1144104 -3828798.221771143 -3828798.221771143 -7440062.623928988 0 0 0 0 0 108128332.676967 -3784688.917680718 -3784688.917680718 -7391749.461499574 0 0 0 0 0 107752633.8700936 -3691218.704785452 -3691218.704785452 -7207317.686146206 0 0 0 0 0 107755014.85729 -3456438.094060157 -3456438.094060157 -7027813.221272588 0 0 0 0 0 107750813.2928909 -3240125.283537165 -3240125.283537165 -6828056.775702617 0 0 0 0 0 107704514.7927981 -3048274.571799648 -3048274.571799648 -6685467.480588185 0 0 0 0 0 107775673.7020007 -3022218.63015657 -3022218.63015657 -6661548.865489594 0 0 0 0 0 107450008.7528691 -2947688.016020687 -2947688.016020687 -6485724.160740509 0 0 0 0 0 107428181.2670474 -2755437.952643474 -2755437.952643474 -6324092.510693414 0 0 0 0 0 107400615.1205442 -2571414.259642938 -2571414.259642938 -6165120.997270978 0 0 0 0 0 107367889.2493872 -2395338.053444688 -2395338.053444688 -6008784.644321019 0 0 0 0 0 107330305.747884 -2226993.504595754 -2226993.504595754 -5855240.051508803 0 0 0 0 0 107288264.501651 -2065806.146561071 -2065806.146561071 -5705199.020359618 0 0 0 0 0 107243430.6423088 -1913619.567321576 -1913619.567321576 -5557659.149565956 0 0 0 0 0 107197060.3498756 -1779686.358887358 -1779686.358887358 -5402974.377076583 0 0 0 0 0 106944521.6629109 -1741882.09224363 -1741882.09224363 -5320306.007287257 0 0 0 0 0 107252020.0314303 -1759846.274388451 -1759846.274388451 -5406968.487507137 0 0 0 0 0 107079301.5603916 -1631652.742739587 -1631652.742739587 -5147498.207289265 0 0 0 0 0 106961838.5485118 -1575005.166842853 -1575005.166842853 -5051352.573474498 0 0 0 0 0 106838080.2194207 -1510006.517622881 -1510006.517622881 -4951225.019215439 0 0 0 0 0 98045247.14144374 -19552034.59667628 -19552034.59667628 -14325838.53987375 0 0 0 0 0 3487252.571350723 -1711328.562310765 -1711328.562310765 -25222431.18397395 0 0 0 0 0 4935500.748369652 -3655678.259624461 -3655678.259624461 -23755165.29070038 0 0 0 0 0 4715949.980878698 -3194592.739456712 -3194592.739456712 -21383503.44159984 0 0 0 0 0 8589852.422272682 -6362335.01618167 -6362335.01618167 -19731118.15251447 0 0 0 0 0 10235078.21890999 -8831582.00467881 -8831582.00467881 -18603979.55151783 0 0 0 0 0 12360172.33276477 -11370313.69862817 -11370313.69862817 -17529914.2938528 0 0 0 0 0 17689383.59783934 -14509040.73756196 -14509040.73756196 -13916884.7280045 0 0 0 0 0 12746013.57252812 -10884280.26469599 -10884280.26469599 -16071021.44978577 0 0 0 0 0 20485247.34716959 -16798136.95792018 -16798136.95792018 -13325342.61032309 0 0 0 0 0 23535506.3848991 -18954045.95372662 -18954045.95372662 -12861582.92948623 0 0 0 0 0 26826498.43301609 -20958507.56957502 -20958507.56957502 -12526216.44377524 0 0 0 0 0 30316295.26165678 -22791499.18355288 -22791499.18355288 -12317130.0871708 0 0 0 0 0 33962281.31747609 -24437067.80661545 -24437067.80661545 -12225831.07382629 0 0 0 0 0 37723973.38568318 -25884209.56380228 -25884209.56380228 -12243743.15847674 0 0 0 0 0 41567698.65150804 -27127087.24002199 -27127087.24002199 -12358040.94140477 0 0 0 0 0 45451464.12015388 -28162137.85199838 -28162137.85199838 -12553167.93212092 0 0 0 0 0 48221259.6241732 -27219809.09638135 -27219809.09638135 -11924984.41004809 0 0 0 0 0 51208533.63821175 -28638457.74623224 -28638457.74623224 -11981757.16634537 0 0 0 0 0 54897266.94633354 -29196379.19115094 -29196379.19115094 -12359411.94164064 0 0 0 0 0 58539285.70914418 -29573897.47784173 -29573897.47784173 -12759436.86678407 0 0 0 0 0 62104479.16161673 -29779129.27158506 -29779129.27158506 -13169883.66497853 0 0 0 0 0 66653515.02642387 -29234879.97933128 -29234879.97933128 -12961795.9961023 0 0 0 0 0 65052039.93526095 -28763735.04845226 -28763735.04845226 -12429247.16298321 0 0 0 0 0 69849005.96185336 -29116044.07123008 -29116044.07123008 -13379837.01432259 0 0 0 0 0 72928311.61888471 -28871776.69017728 -28871776.69017728 -13774333.93643595 0 0 0 0 0 75880043.57715966 -28514324.46444452 -28514324.46444452 -14138844.79965431 0 0 0 0 0 78704372.35375901 -28058532.83738352 -28058532.83738352 -14475213.46010293 0 0 0 0 0 81417174.12912354 -27517151.47218561 -27517151.47218561 -14776771.77876144 0 0 0 0 0 83965038.06594856 -26893980.6923947 -26893980.6923947 -15029342.6230742 0 0 0 0 0 86401379.975482 -25987595.37915087 -25987595.37915087 -14219483.19795881 0 0 0 0 0 86461896.97834316 -25664193.03830094 -25664193.03830094 -14726770.01662044 0 0 0 0 0 88597420.32433532 -24958378.01614544 -24958378.01614544 -14913392.88858301 0 0 0 0 0 90611899.27107854 -24213879.26782617 -24213879.26782617 -15065196.80306855 0 0 0 0 0 92486856.89427911 -23430148.50515923 -23430148.50515923 -15163185.99858724 0 0 0 0 0 94233235.81385933 -22620568.81633538 -22620568.81633538 -15220650.19653376 0 0 0 0 0 95880971.08274376 -21806182.55923226 -21806182.55923226 -15232213.6365836 0 0 0 0 0 97618436.68077521 -21133769.10164084 -21133769.10164084 -14541144.21960703 0 0 0 0 0 97024161.27544875 -20657596.50056327 -20657596.50056327 -14788666.45093553 0 0 0 0 0 98380350.4254576 -19859617.25277656 -19859617.25277656 -14766947.75982485 0 0 0 0 0 99513667.51876603 -18978307.85407199 -18978307.85407199 -13681710.10073658 0 0 0 0 0 100624821.3627739 -18246067.10610517 -18246067.10610517 -13668295.71594525 0 0 0 0 0 101255209.8708965 -17279297.89000526 -17279297.89000526 -13227935.44846616 0 0 0 0 0 99963980.35706243 -17796220.17647287 -17796220.17647287 -13828604.47662552 0 0 0 0 0 102203083.4637992 -16571477.8584679 -16571477.8584679 -13173253.83804739 0 0 0 0 0 103091252.2685758 -15867466.75281375 -15867466.75281375 -13096634.28524826 0 0 0 0 0 103894288.194755 -15170162.84965333 -15170162.84965333 -13004372.31396385 0 0 0 0 0 104613983.1827817 -14492639.6896999 -14492639.6896999 -12900332.03004236 0 0 0 0 0 104811622.3712728 -13718078.44917727 -13718078.44917727 -12455471.87464172 0 0 0 0 0 103896975.4764752 -14093033.20198919 -14093033.20198919 -12914783.37157205 0 0 0 0 0 105395140.7369926 -13093349.09548823 -13093349.09548823 -12321120.58730463 0 0 0 0 0 105923866.9723269 -12484404.84855226 -12484404.84855226 -12173835.29246207 0 0 0 0 0 106400839.2970887 -11891629.84077957 -11891629.84077957 -12013049.94535356 0 0 0 0 0 106828137.7275751 -11316070.8869237 -11316070.8869237 -11842399.66906211 0 0 0 0 0 107209814.3665442 -10757491.08807082 -10757491.08807082 -11661596.86502604 0 0 0 0 0 106530837.2016882 -10451832.75457205 -10451832.75457205 -11552672.53068036 0 0 0 0 0 107421958.2001441 -9698509.375089677 -9698509.375089677 -11057577.23719052 0 0 0 0 0 106880700.118001 -9924811.989264801 -9924811.989264801 -11346356.03781574 0 0 0 0 0 107695385.3069857 -9205333.319130134 -9205333.319130134 -10866484.87441827 0 0 0 0 0 107936118.1398149 -8728748.962345701 -8728748.962345701 -10670072.78790719 0 0 0 0 0 108146640.1330474 -8269016.529672861 -8269016.529672861 -10469057.75571918 0 0 0 0 0 108329493.3691129 -7825921.262060982 -7825921.262060982 -10264167.49493762 0 0 0 0 0 108102112.3376733 -7452358.55994692 -7452358.55994692 -9898909.761994224 0 0 0 0 0 107740111.9485664 -7604648.002538027 -7604648.002538027 -10095665.91217481 0 0 0 0 0 108242709.8874096 -7050919.401340839 -7050919.401340839 -9700188.298239863 0 0 0 0 0 108361611.4970879 -6664835.769079745 -6664835.769079745 -9499563.246334538 0 0 0 0 0 108459465.1620624 -6294478.887445468 -6294478.887445468 -9298539.543666145 0 0 0 0 0 108539416.5423526 -5938829.605340924 -5938829.605340924 -9096296.197741579 0 0 0 0 0 108603227.7031621 -5597425.888570811 -5597425.888570811 -8893489.238072123 0 0 0 0 0 108175203.1473414 -5126028.839017407 -5126028.839017407 -8494966.716387751 0 0 0 0 0 108651217.6066502 -5269831.724229197 -5269831.724229197 -8690924.539106093 0 0 0 0 0 108367018.2594282 -5046710.846028162 -5046710.846028162 -8396027.671029685 0 0 0 0 0 108396978.1190189 -4748552.907746663 -4748552.907746663 -8203402.50589483 0 0 0 0 0 108414769.5378979 -4463998.714506932 -4463998.714506932 -8013820.128433486 0 0 0 0 0 108421644.8540961 -4191572.397834608 -4191572.397834608 -7823396.613117741 0 0 0 0 0 108416934.2762944 -3931774.52265021 -3931774.52265021 -7636100.885783392 0 0 0 0 0 108403614.3771607 -3682276.109566652 -3682276.109566652 -7448677.624140291 0 0 0 0 0 108017604.9537659 -3587572.245884471 -3587572.245884471 -7253898.588480057 0 0 0 0 0 108122615.7649973 -3545843.011478801 -3545843.011478801 -7209135.693511829 0 0 0 0 0 108102505.5160004 -3319611.896031217 -3319611.896031217 -7035601.206642561 0 0 0 0 0 108039977.7460145 -3121662.075124356 -3121662.075124356 -6893798.852815899 0 0 0 0 0 108007857.0656872 -2920461.94849078 -2920461.94849078 -6703429.675252138 0 0 0 0 0 107679069.021582 -2848341.124568999 -2848341.124568999 -6518911.761147703 0 0 0 0 0 107744019.471488 -2824955.826703661 -2824955.826703661 -6498867.230664615 0 0 0 0 0 107706233.740502 -2636019.056606899 -2636019.056606899 -6338823.699221962 0 0 0 0 0 107663514.144171 -2455225.980141264 -2455225.980141264 -6181282.001492881 0 0 0 0 0 107616039.3529241 -2282362.370436862 -2282362.370436862 -6026404.621574122 0 0 0 0 0 107564206.7443979 -2117215.514235867 -2117215.514235867 -5874202.828770891 0 0 0 0 0 107509028.4636977 -1959704.598087238 -1959704.598087238 -5724892.036879173 0 0 0 0 0 107442739.3151971 -1814238.184297002 -1814238.184297002 -5584266.889789569 0 0 0 0 0 107314390.9723263 -1706352.245607512 -1706352.245607512 -5474542.417521344 0 0 0 0 0 107219244.4982834 -1615341.234988465 -1615341.234988465 -5270128.945454699 0 0 0 0 0 107129443.5395268 -1671835.144025442 -1671835.144025442 -5370691.924723104 0 0 0 0 0 107032005.3300659 -1578290.883364869 -1578290.883364869 -5261548.270763717 0 0 0 0 0 106930640.2178706 -1516449.36842234 -1516449.36842234 -5159288.233626465 0 0 0 0 0 106836555.5139504 -1448021.507722103 -1448021.507722103 -5056554.591350648 0 0 0 0 0 99908334.60902327 -19260575.82947262 -19260575.82947262 -14105667.09985238 0 0 0 0 0 2425725.132926899 -179301.1258576848 -179301.1258576848 -27548948.35385197 0 0 0 0 0 4314883.049888976 -2277893.298307789 -2277893.298307789 -25433239.47767054 0 0 0 0 0 6569350.993237161 -4878681.054264308 -4878681.054264308 -23619728.0642693 0 0 0 0 0 5422923.956120551 -5285251.468778287 -5285251.468778287 -21103114.93099751 0 0 0 0 0 7398400.553148875 -7412934.492872059 -7412934.492872059 -20260511.88061308 0 0 0 0 0 9802233.394681035 -9927107.097977268 -9927107.097977268 -19125398.71138602 0 0 0 0 0 15534354.46068422 -13291648.79094251 -13291648.79094251 -15260217.18058104 0 0 0 0 0 14817450.20980052 -13823325.53085282 -13823325.53085282 -16539055.25789323 0 0 0 0 0 18652224.53102374 -15603580.36795163 -15603580.36795163 -14576282.10238047 0 0 0 0 0 22064198.1538529 -17802911.83947664 -17802911.83947664 -13996478.41328676 0 0 0 0 0 25721245.28374264 -19859010.36814697 -19859010.36814697 -13538154.6460191 0 0 0 0 0 29581647.77172529 -21750748.82632831 -21750748.82632831 -13200271.25239904 0 0 0 0 0 33594239.24900112 -23458982.04798929 -23458982.04798929 -12979061.34407226 0 0 0 0 0 37722538.63666777 -24970391.85304143 -24970391.85304143 -12866248.48628708 0 0 0 0 0 41915245.39223439 -26275713.32864695 -26275713.32864695 -12853463.75893692 0 0 0 0 0 46132669.18647153 -27371266.95523231 -27371266.95523231 -12928597.07528915 0 0 0 0 0 49338708.1977419 -28990719.59654619 -28990719.59654619 -12813472.5864516 0 0 0 0 0 52225053.40153293 -28011189.21335219 -28011189.21335219 -12166593.34922471 0 0 0 0 0 56183750.88903669 -28609700.14460862 -28609700.14460862 -12451701.48893009 0 0 0 0 0 60062074.42699303 -29022860.41671022 -29022860.41671022 -12770183.07927856 0 0 0 0 0 63837757.53250553 -29259399.84871973 -29259399.84871973 -13108945.24184803 0 0 0 0 0 68523588.18864734 -28802523.34306754 -28802523.34306754 -12810103.69836312 0 0 0 0 0 65575435.52021836 -29823863.12770461 -29823863.12770461 -13578876.73515526 0 0 0 0 0 71856190.25959104 -28700280.09870294 -28700280.09870294 -13186075.70373765 0 0 0 0 0 75042437.20225804 -28470008.79501946 -28470008.79501946 -13544927.02977861 0 0 0 0 0 78078838.64836133 -28123703.61890284 -28123703.61890284 -13882286.28140385 0 0 0 0 0 80966031.02416183 -27672458.31671724 -27672458.31671724 -14190279.45833887 0 0 0 0 0 83695429.92136844 -27138282.86164814 -27138282.86164814 -14478230.89187324 0 0 0 0 0 86263989.13130513 -26525038.23363208 -26525038.23363208 -14729827.78214674 0 0 0 0 0 86337587.49260204 -26205434.8072873 -26205434.8072873 -15239006.36326059 0 0 0 0 0 88691932.9898877 -25331675.7462461 -25331675.7462461 -14432302.93562195 0 0 0 0 0 90833070.72784127 -24625763.9611088 -24625763.9611088 -14612018.50175525 0 0 0 0 0 92834646.97737753 -23877237.36336245 -23877237.36336245 -14754996.42415537 0 0 0 0 0 94699679.41339785 -23093192.56660701 -23093192.56660701 -14861751.02227772 0 0 0 0 0 96422465.49886315 -22285978.1452978 -22285978.1452978 -14937305.87249416 0 0 0 0 0 97976032.53381565 -21480952.08719935 -21480952.08719935 -14985150.20830519 0 0 0 0 0 97356770.53064486 -20984044.13500838 -20984044.13500838 -15206655.58130462 0 0 0 0 0 99012269.62507117 -20336481.9198339 -20336481.9198339 -14527137.18348734 0 0 0 0 0 100316721.5637379 -19541187.57974346 -19541187.57974346 -14513398.02792308 0 0 0 0 0 99243609.36487444 -18796265.7134246 -18796265.7134246 -14290013.14653074 0 0 0 0 0 100353399.3719978 -18036867.89156136 -18036867.89156136 -14209923.69979957 0 0 0 0 0 100976484.0946161 -17064442.83392695 -17064442.83392695 -13750729.84413437 0 0 0 0 0 101658101.3458899 -17513212.52426178 -17513212.52426178 -13613894.84068662 0 0 0 0 0 101917982.3767224 -16340019.34546345 -16340019.34546345 -13657932.79552942 0 0 0 0 0 102796418.0097412 -15614637.16125007 -15614637.16125007 -13537932.44943634 0 0 0 0 0 103602391.9695835 -14903310.15296007 -14903310.15296007 -13391592.94061037 0 0 0 0 0 104329697.0549309 -14211827.86832262 -14211827.86832262 -13227369.57419432 0 0 0 0 0 104540304.7244961 -13444833.16724927 -13444833.16724927 -12754465.43809484 0 0 0 0 0 105262250.7613203 -13831430.42072159 -13831430.42072159 -12766338.9391845 0 0 0 0 0 105127302.0719565 -12812701.02046898 -12812701.02046898 -12580676.49277621 0 0 0 0 0 105660303.7824481 -12197715.65106118 -12197715.65106118 -12394563.39402007 0 0 0 0 0 106141931.3366931 -11599994.53370373 -11599994.53370373 -12197785.81749796 0 0 0 0 0 106575741.0512403 -11019962.71265663 -11019962.71265663 -11991165.98914963 0 0 0 0 0 106964991.1437944 -10459246.95622197 -10459246.95622197 -11775851.06118044 0 0 0 0 0 107550547.4955481 -10216460.56563984 -10216460.56563984 -11470793.8689954 0 0 0 0 0 107193539.0647759 -9415321.826327927 -9415321.826327927 -11134924.4495436 0 0 0 0 0 107853098.4939547 -9692835.180879509 -9692835.180879509 -11273219.94746288 0 0 0 0 0 107473071.9292649 -8922519.648158491 -8922519.648158491 -10917707.0937122 0 0 0 0 0 107720298.4702788 -8447327.188486965 -8447327.188486965 -10696683.95887057 0 0 0 0 0 107937573.1600244 -7989613.01729914 -7989613.01729914 -10472600.39915414 0 0 0 0 0 108127022.9603667 -7549196.478493566 -7549196.478493566 -10246561.87944841 0 0 0 0 0 107910866.7149084 -7190282.276512117 -7190282.276512117 -9879631.235260192 0 0 0 0 0 108486577.5252797 -7399325.86176034 -7399325.86176034 -10056431.75933532 0 0 0 0 0 108058312.2641565 -6791870.414697142 -6791870.414697142 -9662214.414427523 0 0 0 0 0 108183921.4431464 -6409311.893314415 -6409311.893314415 -9444341.53933166 0 0 0 0 0 108289785.2809031 -6042345.579241141 -6042345.579241141 -9226209.24199268 0 0 0 0 0 108375409.4003133 -5691304.606340904 -5691304.606340904 -9009726.429446546 0 0 0 0 0 108444692.2557698 -5354455.729142478 -5354455.729142478 -8794396.28980829 0 0 0 0 0 108684974.1246048 -4955414.165426157 -4955414.165426157 -8488981.876347292 0 0 0 0 0 108498685.4769869 -5031094.965085806 -5031094.965085806 -8579849.308325687 0 0 0 0 0 108222116.2231147 -4820138.143143833 -4820138.143143833 -8290714.984375089 0 0 0 0 0 108257835.1810611 -4527337.85668897 -4527337.85668897 -8088650.484914805 0 0 0 0 0 108281484.3664657 -4247639.179715148 -4247639.179715148 -7888278.659241628 0 0 0 0 0 108293989.8867333 -3980041.149650226 -3980041.149650226 -7689520.435072415 0 0 0 0 0 108294221.1845546 -3724417.935650477 -3724417.935650477 -7493154.252572502 0 0 0 0 0 108285888.0988826 -3479919.864772282 -3479919.864772282 -7300501.543185945 0 0 0 0 0 108379875.204041 -3444784.392887683 -3444784.392887683 -7267421.214609292 0 0 0 0 0 108007612.4834171 -3356062.010969744 -3356062.010969744 -7072894.290204893 0 0 0 0 0 107986539.2534448 -3135923.580235919 -3135923.580235919 -6892449.885192038 0 0 0 0 0 107972258.8556026 -2928165.072685972 -2928165.072685972 -6695188.269730709 0 0 0 0 0 107915305.6835497 -2741162.512363119 -2741162.512363119 -6544185.654397645 0 0 0 0 0 107971003.1164685 -2722978.042249079 -2722978.042249079 -6534061.035186561 0 0 0 0 0 107650804.9412793 -2655008.905071578 -2655008.905071578 -6352212.870259966 0 0 0 0 0 107616868.1041854 -2470129.823878124 -2470129.823878124 -6188386.41911298 0 0 0 0 0 107577876.0077521 -2293318.446845768 -2293318.446845768 -6027427.950065938 0 0 0 0 0 107534240.9087412 -2124338.093883932 -2124338.093883932 -5869305.033126657 0 0 0 0 0 107486185.5948362 -1963240.36200831 -1963240.36200831 -5713860.209532522 0 0 0 0 0 107435384.0872049 -1810447.588017074 -1810447.588017074 -5561447.375516295 0 0 0 0 0 107389068.1255969 -1661742.619348561 -1661742.619348561 -5392042.699613171 0 0 0 0 0 107382470.6197053 -1543254.469046306 -1543254.469046306 -5252717.469355795 0 0 0 0 0 107160905.2635455 -1502718.526742462 -1502718.526742462 -5124062.788399744 0 0 0 0 0 107095556.9184008 -1429905.742988054 -1429905.742988054 -5018870.519731111 0 0 0 0 0 107001950.4197941 -1362965.564646904 -1362965.564646904 -4920059.121669854 0 0 0 0 0 99631335.92685069 -19063622.36295089 -19063622.36295089 -14699636.05916972 0 0 0 0 0 1155522.852717432 -1746798.382255564 -1746798.382255564 -30191811.55558963 0 0 0 0 0 2135646.471340457 -3730806.750553941 -3730806.750553941 -27727255.7421522 0 0 0 0 0 3160568.686790094 -5007323.839679906 -5007323.839679906 -24584298.92755014 0 0 0 0 0 7418351.418464534 -7982500.804987499 -7982500.804987499 -22447456.8067277 0 0 0 0 0 9461040.706467807 -10496755.96807133 -10496755.96807133 -20951304.38066442 0 0 0 0 0 11909978.64062698 -12967154.4227326 -12967154.4227326 -19643957.99662413 0 0 0 0 0 17590165.49147166 -16185348.16228506 -16185348.16228506 -15676076.9308258 0 0 0 0 0 12536693.24678993 -12381946.77233987 -12381946.77233987 -18064863.75195021 0 0 0 0 0 20675993.78581287 -18438505.84916272 -18438505.84916272 -14951640.81605671 0 0 0 0 0 24022693.61687167 -20551354.7567937 -20551354.7567937 -14376745.23718912 0 0 0 0 0 27596479.38494486 -22500724.25765501 -22500724.25765501 -13950022.20060752 0 0 0 0 0 31351037.35286652 -24266567.9328442 -24266567.9328442 -13666392.40962701 0 0 0 0 0 35246558.71953499 -25832470.71023783 -25832470.71023783 -13513574.47797489 0 0 0 0 0 39240512.69753154 -27189544.31533606 -27189544.31533606 -13482173.53465015 0 0 0 0 0 43291257.50960302 -28331252.3469881 -28331252.3469881 -13554032.53948285 0 0 0 0 0 47360035.19600332 -29256486.32266653 -29256486.32266653 -13712143.33544428 0 0 0 0 0 50335641.54240641 -28256200.56819699 -28256200.56819699 -13076703.87753225 0 0 0 0 0 53205568.9360643 -29618303.75790005 -29618303.75790005 -13124636.0372567 0 0 0 0 0 57027283.95270205 -30053978.33414577 -30053978.33414577 -13470203.76809203 0 0 0 0 0 60774789.37495758 -30305672.0516111 -30305672.0516111 -13836589.98071422 0 0 0 0 0 64425421.99740502 -30384653.56949626 -30384653.56949626 -14210660.91554422 0 0 0 0 0 68934153.70816822 -29721974.46135674 -29721974.46135674 -13976429.59389349 0 0 0 0 0 67491161.75752917 -29330762.08870204 -29330762.08870204 -13456246.61533811 0 0 0 0 0 72164981.02666579 -29483876.03531417 -29483876.03531417 -14350774.94922986 0 0 0 0 0 75261212.10906704 -29124671.69307739 -29124671.69307739 -14700550.98197641 0 0 0 0 0 78216074.46186423 -28657586.80116792 -28657586.80116792 -15020502.74849126 0 0 0 0 0 81035930.29639821 -28099924.75992489 -28099924.75992489 -15308688.29591004 0 0 0 0 0 83697958.49131514 -27457399.35600516 -27457399.35600516 -15555522.9597008 0 0 0 0 0 86199549.14094928 -26744374.46421339 -26744374.46421339 -15759879.58548819 0 0 0 0 0 88667191.7273566 -25844531.67674468 -25844531.67674468 -14942261.95425793 0 0 0 0 0 88571112.00130874 -25467739.31880969 -25467739.31880969 -15413135.50369227 0 0 0 0 0 90667825.95231284 -24689108.07299807 -24689108.07299807 -15547129.47901689 0 0 0 0 0 92630761.59115338 -23872015.32309484 -23872015.32309484 -15639640.36717013 0 0 0 0 0 94463322.67475273 -23027487.51442467 -23027487.51442467 -15689415.99760214 0 0 0 0 0 96166984.94812745 -22173190.29007106 -22173190.29007106 -15690712.02813338 0 0 0 0 0 97697156.58552244 -21310034.12107978 -21310034.12107978 -15659251.47626128 0 0 0 0 0 99406503.20457222 -20657285.6337758 -20657285.6337758 -14979613.66141035 0 0 0 0 0 98733357.74263534 -20160683.17807236 -20160683.17807236 -15183021.26882921 0 0 0 0 0 100020297.4400424 -19325870.80048257 -19325870.80048257 -15115554.47648817 0 0 0 0 0 101058375.8268987 -18494826.33595637 -18494826.33595637 -14067296.37094134 0 0 0 0 0 102114145.5138576 -17740164.51400332 -17740164.51400332 -14014481.38156165 0 0 0 0 0 102628532.3768153 -16784368.10494778 -16784368.10494778 -13545955.1547104 0 0 0 0 0 101374452.71611 -17283858.53841361 -17283858.53841361 -14125948.94541779 0 0 0 0 0 103520622.6452568 -16053650.49253602 -16053650.49253602 -13455202.33864901 0 0 0 0 0 104341066.4470035 -15330553.75086711 -15330553.75086711 -13344677.95194279 0 0 0 0 0 105075281.7644395 -14624805.17793414 -14624805.17793414 -13221911.198264 0 0 0 0 0 105734267.8546475 -13935864.33132097 -13935864.33132097 -13077908.67626997 0 0 0 0 0 105850740.5426912 -13184865.65070107 -13184865.65070107 -12618132.14166541 0 0 0 0 0 104980936.8719226 -13540467.09697807 -13540467.09697807 -13051218.23910902 0 0 0 0 0 106382563.0997643 -12554832.94012768 -12554832.94012768 -12456113.2944114 0 0 0 0 0 106860675.5219048 -11942081.03469204 -11942081.03469204 -12281438.50323564 0 0 0 0 0 107288647.2302408 -11347156.6149413 -11347156.6149413 -12095339.36935864 0 0 0 0 0 107669813.9233073 -10770441.02332064 -10770441.02332064 -11899842.07432897 0 0 0 0 0 108006031.5294062 -10214179.1093558 -10214179.1093558 -11697078.24538484 0 0 0 0 0 107310631.7077062 -9917969.897052336 -9917969.897052336 -11556247.50930088 0 0 0 0 0 108121606.4850248 -9186335.157216674 -9186335.157216674 -11068695.52513218 0 0 0 0 0 107618811.8908111 -9395113.966504548 -9395113.966504548 -11331425.27139022 0 0 0 0 0 108356360.2591019 -8697332.003928876 -8697332.003928876 -10859577.00270149 0 0 0 0 0 108560286.7078309 -8226119.29631087 -8226119.29631087 -10646135.42691307 0 0 0 0 0 108735500.8690876 -7772525.017231358 -7772525.017231358 -10429324.06041291 0 0 0 0 0 108884740.7494978 -7336332.407097769 -7336332.407097769 -10209723.51547488 0 0 0 0 0 108619995.1260903 -6988868.110851334 -6988868.110851334 -9846393.395801893 0 0 0 0 0 108290884.507184 -7125741.391830374 -7125741.391830374 -10018994.87107239 0 0 0 0 0 108731125.1613019 -6594703.531075308 -6594703.531075308 -9635141.105752805 0 0 0 0 0 108821632.5804232 -6216358.497564293 -6216358.497564293 -9422970.644704223 0 0 0 0 0 108892762.8576652 -5854275.991847652 -5854275.991847652 -9211463.812310247 0 0 0 0 0 108947013.9003829 -5507506.234430032 -5507506.234430032 -8999366.829205921 0 0 0 0 0 108986328.2651578 -5174529.920680486 -5174529.920680486 -8787369.798421469 0 0 0 0 0 108538125.7981394 -4721147.573097886 -4721147.573097886 -8367033.623091207 0 0 0 0 0 109011383.6046249 -4855448.912889046 -4855448.912889046 -8576595.462217875 0 0 0 0 0 108705744.386576 -4653801.764956635 -4653801.764956635 -8288241.863254417 0 0 0 0 0 108715130.8279632 -4365231.93644803 -4365231.93644803 -8089508.540303916 0 0 0 0 0 108713602.0505985 -4089227.587079383 -4089227.587079383 -7892370.863599421 0 0 0 0 0 108701157.6739256 -3825991.59522609 -3825991.59522609 -7697387.165318376 0 0 0 0 0 108678908.5531877 -3574097.632380514 -3574097.632380514 -7503805.273932298 0 0 0 0 0 108649835.3004878 -3333946.482126082 -3333946.482126082 -7312998.680215868 0 0 0 0 0 108272863.0895906 -3248028.449046976 -3248028.449046976 -7108854.212809484 0 0 0 0 0 108354076.2453077 -3218820.394011825 -3218820.394011825 -7086871.066435641 0 0 0 0 0 108317935.0125532 -3003127.442291481 -3003127.442291481 -6903940.288140339 0 0 0 0 0 108242446.8947545 -2811405.178750721 -2811405.178750721 -6755540.248946174 0 0 0 0 0 108201573.2759327 -2614125.814013139 -2614125.814013139 -6563320.55491992 0 0 0 0 0 107878403.8332816 -2548038.026468889 -2548038.026468889 -6374507.637213896 0 0 0 0 0 107926920.8987418 -2533073.101485182 -2533073.101485182 -6369133.789431117 0 0 0 0 0 107877781.9097945 -2351575.823620673 -2351575.823620673 -6206619.627839021 0 0 0 0 0 107824035.3334425 -2178073.727349231 -2178073.727349231 -6046909.087454 0 0 0 0 0 107766079.7262727 -2012419.996661354 -2012419.996661354 -5890189.009361308 0 0 0 0 0 107703772.4258437 -1854229.74125414 -1854229.74125414 -5736135.03562209 0 0 0 0 0 107637970.2510501 -1704915.847904679 -1704915.847904679 -5585588.009545198 0 0 0 0 0 107564480.5959847 -1566236.440992186 -1566236.440992186 -5448857.327801029 0 0 0 0 0 107324879.9323804 -1509313.010469639 -1509313.010469639 -5319194.190062806 0 0 0 0 0 107221055.8069717 -1438182.28361089 -1438182.28361089 -5223870.727595046 0 0 0 0 0 107099500.8461206 -1369988.227638053 -1369988.227638053 -5125328.417224293 0 0 0 0 0 106996102.4512345 -1304285.458105454 -1304285.458105454 -5019451.701968119 0 0 0 0 0 101512070.1929988 -18744297.34830473 -18744297.34830473 -14472583.90499586 0 0 0 0 0 245276.9267471736 112679.4762870043 112679.4762870043 -33205713.72144444 0 0 0 0 0 2164525.048381023 -2087612.444514025 -2087612.444514025 -30456486.90585512 0 0 0 0 0 3944434.650726481 -4161957.255165437 -4161957.255165437 -27312187.23149058 0 0 0 0 0 4806649.00592408 -6304279.78143397 -6304279.78143397 -24370946.59651611 0 0 0 0 0 6917929.985124938 -8850191.697586305 -8850191.697586305 -22688605.40615306 0 0 0 0 0 9542870.398454219 -11278411.68564149 -11278411.68564149 -21360248.31195204 0 0 0 0 0 15636656.08716899 -14775564.92806686 -14775564.92806686 -17101733.51215954 0 0 0 0 0 14670314.81890608 -15395697.46322037 -15395697.46322037 -18451956.58114955 0 0 0 0 0 19060984.25458059 -17073408.01821834 -17073408.01821834 -16266790.52584582 0 0 0 0 0 22776874.78791166 -19246505.62476614 -19246505.62476614 -15562446.81998589 0 0 0 0 0 26727031.57684586 -21265882.51749602 -21265882.51749602 -14997201.99828194 0 0 0 0 0 30863945.90844641 -23106939.95016079 -23106939.95016079 -14570125.72007338 0 0 0 0 0 35139167.85030095 -24751792.02240875 -24751792.02240875 -14276266.18178767 0 0 0 0 0 39502228.15781435 -26185682.2084015 -26185682.2084015 -14101902.05369326 0 0 0 0 0 43908555.12151197 -27401859.76269325 -27401859.76269325 -14038675.242446 0 0 0 0 0 48314117.72208016 -28397066.74187392 -28397066.74187392 -14069106.82242494 0 0 0 0 0 51409115.88179426 -29967575.44825695 -29967575.44825695 -13937889.67242176 0 0 0 0 0 54489272.20747036 -28935534.32522609 -28935534.32522609 -13282269.17953476 0 0 0 0 0 58567772.84586015 -29416282.31725702 -29416282.31725702 -13535440.26403793 0 0 0 0 0 62542423.99456064 -29707608.18196345 -29707608.18196345 -13820531.21354388 0 0 0 0 0 66389099.53040767 -29820974.48039815 -29820974.48039815 -14124281.71484563 0 0 0 0 0 71002087.07681875 -29249945.96603155 -29249945.96603155 -13802035.85030183 0 0 0 0 0 67960979.16245046 -30304674.94781635 -30304674.94781635 -14580273.53604938 0 0 0 0 0 74357962.49643667 -29031698.30009677 -29031698.30009677 -14138347.36890529 0 0 0 0 0 77549068.31907625 -28687851.02678274 -28687851.02678274 -14456528.80780939 0 0 0 0 0 80575548.72064884 -28231745.49688532 -28231745.49688532 -14746995.48233964 0 0 0 0 0 83437574.13466848 -27682815.17204915 -27682815.17204915 -15013559.03611742 0 0 0 0 0 86125108.74989194 -27051516.04946541 -27051516.04946541 -15250592.77201456 0 0 0 0 0 88639710.93242954 -26345984.26677505 -26345984.26677505 -15448125.94479027 0 0 0 0 0 88544078.41643441 -25974814.01005839 -25974814.01005839 -15916314.98631976 0 0 0 0 0 90905157.70078211 -25105500.75741094 -25105500.75741094 -15109629.19523009 0 0 0 0 0 92992168.18736309 -24323756.72798012 -24323756.72798012 -15239675.60923057 0 0 0 0 0 94929232.70542619 -23507770.21100406 -23507770.21100406 -15336138.4275506 0 0 0 0 0 96720761.90485378 -22665511.55721791 -22665511.55721791 -15395555.33134527 0 0 0 0 0 98348872.33204147 -21818826.45668654 -21818826.45668654 -15431902.70807621 0 0 0 0 0 99841922.47403292 -20959191.51545023 -20959191.51545023 -15412045.66430114 0 0 0 0 0 99115629.61284462 -20448319.13049835 -20448319.13049835 -15592514.97356564 0 0 0 0 0 100736662.5008702 -19822185.29666558 -19822185.29666558 -14933819.71583385 0 0 0 0 0 101972946.021483 -18989299.38817657 -18989299.38817657 -14876169.88520767 0 0 0 0 0 100772531.6486284 -18269139.59895315 -18269139.59895315 -14612554.22965606 0 0 0 0 0 101822982.8782174 -17481482.92902914 -17481482.92902914 -14502519.17237403 0 0 0 0 0 102332720.8988791 -16526985.33232993 -16526985.33232993 -14017542.30770521 0 0 0 0 0 103086340.6584197 -16984559.30197508 -16984559.30197508 -13930009.47488788 0 0 0 0 0 103223640.8352883 -15777772.46512699 -15777772.46512699 -13877672.05625774 0 0 0 0 0 104038835.1562693 -15042008.84505025 -15042008.84505025 -13720976.87657382 0 0 0 0 0 104779258.8015647 -14322237.98952292 -14322237.98952292 -13538940.147805 0 0 0 0 0 105443391.5333493 -13627264.83927774 -13627264.83927774 -13347106.69069888 0 0 0 0 0 105573190.7395517 -12886487.90112706 -12886487.90112706 -12862012.48140104 0 0 0 0 0 106329222.6369627 -13267321.6247654 -13267321.6247654 -12914667.32989904 0 0 0 0 0 106109547.8484297 -12250518.122724 -12250518.122724 -12660564.89627846 0 0 0 0 0 106592851.0459288 -11633437.1114266 -11633437.1114266 -12448421.00380323 0 0 0 0 0 107026360.7882695 -11035638.99071982 -11035638.99071982 -12227247.22488261 0 0 0 0 0 107414494.9646969 -10457958.31362773 -10457958.31362773 -11997690.57760639 0 0 0 0 0 107758630.0350831 -9901144.138662014 -9901144.138662014 -11762188.56935943 0 0 0 0 0 108303371.5502526 -9676653.44306965 -9676653.44306965 -11485472.20844475 0 0 0 0 0 107893175.1030029 -8889576.72318176 -8889576.72318176 -11101137.12652473 0 0 0 0 0 108565178.7667249 -9156884.187700039 -9156884.187700039 -11267523.8707667 0 0 0 0 0 108134861.3135185 -8402430.576079171 -8402430.576079171 -10867054.22454482 0 0 0 0 0 108345773.1205343 -7933732.323500788 -7933732.323500788 -10630529.27827852 0 0 0 0 0 108528302.2951152 -7483312.086925321 -7483312.086925321 -10392031.41661619 0 0 0 0 0 108684575.4872366 -7050862.027085071 -7050862.027085071 -10152714.78319665 0 0 0 0 0 108430807.7807693 -6719142.424783603 -6719142.424783603 -9790754.497486291 0 0 0 0 0 109009558.1647009 -6917296.82359942 -6917296.82359942 -9988428.307129728 0 0 0 0 0 108548888.635952 -6328844.068221035 -6328844.068221035 -9562265.907766843 0 0 0 0 0 108646523.7896935 -5955138.478900951 -5955138.478900951 -9334004.245415617 0 0 0 0 0 108725293.7643656 -5597492.251146432 -5597492.251146432 -9107047.299944701 0 0 0 0 0 108786238.5855045 -5255006.925850482 -5255006.925850482 -8881833.781358147 0 0 0 0 0 108831353.5054494 -4927077.927334768 -4927077.927334768 -8658556.618114606 0 0 0 0 0 109023363.8030001 -4549967.421676569 -4549967.421676569 -8367322.274357293 0 0 0 0 0 108862501.3493081 -4613075.580314875 -4613075.580314875 -8437016.668251505 0 0 0 0 0 108565063.5292044 -4424589.674328011 -4424589.674328011 -8156348.499516008 0 0 0 0 0 108579581.9080783 -4141320.160330575 -4141320.160330575 -7948597.797130512 0 0 0 0 0 108583723.8342744 -3870684.605464565 -3870684.605464565 -7742931.234554766 0 0 0 0 0 108576737.1594588 -3612007.959887786 -3612007.959887786 -7539750.40988575 0 0 0 0 0 108560668.2540901 -3365866.196728304 -3365866.196728304 -7339178.878645787 0 0 0 0 0 108538161.5467862 -3134601.394682465 -3134601.394682465 -7142839.657334263 0 0 0 0 0 108607874.2320735 -3111858.616395388 -3111858.616395388 -7135747.354560031 0 0 0 0 0 108234579.637932 -3031292.833445696 -3031292.833445696 -6926694.488648258 0 0 0 0 0 108199348.3451496 -2816185.48835047 -2816185.48835047 -6738024.98670977 0 0 0 0 0 108169162.8170995 -2621851.429058456 -2621851.429058456 -6558048.315425493 0 0 0 0 0 108111918.6862896 -2434245.726277154 -2434245.726277154 -6389820.550087571 0 0 0 0 0 108152050.0050332 -2423873.165220299 -2423873.165220299 -6393562.776480452 0 0 0 0 0 107837369.5707337 -2362771.090466691 -2362771.090466691 -6206145.229294837 0 0 0 0 0 107791820.1335225 -2185467.092538295 -2185467.092538295 -6040598.910246172 0 0 0 0 0 107741700.0912014 -2016149.184942948 -2016149.184942948 -5878199.904863768 0 0 0 0 0 107687350.9072314 -1854401.859917717 -1854401.859917717 -5719012.965385227 0 0 0 0 0 107629453.913 -1700964.320552271 -1700964.320552271 -5561075.198647141 0 0 0 0 0 107568766.0223225 -1555671.34605626 -1555671.34605626 -5409773.590315886 0 0 0 0 0 107477331.0528579 -1438462.202889756 -1438462.202889756 -5267297.363445036 0 0 0 0 0 107400569.3208667 -1349653.083499472 -1349653.083499472 -5082827.459718768 0 0 0 0 0 107556052.2994136 -1381659.207446424 -1381659.207446424 -5186801.832389164 0 0 0 0 0 107273557.7766004 -1277507.75943666 -1277507.75943666 -4974532.774311298 0 0 0 0 0 107174198.3482305 -1212080.430824806 -1212080.430824806 -4871523.001978974 0 0 0 0 0 101209661.3893438 -18494391.53138193 -18494391.53138193 -15013018.18007142 0 0 0 0 0 -776757.2999383537 -1764556.758179946 -1764556.758179946 -36328786.07515758 0 0 0 0 0 262285.5325047405 -3753593.286505066 -3753593.286505066 -33071757.92002182 0 0 0 0 0 1055524.493338878 -5238098.99732889 -5238098.99732889 -28976122.9429355 0 0 0 0 0 4024537.599523935 -7255706.426748738 -7255706.426748738 -26591302.65034604 0 0 0 0 0 6697101.032882786 -9517148.794036606 -9517148.794036606 -25045661.98752462 0 0 0 0 0 9051720.866588352 -11930874.95388795 -11930874.95388795 -23349218.75912415 0 0 0 0 0 11752066.55633442 -14389041.91934425 -14389041.91934425 -21743480.24693536 0 0 0 0 0 17755157.29164929 -17735161.9938886 -17735161.9938886 -17412189.00670115 0 0 0 0 0 12588358.03070866 -13725490.88716243 -13725490.88716243 -20086076.45798586 0 0 0 0 0 21143038.74713165 -19956121.15656999 -19956121.15656999 -16538417.67610758 0 0 0 0 0 24782641.3378836 -22027943.87731109 -22027943.87731109 -15839406.79214634 0 0 0 0 0 28635812.10620931 -23923455.43960151 -23923455.43960151 -15312970.94076155 0 0 0 0 0 32652341.95323676 -25621889.68875812 -25621889.68875812 -14948904.14685222 0 0 0 0 0 36794984.66839924 -27108852.357317 -27108852.357317 -14733486.73762383 0 0 0 0 0 41012567.27002381 -28373130.67741358 -28373130.67741358 -14650305.69030548 0 0 0 0 0 45263903.19907982 -29410769.12416556 -29410769.12416556 -14679091.91662573 0 0 0 0 0 49508451.0276602 -30222056.95549967 -30222056.95549967 -14799452.3100166 0 0 0 0 0 52679527.45873512 -29172727.0011063 -29172727.0011063 -14176597.94461118 0 0 0 0 0 55421911.35333665 -30473437.40509687 -30473437.40509687 -14215470.15773965 0 0 0 0 0 59359881.13837322 -30781713.10452185 -30781713.10452185 -14526976.46238008 0 0 0 0 0 63198050.13806081 -30904468.06516711 -30904468.06516711 -14857460.24965891 0 0 0 0 0 66915740.11363641 -30854985.14896053 -30854985.14896053 -15192517.84436126 0 0 0 0 0 71358223.79193629 -30078203.07200099 -30078203.07200099 -14935493.76166761 0 0 0 0 0 70087931.10797192 -29769997.14900247 -29769997.14900247 -14434480.01071768 0 0 0 0 0 74611192.79992233 -29721582.38808402 -29721582.38808402 -15267125.59207959 0 0 0 0 0 77708932.60686933 -29247906.5831716 -29247906.5831716 -15569228.78535944 0 0 0 0 0 80657143.38286436 -28675842.40383233 -28675842.40383233 -15842650.02021674 0 0 0 0 0 83444294.84000641 -28014513.95757541 -28014513.95757541 -16077183.30967524 0 0 0 0 0 86063542.84055218 -27277834.01370017 -27277834.01370017 -16268763.66166976 0 0 0 0 0 88519917.45227118 -26479533.26970713 -26479533.26970713 -16417713.60140022 0 0 0 0 0 90983821.89713022 -25581711.51381237 -25581711.51381237 -15607326.79831463 0 0 0 0 0 90736480.70973031 -25162031.65620119 -25162031.65620119 -16037531.71063828 0 0 0 0 0 92783799.91219844 -24310930.78228061 -24310930.78228061 -16115439.20325868 0 0 0 0 0 94687151.58260936 -23431554.16441898 -23431554.16441898 -16153192.48918317 0 0 0 0 0 96456505.49698839 -22540303.48794623 -22540303.48794623 -16148791.93493542 0 0 0 0 0 98060996.27444167 -21632825.61792673 -21632825.61792673 -16096352.53712465 0 0 0 0 0 99536051.73191178 -20730226.17660343 -20730226.17660343 -16026062.80969573 0 0 0 0 0 101195978.7539842 -20096685.64708601 -20096685.64708601 -15367980.90267131 0 0 0 0 0 100430404.6582449 -19587396.01589374 -19587396.01589374 -15520234.3488906 0 0 0 0 0 101652709.8442876 -18718118.44267892 -18718118.44267892 -15399327.08605366 0 0 0 0 0 102593676.8914865 -17954701.65011108 -17954701.65011108 -14409746.67969182 0 0 0 0 0 103584931.2070204 -17164240.99733016 -17164240.99733016 -14307218.00163662 0 0 0 0 0 103991791.9812689 -16221317.19359975 -16221317.19359975 -13812530.96464349 0 0 0 0 0 102786452.8819541 -16697666.90076965 -16697666.90076965 -14367957.7013372 0 0 0 0 0 104819831.0512516 -15477234.93605709 -15477234.93605709 -13691712.89220166 0 0 0 0 0 105565039.0983029 -14744494.30921432 -14744494.30921432 -13546175.29127875 0 0 0 0 0 106232969.6062934 -14032185.35718333 -14032185.35718333 -13388798.80804715 0 0 0 0 0 106831458.7457214 -13339637.05751769 -13339637.05751769 -13210827.45742337 0 0 0 0 0 106863759.7995237 -12615818.56032768 -12615818.56032768 -12737572.7627935 0 0 0 0 0 106041791.6009099 -12950447.56192481 -12950447.56192481 -13141331.09507722 0 0 0 0 0 107342505.6834605 -11982740.54084274 -11982740.54084274 -12547912.68161099 0 0 0 0 0 107769098.5720891 -11368921.39224575 -11368921.39224575 -12347059.93406378 0 0 0 0 0 108147334.8630088 -10774939.63332411 -10774939.63332411 -12136697.88116583 0 0 0 0 0 108479799.8383929 -10202130.29479717 -10202130.29479717 -11919231.72380647 0 0 0 0 0 108770461.4135959 -9650007.196111409 -9650007.196111409 -11694732.46673862 0 0 0 0 0 108061515.5940164 -9364285.408432428 -9364285.408432428 -11523718.71319129 0 0 0 0 0 108792880.5173737 -8655423.739788178 -8655423.739788178 -11045161.12200934 0 0 0 0 0 108330662.8615283 -8845463.545647955 -8845463.545647955 -11279322.29367906 0 0 0 0 0 108989103.9580368 -8172670.68295903 -8172670.68295903 -10818934.23971822 0 0 0 0 0 109156612.4181484 -7708573.298675242 -7708573.298675242 -10589526.60090234 0 0 0 0 0 109296719.0944517 -7262850.432165359 -7262850.432165359 -10358018.88836601 0 0 0 0 0 109412307.148801 -6835205.424934089 -6835205.424934089 -10124977.83981553 0 0 0 0 0 109112148.8513198 -6515202.421515883 -6515202.421515883 -9765973.502954375 0 0 0 0 0 108816583.944339 -6636084.885176193 -6636084.885176193 -9913081.312224083 0 0 0 0 0 109194220.6742347 -6129574.860230943 -6129574.860230943 -9543139.29293224 0 0 0 0 0 109256283.0449259 -5760855.660342573 -5760855.660342573 -9320979.399266049 0 0 0 0 0 109301419.376697 -5407920.573345821 -5407920.573345821 -9099334.846979562 0 0 0 0 0 109331043.9772249 -5069968.819340104 -5069968.819340104 -8878093.931657685 0 0 0 0 0 109346644.8576526 -4746466.735288569 -4746466.735288569 -8658078.358826656 0 0 0 0 0 108880540.006975 -4312961.200482523 -4312961.200482523 -8217889.621284828 0 0 0 0 0 109348994.3964611 -4437192.349666026 -4437192.349666026 -8440248.093336666 0 0 0 0 0 109023056.4820151 -4258180.186029484 -4258180.186029484 -8160474.714885534 0 0 0 0 0 109012523.0349587 -3979219.19119694 -3979219.19119694 -7955374.639130691 0 0 0 0 0 108991615.9431417 -3712820.635032717 -3712820.635032717 -7752795.600619921 0 0 0 0 0 108961451.6346045 -3458418.358084443 -3458418.358084443 -7552585.996978406 0 0 0 0 0 108920592.9574217 -3216795.637336887 -3216795.637336887 -7355791.537169678 0 0 0 0 0 108869161.2666263 -2995888.382979374 -2995888.382979374 -7171879.796000211 0 0 0 0 0 108497943.4818611 -2917418.565528785 -2917418.565528785 -6953543.113779618 0 0 0 0 0 108562929.1349149 -2899258.726908479 -2899258.726908479 -6948693.035999627 0 0 0 0 0 108506743.4317665 -2690801.162731971 -2690801.162731971 -6764258.097923596 0 0 0 0 0 108439989.210811 -2494569.174649696 -2494569.174649696 -6592878.195557845 0 0 0 0 0 108381707.3799946 -2308739.694645325 -2308739.694645325 -6412753.094229031 0 0 0 0 0 108061835.8063114 -2249501.728816276 -2249501.728816276 -6218196.342728958 0 0 0 0 0 108095973.2952122 -2242050.908911651 -2242050.908911651 -6226421.04483564 0 0 0 0 0 108035344.7173578 -2068140.900585 -2068140.900585 -6062155.884913698 0 0 0 0 0 107971026.61915 -1902237.598843547 -1902237.598843547 -5900880.113738757 0 0 0 0 0 107903427.9666009 -1743767.849925223 -1743767.849925223 -5742691.289908979 0 0 0 0 0 107829806.8819462 -1592290.37977356 -1592290.37977356 -5587159.619233308 0 0 0 0 0 107756860.6109523 -1456055.335669971 -1456055.335669971 -5442742.110016734 0 0 0 0 0 107631425.7215961 -1369544.616223313 -1369544.616223313 -5350397.010267528 0 0 0 0 0 107372760.2965689 -1286379.447804871 -1286379.447804871 -5193100.82343747 0 0 0 0 0 107469390.8008076 -1335871.099612953 -1335871.099612953 -5269806.899539682 0 0 0 0 0 107268170.6852842 -1218715.954865907 -1218715.954865907 -5071723.716972288 0 0 0 0 0 107156264.2085299 -1154235.80627387 -1154235.80627387 -4968508.260755708 0 0 0 0 0 103090544.8008334 -18158349.53108026 -18158349.53108026 -14790510.7261636 0 0 0 0 0 -1573378.806925496 402125.0633765597 402125.0633765597 -39916976.43016705 0 0 0 0 0 -767263.304062342 -1346325.771895388 -1346325.771895388 -35980341.8794804 0 0 0 0 0 2986030.820219406 -5447765.970578954 -5447765.970578954 -32258421.48026835 0 0 0 0 0 1996869.445773218 -5435715.01545414 -5435715.01545414 -28847545.91890788 0 0 0 0 0 4097889.376497349 -7493144.763718874 -7493144.763718874 -27139994.31835051 0 0 0 0 0 6603097.534355405 -9925516.204195458 -9925516.204195458 -25297129.71735305 0 0 0 0 0 9537899.191495715 -12411212.53479291 -12411212.53479291 -23617044.50029599 0 0 0 0 0 16003509.26658427 -16115482.80279635 -16115482.80279635 -18932893.28875381 0 0 0 0 0 14810788.31808741 -16805930.9673705 -16805930.9673705 -20310882.54439741 0 0 0 0 0 19740974.25590099 -18406058.26334497 -18406058.26334497 -17929154.82193895 0 0 0 0 0 23759436.72234168 -20560928.01182713 -20560928.01182713 -17082447.07769337 0 0 0 0 0 28002414.7286124 -22547611.47446128 -22547611.47446128 -16399804.72530737 0 0 0 0 0 32416711.22580776 -24341712.00640068 -24341712.00640068 -15876181.83150937 0 0 0 0 0 36949001.65566463 -25923450.03011234 -25923450.03011234 -15502956.05399448 0 0 0 0 0 41545055.74080975 -27280468.19441417 -27280468.19441417 -15266232.17150241 0 0 0 0 0 46156146.80682904 -28405414.20367164 -28405414.20367164 -15150036.73539071 0 0 0 0 0 50737565.14763062 -29297284.51514118 -29297284.51514118 -15135636.88567071 0 0 0 0 0 53715088.73144152 -30813094.60268552 -30813094.60268552 -14990979.72832082 0 0 0 0 0 56967343.6442902 -29735677.88740249 -29735677.88740249 -14347613.4226486 0 0 0 0 0 61149630.51657456 -30095054.26223929 -30095054.26223929 -14565378.58405187 0 0 0 0 0 65200199.04565356 -30261714.61049553 -30261714.61049553 -14814558.88561191 0 0 0 0 0 69098448.81843683 -30250450.34034488 -30250450.34034488 -15081895.46988902 0 0 0 0 0 73623500.18637279 -29569767.65297367 -29569767.65297367 -14742407.98632777 0 0 0 0 0 70494129.68044072 -30648202.83534235 -30648202.83534235 -15521277.01953838 0 0 0 0 0 76980962.57748911 -29234053.62464571 -29234053.62464571 -15035610.67118409 0 0 0 0 0 80160124.56243834 -28777675.98317558 -28777675.98317558 -15307673.21018397 0 0 0 0 0 83164156.52614763 -28217703.61745774 -28217703.61745774 -15554995.15007198 0 0 0 0 0 85982496.88459888 -27567822.83683003 -27567822.83683003 -15773385.19876336 0 0 0 0 0 88616467.87845105 -26840505.9117792 -26840505.9117792 -15956089.55266414 0 0 0 0 0 91067704.29665436 -26049686.14981202 -26049686.14981202 -16102534.52403922 0 0 0 0 0 90813046.00291406 -25631811.98041636 -25631811.98041636 -16523331.51596695 0 0 0 0 0 93160828.62893012 -24767843.41065721 -24767843.41065721 -15725822.98440208 0 0 0 0 0 95176695.92555276 -23919510.40400385 -23919510.40400385 -15809111.35830567 0 0 0 0 0 97038048.40090078 -23042825.09053601 -23042825.09053601 -15854738.65924384 0 0 0 0 0 98741550.16744156 -22153351.79716226 -22153351.79716226 -15866365.73381288 0 0 0 0 0 100294584.1238043 -21255339.78431242 -21255339.78431242 -15848207.56242717 0 0 0 0 0 101713061.7811302 -20347319.02522037 -20347319.02522037 -15778986.01637598 0 0 0 0 0 100885354.1737732 -19831672.22116988 -19831672.22116988 -15910616.70375453 0 0 0 0 0 102456831.7773411 -19227821.04196197 -19227821.04196197 -15278061.36919937 0 0 0 0 0 103602772.4807285 -18364307.88682391 -18364307.88682391 -15172213.09118026 0 0 0 0 0 102286739.5335303 -17672647.23059495 -17672647.23059495 -14878264.92051732 0 0 0 0 0 103275117.8526778 -16860613.19147388 -16860613.19147388 -14722182.22509309 0 0 0 0 0 103685112.8812348 -15928256.86858056 -15928256.86858056 -14222063.25175136 0 0 0 0 0 104497709.7176637 -16382350.89619911 -16382350.89619911 -14179095.30896401 0 0 0 0 0 104513874.8324422 -15164910.8103989 -15164910.8103989 -14042393.02513864 0 0 0 0 0 105256065.2872384 -14425130.99667848 -14425130.99667848 -13850362.41511422 0 0 0 0 0 105930810.8794718 -13702731.3410916 -13702731.3410916 -13639362.72947995 0 0 0 0 0 106534089.7847742 -13003192.54432025 -13003192.54432025 -13416754.74144231 0 0 0 0 0 106581209.2506106 -12293134.4058811 -12293134.4058811 -12923609.66180081 0 0 0 0 0 107368271.4491798 -12666270.02018024 -12666270.02018024 -13017398.44363017 0 0 0 0 0 107065710.9682725 -11656073.30920232 -11656073.30920232 -12695514.20788979 0 0 0 0 0 107498923.9930083 -11040046.77941827 -11040046.77941827 -12458604.24055083 0 0 0 0 0 107884441.4121967 -10445269.39798268 -10445269.39798268 -12213897.97896828 0 0 0 0 0 108225033.5477563 -9872500.046777381 -9872500.046777381 -11963505.68620159 0 0 0 0 0 108523778.4207164 -9320774.502763605 -9320774.502763605 -11708978.91924013 0 0 0 0 0 109025770.8434848 -9116255.147453329 -9116255.147453329 -11461753.79101429 0 0 0 0 0 108565675.7796472 -8346402.814098247 -8346402.814098247 -11031968.65992385 0 0 0 0 0 109246196.9020702 -8602217.139249505 -8602217.139249505 -11225800.13825332 0 0 0 0 0 108769385.9276218 -7866954.846382661 -7866954.846382661 -10782333.14772405 0 0 0 0 0 108944108.5099171 -7406445.158854026 -7406445.158854026 -10531491.82818934 0 0 0 0 0 109092436.6760477 -6964814.53035608 -6964814.53035608 -10279657.08412033 0 0 0 0 0 109215530.2177309 -6542034.434910013 -6542034.434910013 -10028442.90154376 0 0 0 0 0 108926039.2815926 -6238569.059116433 -6238569.059116433 -9673790.223974071 0 0 0 0 0 109505301.7144745 -6425375.673685243 -6425375.673685243 -9891301.058526089 0 0 0 0 0 109015158.6055529 -5858111.63696623 -5858111.63696623 -9435333.536041193 0 0 0 0 0 109085262.9906376 -5493911.237251165 -5493911.237251165 -9197822.971820995 0 0 0 0 0 109137359.7951584 -5146144.033289645 -5146144.033289645 -8962903.262770178 0 0 0 0 0 109173678.0817356 -4813595.066942941 -4813595.066942941 -8730265.263201509 0 0 0 0 0 109195651.4486244 -4495595.669636413 -4495595.669636413 -8499914.143215919 0 0 0 0 0 109339254.6171815 -4142071.497157456 -4142071.497157456 -8224957.048038274 0 0 0 0 0 109204541.7998486 -4192071.601859296 -4192071.601859296 -8272323.319135995 0 0 0 0 0 108886493.7174229 -4026480.871638073 -4026480.871638073 -8001839.367681403 0 0 0 0 0 108881153.364386 -3753124.804867759 -3753124.804867759 -7789187.549395298 0 0 0 0 0 108866009.5128511 -3491960.522279831 -3491960.522279831 -7579150.339153131 0 0 0 0 0 108841421.3908649 -3243106.491031896 -3243106.491031896 -7371996.226769874 0 0 0 0 0 108813203.0704126 -3010690.832185943 -3010690.832185943 -7165146.852832107 0 0 0 0 0 108765063.5209334 -2792312.568553966 -2792312.568553966 -6971184.079390094 0 0 0 0 0 108811538.6219343 -2785624.610540765 -2785624.610540765 -6986260.13487597 0 0 0 0 0 108445961.5281984 -2706663.590476975 -2706663.590476975 -6765017.491464376 0 0 0 0 0 108390931.5706559 -2506263.710982028 -2506263.710982028 -6582665.980803918 0 0 0 0 0 108351645.657842 -2314221.233034257 -2314221.233034257 -6400406.687647929 0 0 0 0 0 108291449.6307423 -2130020.514119185 -2130020.514119185 -6224345.604187653 0 0 0 0 0 108318113.5684859 -2126708.816881481 -2126708.816881481 -6240439.715255911 0 0 0 0 0 108009625.5211544 -2071686.478015519 -2071686.478015519 -6047986.587133776 0 0 0 0 0 107952851.1392023 -1902240.513331189 -1902240.513331189 -5881193.391493174 0 0 0 0 0 107892142.1415556 -1740563.312939379 -1740563.312939379 -5718075.231105984 0 0 0 0 0 107827432.6935591 -1585734.31305439 -1585734.31305439 -5559232.890139579 0 0 0 0 0 107762200.1999101 -1443259.1780839 -1443259.1780839 -5396191.114474885 0 0 0 0 0 107703465.0215842 -1318735.176389616 -1318735.176389616 -5235144.349132276 0 0 0 0 0 107665027.7894937 -1237697.690280426 -1237697.690280426 -5102717.326226716 0 0 0 0 0 107570407.4601143 -1178442.666059003 -1178442.666059003 -5023240.616109404 0 0 0 0 0 107460976.4432969 -1121847.407742895 -1121847.407742895 -4917426.165628613 0 0 0 0 0 107341833.9037374 -1057529.879719549 -1057529.879719549 -4813557.135055799 0 0 0 0 0 102768483.8442261 -17860659.33434937 -17860659.33434937 -15253394.8323387 0 0 0 0 0 -2374592.177579674 -1758956.692772596 -1758956.692772596 -43582037.52996017 0 0 0 0 0 -1474236.782094219 -3209063.846067011 -3209063.846067011 -40063385.5514109 0 0 0 0 0 274462.1257352449 -4954223.269878859 -4954223.269878859 -37850289.11152189 0 0 0 0 0 898.5271789318922 -3976627.155871077 -3976627.155871077 -33315996.21902241 0 0 0 0 0 4113764.907537203 -8155621.577750576 -8155621.577750576 -29939802.74409364 0 0 0 0 0 6302147.804612539 -10634545.00609359 -10634545.00609359 -27710280.88560713 0 0 0 0 0 8889638.270155529 -13116295.43220663 -13116295.43220663 -25639200.99511975 0 0 0 0 0 11872878.11925956 -15597766.09561376 -15597766.09561376 -23736246.07764694 0 0 0 0 0 18198453.57700815 -19132692.01661488 -19132692.01661488 -19070860.9769685 0 0 0 0 0 12894626.88155783 -14882533.4575507 -14882533.4575507 -22078083.96393285 0 0 0 0 0 21886825.18001167 -21331125.16636541 -21331125.16636541 -18034793.72083492 0 0 0 0 0 25817852.64245742 -23367403.13471853 -23367403.13471853 -17204893.18037339 0 0 0 0 0 29946592.61026894 -25213819.35930832 -25213819.35930832 -16574450.89177259 0 0 0 0 0 34224682.90149046 -26848016.00408483 -26848016.00408483 -16130492.49788342 0 0 0 0 0 38604440.02456445 -28255231.12734232 -28255231.12734232 -15854076.4936342 0 0 0 0 0 43037819.03496429 -29425836.72543585 -29425836.72543585 -15722113.02499012 0 0 0 0 0 47481042.60347755 -30356991.96009369 -30356991.96009369 -15709998.85941846 0 0 0 0 0 51893140.1824392 -31052285.55161357 -31052285.55161357 -15794975.33656763 0 0 0 0 0 55247581.8287297 -29960318.33605834 -29960318.33605834 -15204753.26894829 0 0 0 0 0 57850865.06073103 -31192211.50947595 -31192211.50947595 -15234005.25398841 0 0 0 0 0 61887468.23795555 -31371227.57835844 -31371227.57835844 -15510296.39903342 0 0 0 0 0 65800285.99786574 -31363251.09574941 -31363251.09574941 -15803007.75439468 0 0 0 0 0 69567050.54572552 -31184407.74021734 -31184407.74021734 -16097585.16899909 0 0 0 0 0 73915239.22488861 -30299597.93864752 -30299597.93864752 -15830486.42040749 0 0 0 0 0 72824323.66592486 -30076062.36401598 -30076062.36401598 -15353373.13000999 0 0 0 0 0 77171321.78768133 -29824372.09007875 -29824372.09007875 -16114570.49177758 0 0 0 0 0 80262611.04387705 -29241463.4127527 -29241463.4127527 -16371616.63833728 0 0 0 0 0 83185805.3082877 -28562638.94769425 -28562638.94769425 -16590590.40102389 0 0 0 0 0 85931381.24982193 -27802739.30761435 -27802739.30761435 -16769536.34183726 0 0 0 0 0 88501814.23985516 -26976008.41394206 -26976008.41394206 -16906124.58846522 0 0 0 0 0 90898153.32205358 -26095507.86440996 -26095507.86440996 -16999133.45622141 0 0 0 0 0 93341402.07966729 -25206403.61646279 -25206403.61646279 -16208033.89645118 0 0 0 0 0 92948649.76994041 -24745660.28385286 -24745660.28385286 -16587646.41501875 0 0 0 0 0 94928203.28743619 -23830161.95417608 -23830161.95417608 -16610786.84011736 0 0 0 0 0 96761975.84806597 -22897450.60933232 -22897450.60933232 -16593620.78488694 0 0 0 0 0 98439976.21360509 -21953033.57773621 -21953033.57773621 -16540231.92902721 0 0 0 0 0 99979622.99571282 -21006681.4620305 -21006681.4620305 -16439773.88162486 0 0 0 0 0 101386507.0939762 -20061236.89051055 -20061236.89051055 -16314791.20280286 0 0 0 0 0 102988126.489078 -19455208.17130467 -19455208.17130467 -15692861.44763505 0 0 0 0 0 102128236.0720069 -18930365.05244034 -18930365.05244034 -15773798.46701295 0 0 0 0 0 103264648.0602695 -18045524.28388606 -18045524.28388606 -15622458.67582391 0 0 0 0 0 104108258.1949648 -17340822.19159377 -17340822.19159377 -14678154.48624594 0 0 0 0 0 105026815.0239378 -16535434.05403672 -16535434.05403672 -14547443.9297267 0 0 0 0 0 105334177.5657279 -15610116.05047855 -15610116.05047855 -14035104.16734271 0 0 0 0 0 104179952.191473 -16065948.19005862 -16065948.19005862 -14561186.17633875 0 0 0 0 0 106082312.0364964 -14853374.73476116 -14853374.73476116 -13876938.6077533 0 0 0 0 0 106755480.3902104 -14118926.62429815 -14118926.62429815 -13697143.00473278 0 0 0 0 0 107358373.3047517 -13401133.06958547 -13401133.06958547 -13503165.03815006 0 0 0 0 0 107896451.6364603 -12705353.50700246 -12705353.50700246 -13293417.68003995 0 0 0 0 0 107846763.9493008 -12012592.56125235 -12012592.56125235 -12811725.27365656 0 0 0 0 0 107076059.7221392 -12324288.93905516 -12324288.93905516 -13182271.92300429 0 0 0 0 0 108271506.5710186 -11379488.31067874 -11379488.31067874 -12595239.10590358 0 0 0 0 0 108645889.1206708 -10767700.32447091 -10767700.32447091 -12369456.40630562 0 0 0 0 0 108973326.06225 -10178101.03819348 -10178101.03819348 -12136776.65851243 0 0 0 0 0 109257975.8012015 -9610558.96291386 -9610558.96291386 -11897075.79561492 0 0 0 0 0 109504570.6182191 -9063281.821172085 -9063281.821172085 -11651074.4264545 0 0 0 0 0 108785073.1653223 -8789716.984364195 -8789716.984364195 -11451304.79559284 0 0 0 0 0 109434009.9653667 -8108044.322866979 -8108044.322866979 -10986305.18030053 0 0 0 0 0 109013268.2371751 -8278634.694565938 -8278634.694565938 -11190129.24772336 0 0 0 0 0 109591920.6266821 -7633583.341923634 -7633583.341923634 -10744199.49862624 0 0 0 0 0 109723286.557799 -7178116.837340412 -7178116.837340412 -10499934.39059797 0 0 0 0 0 109828738.3360796 -6741961.266014505 -6741961.266014505 -10255077.95477577 0 0 0 0 0 109911229.9382754 -6324464.607401066 -6324464.607401066 -10009739.92174595 0 0 0 0 0 109577499.7407853 -6032952.71309429 -6032952.71309429 -9657498.386789571 0 0 0 0 0 109315979.3290836 -6137338.387771381 -6137338.387771381 -9777828.074876312 0 0 0 0 0 109630546.2777817 -5657594.450677121 -5657594.450677121 -9424331.16212647 0 0 0 0 0 109665667.9316644 -5298795.678939427 -5298795.678939427 -9192777.213591065 0 0 0 0 0 109685199.6155872 -4955810.951838626 -4955810.951838626 -8961946.477589777 0 0 0 0 0 109690724.8154365 -4627977.339628358 -4627977.339628358 -8732764.624682488 0 0 0 0 0 109683140.332031 -4315030.149070689 -4315030.149070689 -8506032.368913034 0 0 0 0 0 109201042.1862948 -3902694.189005229 -3902694.189005229 -8048131.097613662 0 0 0 0 0 109663359.3655722 -4016729.004326333 -4016729.004326333 -8282263.675355073 0 0 0 0 0 109318766.5615017 -3860432.881532658 -3860432.881532658 -8012178.325307543 0 0 0 0 0 109288820.6485677 -3591535.933341095 -3591535.933341095 -7801670.29929286 0 0 0 0 0 109249674.368065 -3334862.628446329 -3334862.628446329 -7594428.998231078 0 0 0 0 0 109201940.6161812 -3090147.492647876 -3090147.492647876 -7390051.719889787 0 0 0 0 0 109134238.9924715 -2869626.975992347 -2869626.975992347 -7201279.208832752 0 0 0 0 0 109066550.9175855 -2661839.985070347 -2661839.985070347 -7012403.69790284 0 0 0 0 0 108704125.1747864 -2585971.835337509 -2585971.835337509 -6781547.703526855 0 0 0 0 0 108749475.1341826 -2578238.793360921 -2578238.793360921 -6794086.269985756 0 0 0 0 0 108685561.8153321 -2375911.70007463 -2375911.70007463 -6604328.180983081 0 0 0 0 0 108614698.3995362 -2185674.234513102 -2185674.234513102 -6428930.730819236 0 0 0 0 0 108543948.4277799 -2004752.909141295 -2004752.909141295 -6249160.216561939 0 0 0 0 0 108231304.6092034 -1951861.119168022 -1951861.119168022 -6049294.315888271 0 0 0 0 0 108250139.1223983 -1952359.184559088 -1952359.184559088 -6071648.731816947 0 0 0 0 0 108178759.9421123 -1786416.369038255 -1786416.369038255 -5905932.104826691 0 0 0 0 0 108104555.7226316 -1628412.328868246 -1628412.328868246 -5743612.52910724 0 0 0 0 0 108028496.4560892 -1477463.110609393 -1477463.110609393 -5584834.182897951 0 0 0 0 0 107927495.2714232 -1341330.586639142 -1341330.586639142 -5436831.497460864 0 0 0 0 0 107814214.6731178 -1240970.390604896 -1240970.390604896 -5317691.914134242 0 0 0 0 0 107679757.0555933 -1167996.966241656 -1167996.966241656 -5220659.534238451 0 0 0 0 0 107542738.0859988 -1122177.11122292 -1122177.11122292 -5127588.998955712 0 0 0 0 0 107427024.4019581 -1060728.627968367 -1060728.627968367 -5020640.645764641 0 0 0 0 0 107315116.1169148 -999785.2781220775 -999785.2781220775 -4908882.244772787 0 0 0 0 0 104645543.6127337 -17510443.01537411 -17510443.01537411 -15048089.07463815 0 0 0 0 0 -2929117.217666437 787812.8698545804 787812.8698545804 -47921271.16833933 0 0 0 0 0 -2468600.798571452 -606675.1630701924 -606675.1630701924 -43277811.14243956 0 0 0 0 0 -1550274.386632253 -2247517.449762767 -2247517.449762767 -39889044.36865445 0 0 0 0 0 1578837.234921639 -7117677.669117935 -7117677.669117935 -35836372.22541759 0 0 0 0 0 1684779.746721454 -6019935.604551575 -6019935.604551575 -31923135.80355434 0 0 0 0 0 3803431.758083034 -8335541.010426884 -8335541.010426884 -29871747.74307419 0 0 0 0 0 6543575.72036597 -10791756.84467768 -10791756.84467768 -27779187.17425616 0 0 0 0 0 9778670.195913319 -13317977.20547912 -13317977.20547912 -25787253.33631371 0 0 0 0 0 16625814.20432848 -17289092.50797103 -17289092.50797103 -20702384.56206467 0 0 0 0 0 15231798.56507196 -18026523.2519192 -18026523.2519192 -22044867.63439571 0 0 0 0 0 20681001.74820872 -19585421.06374509 -19585421.06374509 -19511859.11978387 0 0 0 0 0 25005367.37193792 -21732456.16014351 -21732456.16014351 -18511648.49056146 0 0 0 0 0 29541718.01434043 -23695238.26956673 -23695238.26956673 -17704376.36237795 0 0 0 0 0 34233860.29144839 -25447386.10835338 -25447386.10835338 -17081294.61456238 0 0 0 0 0 39022081.27753419 -26969039.85016773 -26969039.85016773 -16629080.27417631 0 0 0 0 0 43845221.54969472 -28248405.28466663 -28248405.28466663 -16330017.9309585 0 0 0 0 0 48649567.12746397 -29280067.29214007 -29280067.29214007 -16163496.82147389 0 0 0 0 0 53392047.51347397 -30065857.42363263 -30065857.42363263 -16107607.33662076 0 0 0 0 0 56237325.44196765 -31518711.78323871 -31518711.78323871 -15953281.14305739 0 0 0 0 0 59651847.46964341 -30403454.59734916 -30403454.59734916 -15339403.18824927 0 0 0 0 0 63921112.15127242 -30638217.94003291 -30638217.94003291 -15521434.20012802 0 0 0 0 0 68029329.42118095 -30678818.40134618 -30678818.40134618 -15734497.39800317 0 0 0 0 0 71960623.45555587 -30541730.71464124 -30541730.71464124 -15962612.19192027 0 0 0 0 0 76365491.49138856 -29755152.25123472 -29755152.25123472 -15618121.74832506 0 0 0 0 0 73170733.59913319 -30850739.82615186 -30850739.82615186 -16382112.88356386 0 0 0 0 0 79712233.49226424 -29303407.18616929 -29303407.18616929 -15867463.5821526 0 0 0 0 0 82869636.34581111 -28737317.72101015 -28737317.72101015 -16092087.58138906 0 0 0 0 0 85828752.23776267 -28073464.878336 -28073464.878336 -16291263.4044686 0 0 0 0 0 88590728.28459062 -27326050.47464955 -27326050.47464955 -16457980.83764403 0 0 0 0 0 91156777.28844498 -26509505.81807995 -26509505.81807995 -16588683.74384461 0 0 0 0 0 93531967.69808611 -25637015.71360914 -25637015.71360914 -16681058.73841719 0 0 0 0 0 93125947.49803388 -25173618.44529185 -25173618.44529185 -17049390.68008866 0 0 0 0 0 95440835.04667369 -24325261.99017038 -24325261.99017038 -16277743.34079102 0 0 0 0 0 97372858.52405491 -23414691.26700768 -23414691.26700768 -16308722.10402553 0 0 0 0 0 99143011.54850672 -22486658.49245403 -22486658.49245403 -16303979.00095891 0 0 0 0 0 100761033.4309417 -21545438.41236011 -21545438.41236011 -16260164.86633478 0 0 0 0 0 102232234.8835827 -20602115.4255745 -20602115.4255745 -16183312.90822201 0 0 0 0 0 103571496.7737101 -19653782.44411456 -19653782.44411456 -16068194.0961355 0 0 0 0 0 102661456.8190077 -19110619.91124201 -19110619.91124201 -16120789.0008814 0 0 0 0 0 104139828.1669669 -18561695.10984366 -18561695.10984366 -15554453.93503278 0 0 0 0 0 105210032.1745796 -17672763.28115739 -17672763.28115739 -15406721.76131818 0 0 0 0 0 103782178.7893805 -17018939.85607571 -17018939.85607571 -15082519.76272448 0 0 0 0 0 104702078.1597025 -16191374.55530223 -16191374.55530223 -14889081.06084445 0 0 0 0 0 105014956.7881852 -15277641.51921985 -15277641.51921985 -14364514.95621369 0 0 0 0 0 105870630.6918655 -15732908.46587648 -15732908.46587648 -14374656.17006595 0 0 0 0 0 105768585.3989968 -14512675.34721808 -14512675.34721808 -14153041.86298663 0 0 0 0 0 106441677.742317 -13767479.70336409 -13767479.70336409 -13926781.73666128 0 0 0 0 0 107050637.8630939 -13043990.83853261 -13043990.83853261 -13686621.64314753 0 0 0 0 0 107594479.1530725 -12343196.53507668 -12343196.53507668 -13434632.41983252 0 0 0 0 0 107560895.272971 -11667042.65720382 -11667042.65720382 -12937506.9702222 0 0 0 0 0 108374346.7590488 -12030673.38703336 -12030673.38703336 -13071159.14132288 0 0 0 0 0 107992626.5583187 -11032124.87602844 -11032124.87602844 -12684231.32541773 0 0 0 0 0 108375160.5094512 -10420069.2795103 -10420069.2795103 -12424041.03844472 0 0 0 0 0 108711303.6048263 -9831024.599761842 -9831024.599761842 -12157377.4706594 0 0 0 0 0 109004212.3591297 -9264656.311453119 -9264656.311453119 -11887839.46213919 0 0 0 0 0 109258470.4330289 -8721126.10602716 -8721126.10602716 -11615419.80440907 0 0 0 0 0 109716632.2238856 -8537168.278226299 -8537168.278226299 -11400380.23569442 0 0 0 0 0 109209071.0964765 -7788120.37633404 -7788120.37633404 -10927192.37505045 0 0 0 0 0 109895200.4685114 -8031457.61938748 -8031457.61938748 -11147209.31082981 0 0 0 0 0 109375259.1370659 -7317806.776568113 -7317806.776568113 -10663209.07215601 0 0 0 0 0 109513885.9460689 -6867470.348435015 -6867470.348435015 -10399320.67972796 0 0 0 0 0 109628032.6198614 -6436412.128583151 -6436412.128583151 -10135833.16156744 0 0 0 0 0 109718605.6627438 -6024650.858854073 -6024650.858854073 -9873818.499055116 0 0 0 0 0 109395474.1144071 -5750387.268787197 -5750387.268787197 -9528661.529000737 0 0 0 0 0 109972738.3221729 -5925330.144151065 -5925330.144151065 -9765008.141961189 0 0 0 0 0 109455694.6904617 -5380536.1429522 -5380536.1429522 -9281629.914357491 0 0 0 0 0 109498854.8745866 -5027205.459947242 -5027205.459947242 -9036241.265244944 0 0 0 0 0 109525473.8882245 -4690151.814298813 -4690151.814298813 -8794141.582721528 0 0 0 0 0 109537717.4932974 -4368428.893273089 -4368428.893273089 -8554883.236060111 0 0 0 0 0 109536681.1930569 -4061734.482699647 -4061734.482699647 -8318921.055316219 0 0 0 0 0 109632804.8794022 -3732428.208821339 -3732428.208821339 -8061313.985816223 0 0 0 0 0 109523571.8492436 -3769514.843554088 -3769514.843554088 -8086440.60601447 0 0 0 0 0 109186671.8079148 -3626813.30202585 -3626813.30202585 -7827529.326200218 0 0 0 0 0 109162239.5503436 -3363599.613824251 -3363599.613824251 -7610859.701965905 0 0 0 0 0 109128736.1549986 -3112648.518001605 -3112648.518001605 -7397651.158725435 0 0 0 0 0 109089591.6759135 -2877599.746066015 -2877599.746066015 -7182998.261909635 0 0 0 0 0 109039330.7824169 -2657222.404465092 -2657222.404465092 -6976135.942125889 0 0 0 0 0 108964774.5393012 -2455643.564032704 -2455643.564032704 -6790147.488876166 0 0 0 0 0 108997243.7418921 -2453947.59374415 -2453947.59374415 -6814207.992102492 0 0 0 0 0 108641601.7856586 -2385925.89991946 -2385925.89991946 -6595434.831327174 0 0 0 0 0 108582475.4889425 -2189585.244240838 -2189585.244240838 -6407964.188283045 0 0 0 0 0 108525539.9326725 -2003437.055130511 -2003437.055130511 -6224106.520186272 0 0 0 0 0 108457156.1875017 -1825660.96203441 -1825660.96203441 -6044114.301748555 0 0 0 0 0 108468509.9483127 -1830491.879217407 -1830491.879217407 -6075119.993591894 0 0 0 0 0 108167530.2409556 -1782335.557700747 -1782335.557700747 -5877970.500355039 0 0 0 0 0 108100041.7001217 -1621063.560473513 -1621063.560473513 -5710294.405295087 0 0 0 0 0 108029347.2032072 -1467443.412778397 -1467443.412778397 -5546990.677933997 0 0 0 0 0 107956125.3545152 -1319331.811684086 -1319331.811684086 -5385073.15273177 0 0 0 0 0 107902188.6867299 -1182501.62220157 -1182501.62220157 -5199066.553382369 0 0 0 0 0 107833314.3554497 -1081619.205264652 -1081619.205264652 -5064485.680326474 0 0 0 0 0 107740789.0035679 -1016461.116210881 -1016461.116210881 -4955113.159988252 0 0 0 0 0 107621216.6215645 -957114.2806692885 -957114.2806692885 -4854599.520977259 0 0 0 0 0 107510105.6747038 -899345.0589882877 -899345.0589882877 -4748619.519331855 0 0 0 0 0 104308845.9711764 -17168469.28254678 -17168469.28254678 -15429875.03670065 0 0 0 0 0 -3523474.629771964 -1767542.704502573 -1767542.704502573 -52269183.51635883 0 0 0 0 0 -2968788.192266102 -2425025.984139395 -2425025.984139395 -47992448.21593367 0 0 0 0 0 -1872904.916584309 -3933523.273667249 -3933523.273667249 -44787269.65769899 0 0 0 0 0 -640107.8473358691 -5644749.212154659 -5644749.212154659 -42575298.66327432 0 0 0 0 0 -407866.5684109489 -4411460.528598718 -4411460.528598718 -37635794.02296202 0 0 0 0 0 3529272.299882513 -9220121.795040196 -9220121.795040196 -32992055.95841993 0 0 0 0 0 6107500.839159715 -11568568.48508261 -11568568.48508261 -30311394.79827813 0 0 0 0 0 8970983.246334825 -14068407.11678919 -14068407.11678919 -27813315.99302135 0 0 0 0 0 12255466.1186657 -16579615.15231427 -16579615.15231427 -25559223.4241081 0 0 0 0 0 18923986.04952433 -20356241.91010701 -20356241.91010701 -20591726.54598605 0 0 0 0 0 13448368.82313022 -15833170.112471 -15833170.112471 -23964647.52686154 0 0 0 0 0 22907022.03551589 -22545510.88311088 -22545510.88311088 -19384718.23344709 0 0 0 0 0 27126652.99029382 -24557340.87204902 -24557340.87204902 -18422646.39066969 0 0 0 0 0 31530606.18717223 -26361673.33827614 -26361673.33827614 -17691447.93602412 0 0 0 0 0 36066396.37337067 -27935972.46342286 -27935972.46342286 -17174016.21785593 0 0 0 0 0 40679529.3914483 -29264883.67668261 -29264883.67668261 -16841683.26302829 0 0 0 0 0 45319719.43317232 -30340576.47579977 -30340576.47579977 -16666798.13230438 0 0 0 0 0 49943606.0332199 -31163211.8578082 -31163211.8578082 -16620858.8430054 0 0 0 0 0 54505715.95716707 -31738803.824189 -31738803.824189 -16675718.97861316 0 0 0 0 0 58031211.83542571 -30613218.43806139 -30613218.43806139 -16140393.40302875 0 0 0 0 0 60482130.24614747 -31768442.30098973 -31768442.30098973 -16163717.65969952 0 0 0 0 0 64598547.56794202 -31815556.51498149 -31815556.51498149 -16405485.56878285 0 0 0 0 0 68564983.88770641 -31675635.42219026 -31675635.42219026 -16660804.43694747 0 0 0 0 0 72362053.11005501 -31367277.53266997 -31367277.53266997 -16915866.92263637 0 0 0 0 0 76597726.78615437 -30380268.30869829 -30380268.30869829 -16646660.03180868 0 0 0 0 0 75696377.59278943 -30243937.12887105 -30243937.12887105 -16193964.3814212 0 0 0 0 0 79843528.10224773 -29790259.60501929 -29790259.60501929 -16885412.2829123 0 0 0 0 0 82910942.85269235 -29097196.63362134 -29097196.63362134 -17089249.01412649 0 0 0 0 0 85791017.07646954 -28316505.79766143 -28316505.79766143 -17254709.08684555 0 0 0 0 0 88483522.6134335 -27462622.24806341 -27462622.24806341 -17378007.0989866 0 0 0 0 0 90989706.32468489 -26550287.55183252 -26550287.55183252 -17457989.35509349 0 0 0 0 0 93314674.62433134 -25593212.31520587 -25593212.31520587 -17494405.42453529 0 0 0 0 0 95721021.58879864 -24722455.51654378 -24722455.51654378 -16735553.22273489 0 0 0 0 0 95186368.09586744 -24221222.02601416 -24221222.02601416 -17057046.09018321 0 0 0 0 0 97087232.05114608 -23249368.40729316 -23249368.40729316 -17024134.73215245 0 0 0 0 0 98830545.2106328 -22265028.84117809 -22265028.84117809 -16952211.30419051 0 0 0 0 0 100427494.2477877 -21274797.02738675 -21274797.02738675 -16843503.94346048 0 0 0 0 0 101882571.6609991 -20285732.96846799 -20285732.96846799 -16699128.0339221 0 0 0 0 0 103215884.1430015 -19312138.08911031 -19312138.08911031 -16513598.97045164 0 0 0 0 0 104735743.0653597 -18744756.10721618 -18744756.10721618 -15968367.30417239 0 0 0 0 0 103793940.3938923 -18219112.69447273 -18219112.69447273 -15980566.32844184 0 0 0 0 0 104856734.3785508 -17307845.79652371 -17307845.79652371 -15770685.00349761 0 0 0 0 0 105585430.3403653 -16673640.66939856 -16673640.66939856 -14894157.36554621 0 0 0 0 0 106436143.265024 -15846223.52487403 -15846223.52487403 -14714511.8932237 0 0 0 0 0 106627876.9629134 -14952371.67266853 -14952371.67266853 -14198472.21301316 0 0 0 0 0 105541161.8159422 -15381483.26829735 -15381483.26829735 -14680803.11718707 0 0 0 0 0 107306826.9909739 -14191735.3817124 -14191735.3817124 -14003650.81052859 0 0 0 0 0 107911388.7412885 -13451525.47029666 -13451525.47029666 -13790283.61812788 0 0 0 0 0 108449445.9323549 -12732251.22814218 -12732251.22814218 -13563848.62041206 0 0 0 0 0 108925254.2204477 -12036423.73184133 -12036423.73184133 -13324804.55757582 0 0 0 0 0 108796189.2317775 -11378129.16422126 -11378129.16422126 -12838537.07774051 0 0 0 0 0 108078826.2537941 -11665589.59491902 -11665589.59491902 -13172985.20753576 0 0 0 0 0 109165989.7842337 -10748105.4784616 -10748105.4784616 -12596768.84393718 0 0 0 0 0 109487734.6768379 -10141219.56972826 -10141219.56972826 -12347668.55675273 0 0 0 0 0 109764776.6188338 -9558226.513030335 -9558226.513030335 -12093453.35620475 0 0 0 0 0 110002656.0211618 -8997632.571540998 -8997632.571540998 -11832608.15563671 0 0 0 0 0 110204373.1358946 -8459169.574806035 -8459169.574806035 -11567816.07893642 0 0 0 0 0 109477906.4830863 -8198290.009942255 -8198290.009942255 -11340241.60035986 0 0 0 0 0 110043388.8548301 -7546408.866559615 -7546408.866559615 -10891696.51563887 0 0 0 0 0 109664872.4810519 -7696853.127146303 -7696853.127146303 -11063655.69770639 0 0 0 0 0 110163469.5976008 -7081791.455218264 -7081791.455218264 -10635002.80344462 0 0 0 0 0 110258557.6664503 -6637133.847730107 -6637133.847730107 -10377501.95158629 0 0 0 0 0 110330100.2255197 -6211953.11190207 -6211953.11190207 -10120423.21274757 0 0 0 0 0 110380318.1458524 -5806022.591452273 -5806022.591452273 -9864123.287640778 0 0 0 0 0 110015009.2953414 -5543903.766182816 -5543903.766182816 -9521172.248994501 0 0 0 0 0 109788073.8007227 -5631404.026426231 -5631404.026426231 -9613726.471466403 0 0 0 0 0 110040083.7455078 -5179288.552702997 -5179288.552702997 -9278354.192311373 0 0 0 0 0 110049001.8290007 -4831513.839013349 -4831513.839013349 -9038139.984245218 0 0 0 0 0 110043780.61854 -4499643.287748345 -4499643.287748345 -8799691.608666942 0 0 0 0 0 110025421.756745 -4183304.947753503 -4183304.947753503 -8564100.879203407 0 0 0 0 0 109995113.1629809 -3882021.471874851 -3882021.471874851 -8331642.826242109 0 0 0 0 0 109499393.6291839 -3491288.161116011 -3491288.161116011 -7857953.785270629 0 0 0 0 0 109954078.2403175 -3595137.279029319 -3595137.279029319 -8102585.309324482 0 0 0 0 0 109592785.7758624 -3461368.827589405 -3461368.827589405 -7843326.523982571 0 0 0 0 0 109544520.3855466 -3203101.816259196 -3203101.816259196 -7628611.586989708 0 0 0 0 0 109487322.8234713 -2957123.177126137 -2957123.177126137 -7418076.202102666 0 0 0 0 0 109412377.7207962 -2731776.798218452 -2731776.798218452 -7220268.357821695 0 0 0 0 0 109328236.941597 -2523437.868509277 -2523437.868509277 -7030608.087212519 0 0 0 0 0 109255265.228831 -2316052.370209801 -2316052.370209801 -6823107.992568612 0 0 0 0 0 108897887.3640794 -2253752.528302475 -2253752.528302475 -6597060.074107534 0 0 0 0 0 108926864.6411583 -2251252.913264851 -2251252.913264851 -6618809.761206196 0 0 0 0 0 108851571.5708619 -2058624.644861522 -2058624.644861522 -6432676.784198666 0 0 0 0 0 108772722.1704621 -1875423.597960382 -1875423.597960382 -6252056.26413023 0 0 0 0 0 108690095.2370217 -1702153.399385324 -1702153.399385324 -6072392.983239017 0 0 0 0 0 108385754.8611923 -1656304.307181055 -1656304.307181055 -5868306.214900589 0 0 0 0 0 108389786.8300764 -1664623.81534918 -1664623.81534918 -5904876.05545225 0 0 0 0 0 108308015.990196 -1506947.985821509 -1506947.985821509 -5738171.597479811 0 0 0 0 0 108224472.6020369 -1357320.453719369 -1357320.453719369 -5575218.938719607 0 0 0 0 0 108137874.0513983 -1213889.113024312 -1213889.113024312 -5414620.535010757 0 0 0 0 0 108007373.1883167 -1089004.68029667 -1089004.68029667 -5273599.747128421 0 0 0 0 0 107843368.2146448 -1009326.570587725 -1009326.570587725 -5174539.366037405 0 0 0 0 0 107714396.9720367 -956325.1530652065 -956325.1530652065 -5061308.49297919 0 0 0 0 0 107591210.2827556 -897868.4029188007 -897868.4029188007 -4953070.991926807 0 0 0 0 0 107470474.1032182 -840103.0358737458 -840103.0358737458 -4846561.514802759 0 0 0 0 0 106171769.9673093 -16802169.96896674 -16802169.96896674 -15238777.58787426 0 0 0 0 0 -3927011.717216284 1334065.901037708 1334065.901037708 -57542978.97385795 0 0 0 0 0 -3631413.988224457 157365.4480024302 157365.4480024302 -51781336.97146272 0 0 0 0 0 -3340308.437713609 -1041932.645502721 -1041932.645502721 -47541614.69368185 0 0 0 0 0 -2244402.934450881 -2677582.145390783 -2677582.145390783 -44232289.17969651 0 0 0 0 0 1176893.466434213 -7512531.322972546 -7512531.322972546 -39399202.4417816 0 0 0 0 0 1379717.84796241 -6476010.921711726 -6476010.921711726 -35380346.70431617 0 0 0 0 0 3681107.498536428 -8805621.180888718 -8805621.180888718 -32771008.63941151 0 0 0 0 0 6712153.880489618 -11353333.42350509 -11353333.42350509 -30200545.53392766 0 0 0 0 0 10246483.26557257 -13962955.32776156 -13962955.32776156 -27819660.67709482 0 0 0 0 0 17499371.11764922 -18277844.63361166 -18277844.63361166 -22347176.53065368 0 0 0 0 0 15917817.40595893 -19040479.85515405 -19040479.85515405 -23584235.33839995 0 0 0 0 0 21873153.75707018 -20599657.85683784 -20599657.85683784 -20956849.2340642 0 0 0 0 0 26508647.6395999 -22753965.65293317 -22753965.65293317 -19797480.67876551 0 0 0 0 0 31341647.79075143 -24703233.75560161 -24703233.75560161 -18864926.69812226 0 0 0 0 0 36316424.35996072 -26420502.00647007 -26420502.00647007 -18144977.47814937 0 0 0 0 0 41351522.99530982 -27884228.30911065 -27884228.30911065 -17618838.69108208 0 0 0 0 0 46393105.92296367 -29085705.27890766 -29085705.27890766 -17264584.02225121 0 0 0 0 0 51378689.05287356 -30021667.68906324 -30021667.68906324 -17053958.48907471 0 0 0 0 0 56268662.2879031 -30698652.48735103 -30698652.48735103 -16962199.71426518 0 0 0 0 0 58970375.74494825 -32078111.5729107 -32078111.5729107 -16805556.40905603 0 0 0 0 0 62533845.55231242 -30933525.71389307 -30933525.71389307 -16239958.43361698 0 0 0 0 0 66870616.57827441 -31041734.67840054 -31041734.67840054 -16387329.02122647 0 0 0 0 0 71019256.01609758 -30955417.75126465 -30955417.75126465 -16564161.7658462 0 0 0 0 0 74963477.76545909 -30691697.45478055 -30691697.45478055 -16753809.94508422 0 0 0 0 0 79226285.35277048 -29803726.62271751 -29803726.62271751 -16415626.09746001 0 0 0 0 0 75973909.18436548 -30908771.24350094 -30908771.24350094 -17156873.2189978 0 0 0 0 0 82547032.09888604 -29236764.45954955 -29236764.45954955 -16615989.89331665 0 0 0 0 0 85658260.94624785 -28563284.20640632 -28563284.20640632 -16795434.18809035 0 0 0 0 0 88558087.21068886 -27798729.86175555 -27798729.86175555 -16944794.93904064 0 0 0 0 0 91247350.03997995 -26958373.73235146 -26958373.73235146 -17059597.04347725 0 0 0 0 0 93731627.0395664 -26057536.40676893 -26057536.40676893 -17137353.6240759 0 0 0 0 0 96015934.84595387 -25110255.31144542 -25110255.31144542 -17176757.50312592 0 0 0 0 0 95461624.44763497 -24603447.58069144 -24603447.58069144 -17487620.96682643 0 0 0 0 0 97730493.29608741 -23776912.86217132 -23776912.86217132 -16751712.14527719 0 0 0 0 0 99567663.21060999 -22811202.69198944 -22811202.69198944 -16730034.34948228 0 0 0 0 0 101242927.9762924 -21831945.98332186 -21831945.98332186 -16670043.50143335 0 0 0 0 0 102764788.1491629 -20847090.0774823 -20847090.0774823 -16576052.77750726 0 0 0 0 0 104144112.0100439 -19862193.7203113 -19862193.7203113 -16446155.18869517 0 0 0 0 0 105359623.6153242 -18904136.85517944 -18904136.85517944 -16304855.24254535 0 0 0 0 0 104394084.5310627 -18353177.09269148 -18353177.09269148 -16284617.66353816 0 0 0 0 0 105800102.6883667 -17821672.49580808 -17821672.49580808 -15753100.97964833 0 0 0 0 0 106784304.4936896 -16921035.47175304 -16921035.47175304 -15570656.81982613 0 0 0 0 0 105246470.0874448 -16309340.47829764 -16309340.47829764 -15219071.05361168 0 0 0 0 0 106098920.4790408 -15471365.35717984 -15471365.35717984 -14986742.90861902 0 0 0 0 0 106300193.4079898 -14589715.06039491 -14589715.06039491 -14452298.7477653 0 0 0 0 0 107199952.9127404 -15040976.22881887 -15040976.22881887 -14516491.67067889 0 0 0 0 0 106983283.9409492 -13819281.23417171 -13819281.23417171 -14206969.83689941 0 0 0 0 0 107592591.554985 -13071842.11461978 -13071842.11461978 -13948644.55143898 0 0 0 0 0 108137321.4647579 -12348906.79291053 -12348906.79291053 -13679067.10627354 0 0 0 0 0 108620254.3004282 -11650794.80876709 -11650794.80876709 -13399867.07895905 0 0 0 0 0 108508404.9890051 -11011410.61369495 -11011410.61369495 -12902697.74119852 0 0 0 0 0 109343600.6172995 -11363959.95241109 -11363959.95241109 -13075100.91448306 0 0 0 0 0 108886611.7034659 -10381785.44792224 -10381785.44792224 -12626119.12276793 0 0 0 0 0 109217667.0829976 -9776671.666022226 -9776671.666022226 -12344439.09273706 0 0 0 0 0 109504499.0236897 -9195520.214691322 -9195520.214691322 -12057191.56099629 0 0 0 0 0 109749867.5356754 -8639095.766773436 -8639095.766773436 -11771029.6574499 0 0 0 0 0 109960677.7149232 -8104320.703493264 -8104320.703493264 -11480516.71240271 0 0 0 0 0 110372703.4864772 -7942271.922930505 -7942271.922930505 -11300260.38876332 0 0 0 0 0 109821719.4146709 -7216606.074911236 -7216606.074911236 -10786476.65080861 0 0 0 0 0 110510368.6417459 -7446794.872687523 -7446794.872687523 -11031031.96096969 0 0 0 0 0 109950974.9145622 -6757345.020259999 -6757345.020259999 -10509568.60917534 0 0 0 0 0 110054020.3093118 -6318674.180702816 -6318674.180702816 -10234093.20409269 0 0 0 0 0 110133984.6260993 -5900032.593494669 -5900032.593494669 -9960664.066963652 0 0 0 0 0 110192594.0540463 -5500683.4632503 -5500683.4632503 -9689312.489029873 0 0 0 0 0 109838083.0591194 -5255952.154981362 -5255952.154981362 -9355945.517174214 0 0 0 0 0 110411449.3287587 -5418632.726490864 -5418632.726490864 -9609264.730091926 0 0 0 0 0 109870431.9292166 -4897792.990176881 -4897792.990176881 -9101038.448456055 0 0 0 0 0 109886975.6059293 -4556396.773827267 -4556396.773827267 -8849241.146834506 0 0 0 0 0 109888830.9135659 -4231124.245392286 -4231124.245392286 -8600972.145800857 0 0 0 0 0 109877479.0337466 -3921392.541306038 -3921392.541306038 -8356431.936877949 0 0 0 0 0 109854016.4391783 -3626611.094672669 -3626611.094672669 -8115978.218788139 0 0 0 0 0 109903648.2447647 -3322029.928454764 -3322029.928454764 -7876763.493234566 0 0 0 0 0 109819585.6334098 -3346301.925397971 -3346301.925397971 -7879620.439334019 0 0 0 0 0 109465473.5564278 -3226525.573256454 -3226525.573256454 -7633518.350755817 0 0 0 0 0 109422881.0976485 -2974062.088160518 -2974062.088160518 -7413770.972294091 0 0 0 0 0 109374427.4841166 -2736305.229575974 -2736305.229575974 -7195755.298283704 0 0 0 0 0 109318634.9615222 -2511457.956143886 -2511457.956143886 -6977828.359770781 0 0 0 0 0 109240452.6479106 -2309066.206543496 -2309066.206543496 -6779884.321544567 0 0 0 0 0 109157675.7569522 -2110984.991820113 -2110984.991820113 -6588059.407635758 0 0 0 0 0 109175961.2595485 -2115216.664216694 -2115216.664216694 -6624456.708016992 0 0 0 0 0 108830978.071424 -2057011.704279691 -2057011.704279691 -6404104.259832906 0 0 0 0 0 108760056.5537993 -1869626.271779774 -1869626.271779774 -6215886.731193754 0 0 0 0 0 108686627.421151 -1692568.483426471 -1692568.483426471 -6031540.009211618 0 0 0 0 0 108607526.9619342 -1523952.786947187 -1523952.786947187 -5851527.958270297 0 0 0 0 0 108604018.3399248 -1536778.164141274 -1536778.164141274 -5897363.8353562 0 0 0 0 0 108311038.7218829 -1495303.247199027 -1495303.247199027 -5696386.525025269 0 0 0 0 0 108233379.4279916 -1342572.822098554 -1342572.822098554 -5527800.993429748 0 0 0 0 0 108152461.3946925 -1195788.301568567 -1195788.301568567 -5362634.746380236 0 0 0 0 0 108070240.8719901 -1050204.883649015 -1050204.883649015 -5194275.747715431 0 0 0 0 0 108041011.8209239 -900543.0108148911 -900543.0108148911 -4992063.688166415 0 0 0 0 0 107924556.4199553 -844544.6721703864 -844544.6721703864 -4882788.418319743 0 0 0 0 0 107798075.7941431 -789165.7223650631 -789165.7223650631 -4779423.461859054 0 0 0 0 0 107672733.0549821 -733623.4871759652 -733623.4871759652 -4676393.617413882 0 0 0 0 0 105820125.1465858 -16415575.43886512 -16415575.43886512 -15537878.35303322 0 0 0 0 0 -3957481.333519858 -1719686.998695187 -1719686.998695187 -62484819.88680214 0 0 0 0 0 -3934136.100438755 -1536671.549350595 -1536671.549350595 -55980469.97290214 0 0 0 0 0 -2804459.817949319 -2388557.120223039 -2388557.120223039 -53179390.1257978 0 0 0 0 0 -1960196.238522934 -3551847.49455582 -3551847.49455582 -50655730.38302854 0 0 0 0 0 -688000.8617667685 -5358502.053187393 -5358502.053187393 -47034398.80813819 0 0 0 0 0 -830677.3510372959 -4292840.601651867 -4292840.601651867 -41906530.96246355 0 0 0 0 0 3417216.812341077 -9690290.114595143 -9690290.114595143 -35901375.96470945 0 0 0 0 0 6182506.270594334 -12147246.78457857 -12147246.78457857 -32695386.96104435 0 0 0 0 0 9319742.613892619 -14717432.42445321 -14717432.42445321 -29733075.59378818 0 0 0 0 0 12893107.67198202 -17304351.11198906 -17304351.11198906 -27106436.14500466 0 0 0 0 0 19914966.34665586 -21393389.82577801 -21393389.82577801 -21906529.15219438 0 0 0 0 0 14232940.82250494 -16559146.96100224 -16559146.96100224 -25675388.35338506 0 0 0 0 0 24195023.92612638 -23591273.59809396 -23591273.59809396 -20529722.05754906 0 0 0 0 0 28702186.26447544 -25591853.11030044 -25591853.11030044 -19442370.27232738 0 0 0 0 0 33382301.21528451 -27363067.89950569 -27363067.89950569 -18622198.62973529 0 0 0 0 0 38172470.19507688 -28882204.46163481 -28882204.46163481 -18040850.35830092 0 0 0 0 0 43013696.61777977 -30133279.52499156 -30133279.52499156 -17664369.62107816 0 0 0 0 0 47851102.57713883 -31112691.2677911 -31112691.2677911 -17458219.75672446 0 0 0 0 0 52641139.80753749 -31824127.69909206 -31824127.69909206 -17388369.80595931 0 0 0 0 0 57336810.52282119 -32277305.76385444 -32277305.76385444 -17421558.28233573 0 0 0 0 0 61021018.57155403 -31127030.1990847 -31127030.1990847 -16962160.92681495 0 0 0 0 0 63305853.97008573 -32196349.00237572 -32196349.00237572 -16986355.48125044 0 0 0 0 0 67483123.38066937 -32109488.24306119 -32109488.24306119 -17195602.04811295 0 0 0 0 0 71485346.62875929 -31837919.3050194 -31837919.3050194 -17415867.3482294 0 0 0 0 0 75294231.62865667 -31400812.20789927 -31400812.20789927 -17632007.09797205 0 0 0 0 0 79388477.35994968 -30317605.70787653 -30317605.70787653 -17375191.36901395 0 0 0 0 0 78690229.35980773 -30271147.92260239 -30271147.92260239 -16944236.48520179 0 0 0 0 0 82613141.4514177 -29615017.727527 -29615017.727527 -17563546.58706406 0 0 0 0 0 85637719.50064944 -28816081.13800818 -28816081.13800818 -17715184.46171473 0 0 0 0 0 88461097.30649227 -27937050.60361122 -27937050.60361122 -17825249.61540433 0 0 0 0 0 91085076.86551407 -26994411.23631525 -26994411.23631525 -17892467.08698672 0 0 0 0 0 93513935.1377915 -26002434.66053982 -26002434.66053982 -17915297.79828449 0 0 0 0 0 95752289.88000214 -24975133.67772272 -24975133.67772272 -17894601.15829735 0 0 0 0 0 98108275.07205261 -24129341.89362134 -24129341.89362134 -17177411.20505245 0 0 0 0 0 97436621.04433767 -23591846.45301576 -23591846.45301576 -17438876.90795432 0 0 0 0 0 99245243.09084757 -22567457.48329213 -22567457.48329213 -17350620.27338047 0 0 0 0 0 100897774.9067265 -21537911.63984372 -21537911.63984372 -17225126.75239169 0 0 0 0 0 102402819.2994148 -20510070.22641133 -20510070.22641133 -17064265.93738003 0 0 0 0 0 103777035.275291 -19498926.52451095 -19498926.52451095 -16869979.65428977 0 0 0 0 0 104993156.222919 -18505202.49912807 -18505202.49912807 -16635236.03346786 0 0 0 0 0 106440408.3900247 -17957894.00322156 -17957894.00322156 -16132063.2962587 0 0 0 0 0 105440269.3216404 -17433083.67655718 -17433083.67655718 -16098513.17275467 0 0 0 0 0 106416944.2067014 -16509058.97777513 -16509058.97777513 -15845029.79410595 0 0 0 0 0 107033595.9080996 -15947012.52895365 -15947012.52895365 -15042666.53543907 0 0 0 0 0 107801159.1004157 -15115938.48514407 -15115938.48514407 -14829969.04582908 0 0 0 0 0 107883914.5371345 -14253874.23323743 -14253874.23323743 -14302029.3004044 0 0 0 0 0 106860635.8371874 -14654321.83619253 -14654321.83619253 -14742564.10546191 0 0 0 0 0 108490836.0995965 -13488191.3829648 -13488191.3829648 -14071605.60874331 0 0 0 0 0 109028137.3116329 -12746317.02582132 -12746317.02582132 -13826660.66219539 0 0 0 0 0 109500803.9136559 -12028850.78540927 -12028850.78540927 -13570359.95601189 0 0 0 0 0 109913899.8473999 -11336487.08289213 -11336487.08289213 -13303493.00828624 0 0 0 0 0 109708216.3046217 -10715567.64967086 -10715567.64967086 -12816940.72424826 0 0 0 0 0 109046213.8520337 -10977716.00478279 -10977716.00478279 -13112475.27368477 0 0 0 0 0 110023093.5370754 -10091720.072236 -10091720.072236 -12551344.3009716 0 0 0 0 0 110292549.8149998 -9492521.621156549 -9492521.621156549 -12280210.53205078 0 0 0 0 0 110518991.6708501 -8919068.59534269 -8919068.59534269 -12006806.11417728 0 0 0 0 0 110710293.4625975 -8367360.435431047 -8367360.435431047 -11726023.26613373 0 0 0 0 0 110866415.5220787 -7839459.452754965 -7839459.452754965 -11444764.13439332 0 0 0 0 0 110137107.7464377 -7592566.371123408 -7592566.371123408 -11190365.43001737 0 0 0 0 0 110619604.2782435 -6972676.15210806 -6972676.15210806 -10760974.29237317 0 0 0 0 0 110283192.9102444 -7102867.343021509 -7102867.343021509 -10900062.04120602 0 0 0 0 0 110702441.2981333 -6519740.82280624 -6519740.82280624 -10491167.19059032 0 0 0 0 0 110761871.869155 -6087431.287269062 -6087431.287269062 -10221927.61621515 0 0 0 0 0 110800271.8924561 -5674934.484037517 -5674934.484037517 -9953929.002466908 0 0 0 0 0 110819162.1171562 -5281774.45710018 -5281774.45710018 -9688069.462091679 0 0 0 0 0 110424844.2232794 -5049029.725881439 -5049029.725881439 -9356301.041120673 0 0 0 0 0 110231742.7541291 -5119834.218656546 -5119834.218656546 -9420844.335722914 0 0 0 0 0 110422489.2963202 -4696717.804289001 -4696717.804289001 -9105673.762080619 0 0 0 0 0 110405805.9580893 -4361020.205488919 -4361020.205488919 -8857946.290004449 0 0 0 0 0 110376144.417963 -4041483.515242061 -4041483.515242061 -8613313.620886721 0 0 0 0 0 110334699.8060551 -3737456.421316102 -3737456.421316102 -8372228.94968555 0 0 0 0 0 110282746.416832 -3448314.739468524 -3448314.739468524 -8134850.165794783 0 0 0 0 0 109775336.0234552 -3079920.80745858 -3079920.80745858 -7647839.292017875 0 0 0 0 0 110221267.310864 -3173452.364080901 -3173452.364080901 -7901452.793602242 0 0 0 0 0 109844846.7023323 -3062153.519986856 -3062153.519986856 -7654489.113026421 0 0 0 0 0 109779793.5958964 -2815141.094937461 -2815141.094937461 -7436428.697087603 0 0 0 0 0 109700970.4807674 -2582270.32270611 -2582270.32270611 -7224982.538961379 0 0 0 0 0 109608134.9202754 -2371465.767295265 -2371465.767295265 -7030198.270542815 0 0 0 0 0 109515811.6343658 -2169948.13643508 -2169948.13643508 -6828803.17271299 0 0 0 0 0 109428934.0011531 -1972597.640513945 -1972597.640513945 -6623039.676023855 0 0 0 0 0 109080733.0669032 -1916638.657030629 -1916638.657030629 -6392797.427880838 0 0 0 0 0 109092667.4305243 -1923502.133238126 -1923502.133238126 -6432299.980441435 0 0 0 0 0 109005278.079717 -1740668.049634758 -1740668.049634758 -6244915.208053397 0 0 0 0 0 108914469.2814847 -1567237.403132772 -1567237.403132772 -6062267.274235925 0 0 0 0 0 108820828.8433617 -1402890.593118489 -1402890.593118489 -5882819.574539587 0 0 0 0 0 108525252.1893523 -1363591.649304725 -1363591.649304725 -5675904.098481028 0 0 0 0 0 108515177.4489556 -1379446.029739923 -1379446.029739923 -5726334.556741404 0 0 0 0 0 108423879.2300368 -1229784.213310648 -1229784.213310648 -5558905.608970287 0 0 0 0 0 108337512.5580759 -1082609.552290191 -1082609.552290191 -5389656.581634978 0 0 0 0 0 108259399.8868152 -926929.7827826989 -926929.7827826989 -5204463.021930872 0 0 0 0 0 107999794.4062193 -845413.1036957799 -845413.1036957799 -5088299.277720733 0 0 0 0 0 107880438.8610877 -786050.6653284535 -786050.6653284535 -4981314.701356458 0 0 0 0 0 107749643.3206073 -730324.9872735066 -730324.9872735066 -4876397.382453135 0 0 0 0 0 107625432.8966812 -676506.6903084432 -676506.6903084432 -4769905.906042087 0 0 0 0 0 107659854.4264834 -16034799.0384665 -16034799.0384665 -15359527.98257386 0 0 0 0 0 -4540429.726950198 2273050.397407582 2273050.397407582 -68544812.34602499 0 0 0 0 0 -2971138.070206166 -307859.8369486852 -307859.8369486852 -62011954.46713931 0 0 0 0 0 -4115160.837619383 -138598.9388370679 -138598.9388370679 -55141082.66632994 0 0 0 0 0 -3654513.390662756 -692400.3779853731 -692400.3779853731 -52282407.94891139 0 0 0 0 0 -2647012.299647857 -1783288.308889826 -1783288.308889826 -49466660.04941099 0 0 0 0 0 1249170.396486247 -7327938.884167554 -7327938.884167554 -42682959.25871978 0 0 0 0 0 1115491.465813531 -6378947.281009539 -6378947.281009539 -38818158.45696329 0 0 0 0 0 3754945.033521124 -8892516.331967982 -8892516.331967982 -35490056.80114254 0 0 0 0 0 7066067.094244846 -11582187.0233514 -11582187.0233514 -32405180.28585065 0 0 0 0 0 10914455.59342775 -14333154.49998056 -14333154.49998056 -29600846.15466147 0 0 0 0 0 18608250.20880799 -19073189.12599716 -19073189.12599716 -23798361.39225977 0 0 0 0 0 16858200.3348789 -19831816.04791261 -19831816.04791261 -24837138.08912087 0 0 0 0 0 23308576.15924633 -21445571.55207158 -21445571.55207158 -22201701.43222924 0 0 0 0 0 28265138.97423746 -23625987.46754368 -23625987.46754368 -20884619.59930133 0 0 0 0 0 33403056.08117594 -25574750.87821657 -25574750.87821657 -19832877.25905461 0 0 0 0 0 38648968.62213576 -27261130.55331028 -27261130.55331028 -19026491.93479543 0 0 0 0 0 43931455.73196062 -28669306.43000279 -28669306.43000279 -18440228.52077924 0 0 0 0 0 49182086.61818375 -29791417.11315914 -29791417.11315914 -18040219.10116718 0 0 0 0 0 54336710.69922473 -30629343.44944812 -30629343.44944812 -17795686.23824368 0 0 0 0 0 59357785.52153845 -31193983.62923886 -31193983.62923886 -17675907.95291114 0 0 0 0 0 61904519.08701891 -32487626.19088869 -32487626.19088869 -17529883.0075823 0 0 0 0 0 65602936.71542601 -31321946.07999381 -31321946.07999381 -17030783.395927 0 0 0 0 0 69988879.19765922 -31302055.65973997 -31302055.65973997 -17146324.18483746 0 0 0 0 0 74157429.00525954 -31086708.32870448 -31086708.32870448 -17288890.47503571 0 0 0 0 0 78094473.63261642 -30696313.42050061 -30696313.42050061 -17441040.42768337 0 0 0 0 0 82191920.95558451 -29710520.65766412 -29710520.65766412 -17120301.59017063 0 0 0 0 0 78895908.97970168 -30817364.81985925 -30817364.81985925 -17829167.20104377 0 0 0 0 0 85465454.70656967 -29032709.52383693 -29032709.52383693 -17277718.19826711 0 0 0 0 0 88513984.38976771 -28254517.2726467 -28254517.2726467 -17408226.65768186 0 0 0 0 0 91336325.80156714 -27393309.03546628 -27393309.03546628 -17506700.43779869 0 0 0 0 0 93937778.9606449 -26465747.70173012 -26465747.70173012 -17569272.23318342 0 0 0 0 0 96324273.69944312 -25486768.6055836 -25486768.6055836 -17593753.18274545 0 0 0 0 0 98505233.46358016 -24470604.30357503 -24470604.30357503 -17579394.2765386 0 0 0 0 0 97806840.92129216 -23923913.36893677 -23923913.36893677 -17831063.55781562 0 0 0 0 0 100016936.8322402 -23125767.02326647 -23125767.02326647 -17139757.77056916 0 0 0 0 0 101752291.0724225 -22108419.4182246 -22108419.4182246 -17063807.09146378 0 0 0 0 0 103324552.4265949 -21085629.26755596 -21085629.26755596 -16952100.75211755 0 0 0 0 0 104743314.5256405 -20064509.72394042 -20064509.72394042 -16807300.23651042 0 0 0 0 0 106004907.5355868 -19060116.50623171 -19060116.50623171 -16637261.7654726 0 0 0 0 0 107117903.2677733 -18082479.7816641 -18082479.7816641 -16441132.44550543 0 0 0 0 0 106081149.2844847 -17536337.25605877 -17536337.25605877 -16376695.74275401 0 0 0 0 0 107425753.6677227 -17020416.75131297 -17020416.75131297 -15887674.51546949 0 0 0 0 0 108317949.1860768 -16109695.59115823 -16109695.59115823 -15657944.99025852 0 0 0 0 0 106684669.5702799 -15546486.7657306 -15546486.7657306 -15286471.93399891 0 0 0 0 0 107455144.1770728 -14701229.31399718 -14701229.31399718 -15018296.4581137 0 0 0 0 0 107548889.6150646 -13857187.03876453 -13857187.03876453 -14478168.70774469 0 0 0 0 0 108488776.9255354 -14301981.45702552 -14301981.45702552 -14592317.85219759 0 0 0 0 0 108161762.6952688 -13085927.32493369 -13085927.32493369 -14201280.69360072 0 0 0 0 0 108705916.9597182 -12340281.72739564 -12340281.72739564 -13913121.1392475 0 0 0 0 0 109186368.5770421 -11621259.54127739 -11621259.54127739 -13615907.02480196 0 0 0 0 0 109607826.3918234 -10929158.82864816 -10929158.82864816 -13310924.889479 0 0 0 0 0 109419566.3391297 -10330141.78711511 -10330141.78711511 -12818690.96891768 0 0 0 0 0 110271990.406047 -10669834.48888561 -10669834.48888561 -13028262.0563728 0 0 0 0 0 109744118.8202822 -9708254.243039902 -9708254.243039902 -12520390.71010631 0 0 0 0 0 110024427.4041848 -9112131.861925293 -9112131.861925293 -12218381.34760829 0 0 0 0 0 110262449.9386242 -8541274.333759632 -8541274.333759632 -11914150.33232553 0 0 0 0 0 110461842.8438996 -7995390.883149775 -7995390.883149775 -11610048.7142174 0 0 0 0 0 110627847.7794113 -7473361.204675588 -7473361.204675588 -11304913.75519128 0 0 0 0 0 110992237.5568267 -7334176.543932992 -7334176.543932992 -11161320.11150058 0 0 0 0 0 110401479.9601951 -6634788.060267465 -6634788.060267465 -10610251.82700573 0 0 0 0 0 111089791.9072778 -6851146.041108452 -6851146.041108452 -10877654.71265582 0 0 0 0 0 110494185.5917645 -6188289.445132819 -6188289.445132819 -10321991.79644616 0 0 0 0 0 110562264.7607578 -5763050.570943553 -5763050.570943553 -10036731.77002728 0 0 0 0 0 110608951.7860349 -5358038.110605566 -5358038.110605566 -9754870.430387011 0 0 0 0 0 110636956.5801699 -4971734.314357609 -4971734.314357609 -9474777.213816984 0 0 0 0 0 110252951.5706086 -4757235.041177345 -4757235.041177345 -9155934.441225568 0 0 0 0 0 110820242.0940244 -4907410.364700262 -4907410.364700262 -9424682.074557228 0 0 0 0 0 110258178.7434915 -4411881.104993022 -4411881.104993022 -8894596.165449636 0 0 0 0 0 110249005.264796 -4083297.034657627 -4083297.034657627 -8637204.264885982 0 0 0 0 0 110226557.8955043 -3770854.282313235 -3770854.282313235 -8384173.53894336 0 0 0 0 0 110192172.3654092 -3473861.386083552 -3473861.386083552 -8135548.191228449 0 0 0 0 0 110146948.3803538 -3191774.65585441 -3191774.65585441 -7891808.233464478 0 0 0 0 0 110151649.8315275 -2912228.307765374 -2912228.307765374 -7671850.758255911 0 0 0 0 0 110092168.2270644 -2923924.890874098 -2923924.890874098 -7652595.808418512 0 0 0 0 0 109722797.1616054 -2826920.672286459 -2826920.672286459 -7420173.464953556 0 0 0 0 0 109663094.7728002 -2586154.258531901 -2586154.258531901 -7198903.596879085 0 0 0 0 0 109598158.395921 -2358741.747237658 -2358741.747237658 -6974191.301843577 0 0 0 0 0 109516535.9487636 -2153236.484801113 -2153236.484801113 -6767341.894142218 0 0 0 0 0 109429479.8928666 -1957406.21524165 -1957406.21524165 -6566455.908790181 0 0 0 0 0 109334030.6883996 -1769000.445546121 -1769000.445546121 -6372850.902137188 0 0 0 0 0 109337329.1597443 -1781146.038007697 -1781146.038007697 -6423480.408023142 0 0 0 0 0 109001420.3156244 -1730022.596659254 -1730022.596659254 -6199526.717219588 0 0 0 0 0 108918508.3724993 -1552846.008918986 -1552846.008918986 -6010947.996777869 0 0 0 0 0 108832345.8269841 -1385128.436610279 -1385128.436610279 -5826565.573634003 0 0 0 0 0 108742505.2306116 -1225845.694278728 -1225845.694278728 -5647051.46056103 0 0 0 0 0 108724360.9695832 -1246635.940856504 -1246635.940856504 -5707806.841247319 0 0 0 0 0 108440111.9443754 -1211254.393489432 -1211254.393489432 -5504790.98584886 0 0 0 0 0 108351479.706079 -1065680.532461459 -1065680.532461459 -5339285.612295761 0 0 0 0 0 108248823.5521183 -924505.0824707565 -924505.0824707565 -5181496.761597141 0 0 0 0 0 108123335.4714358 -808897.4211709072 -808897.4211709072 -5064458.904933574 0 0 0 0 0 108117168.7163095 -667778.3464074139 -667778.3464074139 -4792735.201673004 0 0 0 0 0 108258578.6879245 -706701.7743678438 -706701.7743678438 -4897371.349120757 0 0 0 0 0 107967472.3582806 -616026.2485170281 -616026.2485170281 -4693857.229054105 0 0 0 0 0 107836168.9862429 -564994.3297109116 -564994.3297109116 -4591752.407067508 0 0 0 0 0 107297466.2864782 -15607586.4788305 -15607586.4788305 -15571920.10627818 0 0 0 0 0 -2828210.637901192 -1077110.588185983 -1077110.588185983 -75049410.73891141 0 0 0 0 0 -3791123.990920684 -697192.803495377 -697192.803495377 -69749341.50248051 0 0 0 0 0 -3859989.598724693 770090.3117273594 770090.3117273594 -62215757.61363769 0 0 0 0 0 -2981116.177677524 -1184231.924228471 -1184231.924228471 -60296978.46846949 0 0 0 0 0 -2063970.532704412 -2675979.179705626 -2675979.179705626 -56758775.9376777 0 0 0 0 0 -458418.4493393021 -4416848.642451814 -4416848.642451814 -50890944.85727076 0 0 0 0 0 -1274689.854092657 -3441229.227494007 -3441229.227494007 -45882473.8563712 0 0 0 0 0 3542325.416838274 -9733699.11572006 -9733699.11572006 -38514320.79734785 0 0 0 0 0 6497314.513980061 -12338018.53344223 -12338018.53344223 -34706211.98151483 0 0 0 0 0 9898374.316895518 -15049024.64753323 -15049024.64753323 -31267857.07891164 0 0 0 0 0 13762232.83001214 -17759911.25863199 -17759911.25863199 -28258200.44850653 0 0 0 0 0 21158657.69275967 -22238958.67170054 -22238958.67170054 -22941534.00179563 0 0 0 0 0 15219159.60951993 -17056974.08050723 -17056974.08050723 -27117106.39626872 0 0 0 0 0 25738400.43486831 -24468234.15790364 -24468234.15790364 -21408003.21566118 0 0 0 0 0 30537493.54742859 -26472972.42565625 -26472972.42565625 -20212271.84419354 0 0 0 0 0 35497104.5971627 -28219788.72298824 -28219788.72298824 -19321170.65722179 0 0 0 0 0 40535726.40200616 -29685128.62718644 -29685128.62718644 -18697044.86543723 0 0 0 0 0 45597245.9514953 -30859016.98406423 -30859016.98406423 -18294541.24414724 0 0 0 0 0 50620864.25270835 -31740589.96476071 -31740589.96476071 -18072639.55193661 0 0 0 0 0 55561755.47954626 -32338301.98863319 -32338301.98863319 -17991661.61592629 0 0 0 0 0 60376044.507131 -32666922.37921929 -32666922.37921929 -18014969.72074254 0 0 0 0 0 64205374.10858178 -31499800.93004557 -31499800.93004557 -17650496.49176092 0 0 0 0 0 66310513.74763596 -32472301.12074241 -32472301.12074241 -17686132.46104599 0 0 0 0 0 70532098.60781856 -32251982.34849598 -32251982.34849598 -17867175.02509568 0 0 0 0 0 74549957.26887143 -31848014.52682049 -31848014.52682049 -18054277.24039721 0 0 0 0 0 78351477.52259044 -31282465.29871333 -31282465.29871333 -18232370.74135151 0 0 0 0 0 82288873.0885037 -30109657.32801836 -30109657.32801836 -18000985.55084425 0 0 0 0 0 81792364.91409279 -30152769.76920415 -30152769.76920415 -17590868.14337004 0 0 0 0 0 85466905.97004269 -29297427.51126656 -29297427.51126656 -18139754.95640705 0 0 0 0 0 88431335.02156195 -28396361.78981788 -28396361.78981788 -18237476.51337358 0 0 0 0 0 91181463.38718598 -27425138.12215362 -27425138.12215362 -18292715.31975615 0 0 0 0 0 93721721.79237266 -26399479.34511767 -26399479.34511767 -18303150.11743323 0 0 0 0 0 96057763.11707839 -25335069.73665299 -25335069.73665299 -18269845.57670796 0 0 0 0 0 98197326.74877375 -24244116.85009024 -24244116.85009024 -18192458.36726741 0 0 0 0 0 100489709.9649489 -23429347.87895472 -23429347.87895472 -17526037.15816457 0 0 0 0 0 99685081.30950719 -22859005.25339321 -22859005.25339321 -17726602.51424967 0 0 0 0 0 101396501.9994191 -21789325.41887525 -21789325.41887525 -17584085.59176033 0 0 0 0 0 102950455.9021385 -20721890.11899113 -20721890.11899113 -17405856.16574601 0 0 0 0 0 104360915.3219761 -19669664.66175614 -19669664.66175614 -17194736.12302117 0 0 0 0 0 105620097.9454837 -18633637.52197811 -18633637.52197811 -16944301.61904758 0 0 0 0 0 106734916.4276727 -17621266.46386337 -17621266.46386337 -16671758.20487445 0 0 0 0 0 108111332.992206 -17121110.04846953 -17121110.04846953 -16214786.875938 0 0 0 0 0 107053026.0908026 -16588276.04164447 -16588276.04164447 -16129225.52995255 0 0 0 0 0 107938095.9549152 -15654776.228527 -15654776.228527 -15841501.48436356 0 0 0 0 0 108437199.9040429 -15173353.01349914 -15173353.01349914 -15127450.27549701 0 0 0 0 0 109125451.8675133 -14333957.7266786 -14333957.7266786 -14874221.053857 0 0 0 0 0 109097672.9129931 -13511206.53623597 -13511206.53623597 -14343381.87684229 0 0 0 0 0 108143580.2708244 -13880328.22908657 -13880328.22908657 -14737296.81181468 0 0 0 0 0 109633602.34635 -12745859.98639011 -12745859.98639011 -14080480.56647468 0 0 0 0 0 110102086.9389578 -12006708.8299795 -12006708.8299795 -13805912.23907778 0 0 0 0 0 110508828.2715172 -11294292.3007097 -11294292.3007097 -13521453.41712193 0 0 0 0 0 110858390.6450655 -10609323.14882178 -10609323.14882178 -13229078.02090241 0 0 0 0 0 110579217.6122916 -10028849.49330565 -10028849.49330565 -12746212.37733938 0 0 0 0 0 109974579.7676868 -10264138.04890667 -10264138.04890667 -13000251.56617943 0 0 0 0 0 110839891.7463756 -9413568.910370901 -9413568.910370901 -12458435.69206716 0 0 0 0 0 111056849.7062532 -8824563.084397845 -8824563.084397845 -12167373.68080192 0 0 0 0 0 111235596.4682101 -8260592.134944371 -8260592.134944371 -11873579.82332291 0 0 0 0 0 111379659.3358754 -7721617.677406766 -7721617.677406766 -11577018.11390887 0 0 0 0 0 111490576.5005927 -7207163.309232916 -7207163.309232916 -11280784.72665242 0 0 0 0 0 110761371.9251395 -6975171.438262864 -6975171.438262864 -11001618.52230995 0 0 0 0 0 111160391.4315061 -6389777.539871175 -6389777.539871175 -10594609.12619728 0 0 0 0 0 110867298.117849 -6498842.189568562 -6498842.189568562 -10699166.68089862 0 0 0 0 0 111206736.4371613 -5950267.808749002 -5950267.808749002 -10313324.04054185 0 0 0 0 0 111231908.0612564 -5531845.993383746 -5531845.993383746 -10033722.9946258 0 0 0 0 0 111238307.9132889 -5132736.326322044 -5132736.326322044 -9755857.449157132 0 0 0 0 0 111226082.5193197 -4753955.098559031 -4753955.098559031 -9482579.933999723 0 0 0 0 0 110805612.6005278 -4550910.888751507 -4550910.888751507 -9163885.419636745 0 0 0 0 0 110646016.9557986 -4605001.141279604 -4605001.141279604 -9200017.35678938 0 0 0 0 0 110776827.4597043 -4211736.620049492 -4211736.620049492 -8906482.652173949 0 0 0 0 0 110735149.3716534 -3889265.848265473 -3889265.848265473 -8652817.767716741 0 0 0 0 0 110681957.0949542 -3582849.468070522 -3582849.468070522 -8403017.517987972 0 0 0 0 0 110618363.8042201 -3291855.404283004 -3291855.404283004 -8157536.519116658 0 0 0 0 0 110545703.7647101 -3015472.496090684 -3015472.496090684 -7916250.130016749 0 0 0 0 0 110028693.1496495 -2669894.140629129 -2669894.140629129 -7418513.382872674 0 0 0 0 0 110464518.2590331 -2753268.883977287 -2753268.883977287 -7679694.066968836 0 0 0 0 0 110074492.5538979 -2664297.926601454 -2664297.926601454 -7446559.220801291 0 0 0 0 0 109994473.7360784 -2429402.913080887 -2429402.913080887 -7226126.029419197 0 0 0 0 0 109889628.5802382 -2215914.067741302 -2215914.067741302 -7020732.289701107 0 0 0 0 0 109784879.6452675 -2014465.349406077 -2014465.349406077 -6816273.036242849 0 0 0 0 0 109682134.3524318 -1821383.237488155 -1821383.237488155 -6614245.548652722 0 0 0 0 0 109585291.612153 -1631605.520885916 -1631605.520885916 -6406092.958923656 0 0 0 0 0 109246245.4805716 -1583073.413455232 -1583073.413455232 -6174940.225084377 0 0 0 0 0 109241271.4472387 -1598999.111219452 -1598999.111219452 -6231204.00126527 0 0 0 0 0 109142209.7823219 -1426248.648340673 -1426248.648340673 -6043500.865344923 0 0 0 0 0 109040114.0328195 -1262430.945414187 -1262430.945414187 -5860284.232382125 0 0 0 0 0 108936339.9364672 -1107565.717397628 -1107565.717397628 -5681258.272968275 0 0 0 0 0 108649764.3462325 -1074783.865127068 -1074783.865127068 -5471876.060779186 0 0 0 0 0 108625481.0239851 -1098437.030260259 -1098437.030260259 -5537067.940027484 0 0 0 0 0 108524928.216275 -958059.9692727214 -958059.9692727214 -5370912.682749511 0 0 0 0 0 108426120.5552101 -823681.6531204148 -823681.6531204148 -5207648.341440986 0 0 0 0 0 108318910.4091523 -690388.7175076714 -690388.7175076714 -5020529.386048174 0 0 0 0 0 108033976.7573725 -604842.9269126807 -604842.9269126807 -4900220.527488487 0 0 0 0 0 108139763.3492388 -653226.0557100824 -653226.0557100824 -4985142.86795432 0 0 0 0 0 107907020.8575123 -557659.5422254205 -557659.5422254205 -4789238.836470925 0 0 0 0 0 107777970.0878103 -508359.2380780965 -508359.2380780965 -4684303.580180001 0 0 0 0 0 109102620.5051852 -15216959.80839646 -15216959.80839646 -15409536.23162282 0 0 0 0 0 -3093571.595603005 2880163.768935387 2880163.768935387 -82741065.40815035 0 0 0 0 0 -3926309.021962296 3259604.559613355 3259604.559613355 -75442803.38937464 0 0 0 0 0 -3843001.743585429 1163534.299127819 1163534.299127819 -70682493.64778498 0 0 0 0 0 -3796308.609224626 876316.7717496188 876316.7717496188 -60681402.97283281 0 0 0 0 0 -3764920.807568641 1291858.698803399 1291858.698803399 -58611265.09748323 0 0 0 0 0 -3365307.578975692 210111.7204792887 210111.7204792887 -54536927.2731875 0 0 0 0 0 1312748.120935615 -6747354.363753343 -6747354.363753343 -45589535.8755973 0 0 0 0 0 1045330.029708345 -5847413.545101184 -5847413.545101184 -41823697.35137308 0 0 0 0 0 3971363.927045728 -8571309.331984727 -8571309.331984727 -37876995.55056353 0 0 0 0 0 7581904.834155834 -11482372.54913643 -11482372.54913643 -34244506.27881178 0 0 0 0 0 11730673.53300085 -14433279.46533519 -14433279.46533519 -31009632.21880191 0 0 0 0 0 19933764.95609171 -19680989.40452798 -19680989.40452798 -24974561.49901208 0 0 0 0 0 18028790.72686495 -20403877.31175363 -20403877.31175363 -25708227.28049169 0 0 0 0 0 24979402.31491329 -22133473.4302888 -22133473.4302888 -23179586.87440762 0 0 0 0 0 30264295.20590938 -24357171.15847021 -24357171.15847021 -21716055.1412635 0 0 0 0 0 35709337.50022383 -26313229.73192388 -26313229.73192388 -20564441.6731682 0 0 0 0 0 41236195.57214829 -27975012.60914024 -27975012.60914024 -19689353.97450024 0 0 0 0 0 46761112.71227067 -29328798.51245179 -29328798.51245179 -19057474.65429685 0 0 0 0 0 52204097.29609465 -30368153.64522288 -30368153.64522288 -18628237.17766232 0 0 0 0 0 57514659.96302485 -31104490.3890655 -31104490.3890655 -18364682.13280989 0 0 0 0 0 62649020.60805511 -31552567.34663959 -31552567.34663959 -18228992.79113389 0 0 0 0 0 65029269.06880927 -32746712.66139344 -32746712.66139344 -18111367.13392863 0 0 0 0 0 68848035.02604745 -31566427.22502715 -31566427.22502715 -17695502.91623807 0 0 0 0 0 73260180.79787132 -31416180.59537934 -31416180.59537934 -17783336.48561852 0 0 0 0 0 77428558.91257761 -31071645.75441412 -31071645.75441412 -17894593.74901357 0 0 0 0 0 81337505.18187532 -30554900.86940471 -30554900.86940471 -18013509.47810675 0 0 0 0 0 85243686.65298156 -29476674.24491718 -29476674.24491718 -17725261.70427229 0 0 0 0 0 81927136.36998588 -30577224.90004916 -30577224.90004916 -18387648.42917116 0 0 0 0 0 88453185.7158431 -28690002.07979077 -28690002.07979077 -17836597.03987693 0 0 0 0 0 91419215.84526829 -27811520.34231954 -27811520.34231954 -17918990.61468114 0 0 0 0 0 94147540.31650388 -26859369.56921424 -26859369.56921424 -17966912.00159401 0 0 0 0 0 96644378.16427515 -25850512.88339435 -25850512.88339435 -17977746.67963166 0 0 0 0 0 98920184.65202354 -24799750.93865895 -24799750.93865895 -17949222.52539552 0 0 0 0 0 100985347.116954 -23721062.24584847 -23721062.24584847 -17881415.99947515 0 0 0 0 0 100148724.9676693 -23138361.18158724 -23138361.18158724 -18073208.98796388 0 0 0 0 0 102288750.7482887 -22373533.15198207 -22373533.15198207 -17434567.30409758 0 0 0 0 0 103913641.6361255 -21312119.68025143 -21312119.68025143 -17306414.33773526 0 0 0 0 0 105375526.0527693 -20253088.23466394 -20253088.23466394 -17144340.49845391 0 0 0 0 0 106680306.8440143 -19206956.82621329 -19206956.82621329 -16951080.84468775 0 0 0 0 0 107825131.1279489 -18187328.13504544 -18187328.13504544 -16741118.46248451 0 0 0 0 0 108830186.9907084 -17190899.86844547 -17190899.86844547 -16499507.91391026 0 0 0 0 0 107724958.0506126 -16643060.60444875 -16643060.60444875 -16385426.67888595 0 0 0 0 0 109006160.2493448 -16171294.04328043 -16171294.04328043 -15948903.55378084 0 0 0 0 0 109799296.2462801 -15245403.27384129 -15245403.27384129 -15674042.35238057 0 0 0 0 0 108077998.9740494 -14732723.88779235 -14732723.88779235 -15283397.7281882 0 0 0 0 0 108771652.724793 -13885842.8162654 -13885842.8162654 -14980484.5134547 0 0 0 0 0 108757984.4500103 -13084621.40526263 -13084621.40526263 -14441866.30784985 0 0 0 0 0 109733356.8746277 -13519234.919299 -13519234.919299 -14604382.99920138 0 0 0 0 0 109301210.2996423 -12316173.57112483 -12316173.57112483 -14134849.42185554 0 0 0 0 0 109778213.560311 -11575955.85757203 -11575955.85757203 -13818849.46633407 0 0 0 0 0 110193946.1780109 -10864592.3614902 -10864592.3614902 -13496077.80167716 0 0 0 0 0 110553223.1226067 -10182066.46309492 -10182066.46309492 -13167595.51262083 0 0 0 0 0 110291147.9355668 -9625978.308466557 -9625978.308466557 -12685170.37839688 0 0 0 0 0 111156235.5541833 -9951562.932077724 -9951562.932077724 -12929752.06801705 0 0 0 0 0 110562423.2139664 -9014520.860876324 -9014520.860876324 -12366822.08705963 0 0 0 0 0 110791574.2638377 -8429651.961572565 -8429651.961572565 -12046832.27590222 0 0 0 0 0 110981450.30994 -7871701.454123857 -7871701.454123857 -11726591.35451739 0 0 0 0 0 111135431.818837 -7339067.813314811 -7339067.813314811 -11407132.65271286 0 0 0 0 0 111257961.4315753 -6831142.218348684 -6831142.218348684 -11089235.66018946 0 0 0 0 0 111573664.0570528 -6715636.515478147 -6715636.515478147 -10983480.80391583 0 0 0 0 0 110947519.4431019 -6044920.988959183 -6044920.988959183 -10398494.7193388 0 0 0 0 0 111631545.546772 -6246508.308058375 -6246508.308058375 -10687140.46133408 0 0 0 0 0 111003785.2133207 -5613202.998488938 -5613202.998488938 -10101071.26045431 0 0 0 0 0 111037958.4437284 -5202500.487936585 -5202500.487936585 -9807988.127131812 0 0 0 0 0 111053302.5751571 -4811367.191291684 -4811367.191291684 -9517250.741582682 0 0 0 0 0 111050064.4810609 -4440505.635876431 -4440505.635876431 -9231618.762344049 0 0 0 0 0 110639366.3605295 -4256106.470237607 -4256106.470237607 -8929034.438910155 0 0 0 0 0 111198512.8537898 -4393664.946538756 -4393664.946538756 -9211414.645519078 0 0 0 0 0 110618248.0572023 -3924575.704787974 -3924575.704787974 -8662617.535024859 0 0 0 0 0 110584087.0597104 -3609748.911654694 -3609748.911654694 -8400933.143639635 0 0 0 0 0 110538082.1269524 -3310952.231859916 -3310952.231859916 -8144377.566221773 0 0 0 0 0 110481513.4186784 -3027459.296956553 -3027459.296956553 -7892991.292536854 0 0 0 0 0 110415442.4763653 -2758557.162891619 -2758557.162891619 -7646924.251556355 0 0 0 0 0 110376108.9152476 -2504821.642398402 -2504821.642398402 -7447606.052377935 0 0 0 0 0 110340960.2317377 -2503851.437569931 -2503851.437569931 -7405694.777449832 0 0 0 0 0 109958419.7557669 -2429865.38631104 -2429865.38631104 -7188427.80244348 0 0 0 0 0 109876718.9572166 -2203860.483255926 -2203860.483255926 -6964761.110402237 0 0 0 0 0 109790859.452793 -1993090.236438449 -1993090.236438449 -6746333.600259602 0 0 0 0 0 109696956.8769845 -1797255.563884805 -1797255.563884805 -6540449.829587137 0 0 0 0 0 109595930.4669673 -1611968.365234314 -1611968.365234314 -6341604.265606057 0 0 0 0 0 109494626.3528551 -1428892.315393744 -1428892.315393744 -6141059.022201412 0 0 0 0 0 109480626.9105676 -1450374.505478313 -1450374.505478313 -6209067.956017659 0 0 0 0 0 109154696.8802048 -1406793.266583273 -1406793.266583273 -5981734.86467888 0 0 0 0 0 109059920.9951791 -1239708.951699995 -1239708.951699995 -5793819.202483823 0 0 0 0 0 108962409.0196645 -1081726.378417608 -1081726.378417608 -5609684.202203017 0 0 0 0 0 108861606.0888733 -932252.1454612194 -932252.1454612194 -5431997.919715805 0 0 0 0 0 108830057.5999582 -960407.9326239657 -960407.9326239657 -5506468.30624418 0 0 0 0 0 108554613.9108316 -931573.7908967718 -931573.7908967718 -5300586.287297043 0 0 0 0 0 108457832.8475118 -795591.8016462539 -795591.8016462539 -5133325.75655447 0 0 0 0 0 108361934.2133862 -666705.2127934131 -666705.2127934131 -4975533.430251829 0 0 0 0 0 108342195.5841281 -547086.7339099803 -547086.7339099803 -4803209.105731414 0 0 0 0 0 108134143.8500528 -439772.6165638714 -439772.6165638714 -4600980.941022868 0 0 0 0 0 108257762.5935513 -480806.6538769215 -480806.6538769215 -4695346.130026502 0 0 0 0 0 107995029.2973903 -392867.551855135 -392867.551855135 -4499553.065949293 0 0 0 0 0 108730846.0527265 -14748283.1383088 -14748283.1383088 -15531090.37390738 0 0 0 0 0 -1776879.673485606 -1255773.935512267 -1255773.935512267 -86497422.43733165 0 0 0 0 0 -3015461.275462637 124713.1995883409 124713.1995883409 -83374519.3192319 0 0 0 0 0 -2933078.259334369 1157242.515060653 1157242.515060653 -70462518.52933954 0 0 0 0 0 -2894394.543553575 798917.0317498524 798917.0317498524 -69061180.58704823 0 0 0 0 0 -1897316.161721953 -1189930.562288772 -1189930.562288772 -60984433.17591975 0 0 0 0 0 -416552.8240587321 -3225380.446086149 -3225380.446086149 -54064509.13420034 0 0 0 0 0 -1230580.605875978 -2137060.879639116 -2137060.879639116 -49370781.92926025 0 0 0 0 0 3843431.227736002 -9330389.343741497 -9330389.343741497 -40636950.02032999 0 0 0 0 0 6988937.565000588 -12155313.44465717 -12155313.44465717 -36197885.90567879 0 0 0 0 0 10673441.99273049 -15054426.40959128 -15054426.40959128 -32266484.99041102 0 0 0 0 0 14822258.76183047 -17962038.57286373 -17962038.57286373 -28896372.11525072 0 0 0 0 0 22638883.27589289 -22902887.7363012 -22902887.7363012 -23621387.61481901 0 0 0 0 0 16370561.46432286 -17344623.24587211 -17344623.24587211 -28185938.29659946 0 0 0 0 0 27529904.60118876 -25185899.11169801 -25185899.11169801 -21958979.90272176 0 0 0 0 0 32629876.3745703 -27207350.92677591 -27207350.92677591 -20683279.56771121 0 0 0 0 0 37859678.75358512 -28935858.32927644 -28935858.32927644 -19753603.98839606 0 0 0 0 0 43145355.2020987 -30351227.23298232 -30351227.23298232 -19111016.61107249 0 0 0 0 0 48419454.60617104 -31447685.9598981 -31447685.9598981 -18706586.33857873 0 0 0 0 0 53618325.21355277 -32227367.85037649 -32227367.85037649 -18489153.5214603 0 0 0 0 0 58695930.12789625 -32707832.20380361 -32707832.20380361 -18413613.54668047 0 0 0 0 0 63610710.26487337 -32908619.11560394 -32908619.11560394 -18439607.50381413 0 0 0 0 0 67568745.0580011 -31731343.84781266 -31731343.84781266 -18187112.61947687 0 0 0 0 0 69487046.54122375 -32596240.51476491 -32596240.51476491 -18247377.78053884 0 0 0 0 0 73730736.76407199 -32240886.13429969 -32240886.13429969 -18405045.83805322 0 0 0 0 0 77746771.23842607 -31704323.8362556 -31704323.8362556 -18563886.7204796 0 0 0 0 0 81519761.99174692 -31011408.14351662 -31011408.14351662 -18705252.45025245 0 0 0 0 0 85272744.49650073 -29756397.1224204 -29756397.1224204 -18515071.45958656 0 0 0 0 0 84984018.22992834 -29890711.74069693 -29890711.74069693 -18124360.85904504 0 0 0 0 0 88388653.47655603 -28837177.31169482 -28837177.31169482 -18602109.6876925 0 0 0 0 0 91274940.51825643 -27839992.47492722 -27839992.47492722 -18647152.16686827 0 0 0 0 0 93935726.94352485 -26782496.69668813 -26782496.69668813 -18647308.53145758 0 0 0 0 0 96376593.90090145 -25681726.46648751 -25681726.46648751 -18603515.5611346 0 0 0 0 0 98606827.45487767 -24551274.8960795 -24551274.8960795 -18514206.89372635 0 0 0 0 0 100635816.7678947 -23404365.98935979 -23404365.98935979 -18381692.83562669 0 0 0 0 0 102851692.0013549 -22626412.36658771 -22626412.36658771 -17774929.79939059 0 0 0 0 0 101922038.0135173 -22027547.0916799 -22027547.0916799 -17914734.60144953 0 0 0 0 0 103527513.6426296 -20919869.30746284 -20919869.30746284 -17719636.60083533 0 0 0 0 0 104977325.1059487 -19824347.34389447 -19824347.34389447 -17490336.03644877 0 0 0 0 0 106276455.4257551 -18746929.76693531 -18746929.76693531 -17231185.49493694 0 0 0 0 0 107428745.1393189 -17693605.764782 -17693605.764782 -16931333.14409703 0 0 0 0 0 108440528.6279107 -16672965.07682716 -16672965.07682716 -16616385.86222812 0 0 0 0 0 109725309.5193408 -16216159.53284796 -16216159.53284796 -16218927.82709043 0 0 0 0 0 108615003.1802284 -15684047.71536809 -15684047.71536809 -16087514.27339903 0 0 0 0 0 109410636.3994236 -14748758.70869188 -14748758.70869188 -15759474.61648553 0 0 0 0 0 109794402.8981185 -14349734.51607963 -14349734.51607963 -15139144.51877393 0 0 0 0 0 110398731.3418324 -13510030.29480426 -13510030.29480426 -14852425.52765783 0 0 0 0 0 110266661.7989206 -12730048.0371733 -12730048.0371733 -14322342.39667929 0 0 0 0 0 109383455.2946721 -13066703.01646914 -13066703.01646914 -14667141.90753945 0 0 0 0 0 110730185.4238937 -11968859.51633341 -11968859.51633341 -14029225.71006952 0 0 0 0 0 111129056.2451682 -11236196.52750262 -11236196.52750262 -13726684.89566891 0 0 0 0 0 111469621.1420384 -10532660.5599033 -10532660.5599033 -13416402.75354395 0 0 0 0 0 111755956.1568977 -9858456.317917619 -9858456.317917619 -13100622.89609865 0 0 0 0 0 111407179.4264079 -9320746.043262174 -9320746.043262174 -12625443.47473828 0 0 0 0 0 110860251.8916433 -9528442.299333906 -9528442.299333906 -12836298.03365463 0 0 0 0 0 111613314.8985008 -8716581.414677389 -8716581.414677389 -12317493.46009556 0 0 0 0 0 111779236.4494442 -8139444.951090981 -8139444.951090981 -12007676.92055837 0 0 0 0 0 111909655.5804407 -7589284.120654617 -7589284.120654617 -11696951.01323474 0 0 0 0 0 112007650.8825702 -7064452.454952871 -7064452.454952871 -11385505.86150503 0 0 0 0 0 112076232.3447812 -6564229.522257337 -6564229.522257337 -11074978.56392683 0 0 0 0 0 111350217.2125869 -6347499.274911975 -6347499.274911975 -10773556.81134636 0 0 0 0 0 111664645.7853806 -5800170.624304504 -5800170.624304504 -10393042.56811025 0 0 0 0 0 111415647.5732271 -5887545.326962987 -5887545.326962987 -10461321.08299922 0 0 0 0 0 111675756.9621305 -5375608.824429135 -5375608.824429135 -10101521.71607388 0 0 0 0 0 111668820.5462698 -4971390.847297224 -4971390.847297224 -9812104.957170408 0 0 0 0 0 111642982.9881461 -4588235.192557368 -4588235.192557368 -9527821.775892716 0 0 0 0 0 111601032.6291893 -4224657.607031833 -4224657.607031833 -9247354.610087533 0 0 0 0 0 111156811.3854092 -4051315.690664575 -4051315.690664575 -8944357.845803456 0 0 0 0 0 111030230.6466279 -4088717.311471492 -4088717.311471492 -8951644.944474993 0 0 0 0 0 111102417.7333689 -3726267.502874132 -3726267.502874132 -8681477.662600849 0 0 0 0 0 111036659.1096378 -3417880.958747737 -3417880.958747737 -8423129.890971506 0 0 0 0 0 110960929.8042812 -3125357.496006894 -3125357.496006894 -8169378.050834075 0 0 0 0 0 110876267.892409 -2847980.570849646 -2847980.570849646 -7920558.000400786 0 0 0 0 0 110783813.5700246 -2585061.017298023 -2585061.017298023 -7676729.276016162 0 0 0 0 0 110259961.7570479 -2263881.708363242 -2263881.708363242 -7168418.481323401 0 0 0 0 0 110683831.5492125 -2335758.402560906 -2335758.402560906 -7437927.135497431 0 0 0 0 0 110278209.9168923 -2273214.328575203 -2273214.328575203 -7224372.369037803 0 0 0 0 0 110174466.527185 -2055704.238755265 -2055704.238755265 -7007665.53839007 0 0 0 0 0 110058263.8148484 -1852358.993980229 -1852358.993980229 -6795991.753656962 0 0 0 0 0 109947815.11058 -1659538.471169068 -1659538.471169068 -6588162.7492642 0 0 0 0 0 109836345.5509956 -1473723.383845298 -1473723.383845298 -6380328.013238504 0 0 0 0 0 109722707.8721244 -1294824.238437112 -1294824.238437112 -6177713.976906069 0 0 0 0 0 109394221.546049 -1253694.04343514 -1253694.04343514 -5944007.289664657 0 0 0 0 0 109372697.7932192 -1278513.480842701 -1278513.480842701 -6016758.696071816 0 0 0 0 0 109262737.1795038 -1116069.817807271 -1116069.817807271 -5829325.730920228 0 0 0 0 0 109149455.592449 -962686.4911719287 -962686.4911719287 -5646866.251977443 0 0 0 0 0 109036794.8530465 -817633.0523493324 -817633.0523493324 -5468723.289932719 0 0 0 0 0 108758564.3644598 -790280.4303424811 -790280.4303424811 -5257760.86643374 0 0 0 0 0 108721695.3578648 -820854.3243832712 -820854.3243832712 -5335556.126793981 0 0 0 0 0 108613988.7598313 -688258.347454782 -688258.347454782 -5168906.871725039 0 0 0 0 0 108512609.8609009 -562681.4731330033 -562681.4731330033 -5007202.67215888 0 0 0 0 0 108369762.8711607 -463005.6084296369 -463005.6084296369 -4866445.399575694 0 0 0 0 0 108061010.4243982 -380537.3863040102 -380537.3863040102 -4699070.754005383 0 0 0 0 0 108202318.2906335 -421211.6644758623 -421211.6644758623 -4801952.69350587 0 0 0 0 0 107927111.0612402 -336386.1231160366 -336386.1231160366 -4591624.923307632 0 0 0 0 0 110493825.6506006 -14348630.92111589 -14348630.92111589 -15385510.68868081 0 0 0 0 0 -2514997.884749975 3037751.95246764 3037751.95246764 -101266512.0861274 0 0 0 0 0 806542.6575445888 2994754.830542791 2994754.830542791 -84243372.10196227 0 0 0 0 0 -3728479.543269379 4229743.555358827 4229743.555358827 -82302236.04833019 0 0 0 0 0 -2710502.81174254 2751553.685765283 2751553.685765283 -68626396.00977129 0 0 0 0 0 -3805441.40620684 4550112.44236012 4550112.44236012 -66070553.30161959 0 0 0 0 0 -2952962.182228932 2519554.977019454 2519554.977019454 -58438428.49543558 0 0 0 0 0 1565375.644712727 -5568437.633282711 -5568437.633282711 -47809581.27812041 0 0 0 0 0 1032822.117512308 -4817288.597634777 -4817288.597634777 -44363349.49966619 0 0 0 0 0 4289721.261813364 -7861838.410111197 -7861838.410111197 -39766761.37206702 0 0 0 0 0 8154535.41921179 -11050378.76552034 -11050378.76552034 -35590633.20904275 0 0 0 0 0 12628674.84918275 -14295793.87208868 -14295793.87208868 -31921230.85456808 0 0 0 0 0 21465148.42614498 -20121713.24776704 -20121713.24776704 -25793532.59441246 0 0 0 0 0 19402447.03883578 -20782344.86871952 -20782344.86871952 -26116148.19437158 0 0 0 0 0 26876279.97355347 -22678746.06743509 -22678746.06743509 -23822223.01356961 0 0 0 0 0 32500465.54078225 -24960528.35947091 -24960528.35947091 -22240681.3629882 0 0 0 0 0 38271895.47566261 -26936518.003665 -26936518.003665 -21011012.58496195 0 0 0 0 0 44075777.36147419 -28576491.48647991 -28576491.48647991 -20093809.35339454 0 0 0 0 0 49830649.98103608 -29869881.04711384 -29869881.04711384 -19442524.41471167 0 0 0 0 0 55455082.19096915 -30821982.11751825 -30821982.11751825 -19006378.75601193 0 0 0 0 0 60903511.11679264 -31450680.12611015 -31450680.12611015 -18740432.14690558 0 0 0 0 0 66130652.20838053 -31775112.82236009 -31775112.82236009 -18603103.42753876 0 0 0 0 0 68328288.30499059 -32853305.53425526 -32853305.53425526 -18534499.42668101 0 0 0 0 0 72254553.41847456 -31668042.25970364 -31668042.25970364 -18215766.27470141 0 0 0 0 0 76679231.38423213 -31386972.14302352 -31386972.14302352 -18284413.96916219 0 0 0 0 0 80817445.59659144 -30909021.61543043 -30909021.61543043 -18370871.98703996 0 0 0 0 0 84674038.17718942 -30268645.53139346 -30268645.53139346 -18459283.75004401 0 0 0 0 0 88369072.8690668 -29100901.74299943 -29100901.74299943 -18216451.94961097 0 0 0 0 0 85047058.07639986 -30188676.84036668 -30188676.84036668 -18824079.13357642 0 0 0 0 0 91491429.1214346 -28209902.02543617 -28209902.02543617 -18284429.89750465 0 0 0 0 0 94356222.23199642 -27236427.84952565 -27236427.84952565 -18318655.86636814 0 0 0 0 0 96972770.59877008 -26199912.44947721 -26199912.44947721 -18317524.99092166 0 0 0 0 0 99351754.02417085 -25115950.29006816 -25115950.29006816 -18276723.55180127 0 0 0 0 0 101502831.9460487 -24000120.51540153 -24000120.51540153 -18196338.85510753 0 0 0 0 0 103440910.4457743 -22866385.26621045 -22866385.26621045 -18076261.11555414 0 0 0 0 0 102474282.1758916 -22252042.28233243 -22252042.28233243 -18208701.88583814 0 0 0 0 0 104532356.1616851 -21525948.08072606 -21525948.08072606 -17631337.19341029 0 0 0 0 0 106038581.1478016 -20428208.51956428 -20428208.51956428 -17453106.218944 0 0 0 0 0 107380185.2699019 -19342011.26021704 -19342011.26021704 -17242868.44805908 0 0 0 0 0 108568755.355067 -18273479.04359167 -18273479.04359167 -17001967.51982005 0 0 0 0 0 109600495.4895826 -17239426.72419026 -17239426.72419026 -16748239.78742941 0 0 0 0 0 110492844.6551486 -16233869.44291282 -16233869.44291282 -16466646.59617042 0 0 0 0 0 109330658.5688529 -15692469.18469694 -15692469.18469694 -16300658.25518616 0 0 0 0 0 110524471.054613 -15256724.99815455 -15256724.99815455 -15918961.65341457 0 0 0 0 0 111226006.7625505 -14332210.20451955 -14332210.20451955 -15607873.6356096 0 0 0 0 0 109428808.4318444 -13873678.01832946 -13873678.01832946 -15208372.18807817 0 0 0 0 0 110041649.9021726 -13029505.09836649 -13029505.09836649 -14872333.48373436 0 0 0 0 0 109923747.3111384 -12275574.99023929 -12275574.99023929 -14341552.8887987 0 0 0 0 0 110927656.011909 -12697887.92326366 -12697887.92326366 -14549743.04564844 0 0 0 0 0 110396411.7631442 -11513865.63899073 -11513865.63899073 -14006603.17103203 0 0 0 0 0 110805464.3001604 -10783060.08313373 -10783060.08313373 -13665208.20858224 0 0 0 0 0 111156313.1863856 -10082926.31932545 -10082926.31932545 -13319448.4902483 0 0 0 0 0 111454124.2266214 -9412587.060215043 -9412587.060215043 -12970128.47641411 0 0 0 0 0 111121189.1828365 -8901935.735957142 -8901935.735957142 -12501574.85866345 0 0 0 0 0 111994105.5002229 -9212241.926730989 -9212241.926730989 -12778995.05208598 0 0 0 0 0 111339374.823928 -8303400.924452967 -8303400.924452967 -12165037.02744054 0 0 0 0 0 111517646.7852438 -7733234.728790635 -7733234.728790635 -11829442.01817521 0 0 0 0 0 111658989.1991451 -7190423.279493501 -7190423.279493501 -11495352.45970058 0 0 0 0 0 111767043.3481362 -6673792.777003948 -6673792.777003948 -11163627.18059789 0 0 0 0 0 111846394.3641733 -6182448.759788967 -6182448.759788967 -10834639.17563295 0 0 0 0 0 112117620.2753135 -6088813.316714866 -6088813.316714866 -10766409.05279878 0 0 0 0 0 111458185.0809773 -5449702.129213087 -5449702.129213087 -10152262.01121532 0 0 0 0 0 112135611.2848645 -5636379.277215686 -5636379.277215686 -10459623.40526185 0 0 0 0 0 111478910.0530984 -5033863.595837881 -5033863.595837881 -9847430.657408491 0 0 0 0 0 111480252.9311607 -4638792.96972117 -4638792.96972117 -9546881.187212471 0 0 0 0 0 111464163.8081382 -4263874.143233322 -4263874.143233322 -9250660.161823411 0 0 0 0 0 111431270.1632154 -3909044.876290645 -3909044.876290645 -8960656.619371543 0 0 0 0 0 110996685.0320569 -3754501.310845196 -3754501.310845196 -8675953.714778 0 0 0 0 0 111545727.5849284 -3879376.987501471 -3879376.987501471 -8970161.818759682 0 0 0 0 0 110950023.7820408 -3437680.163287101 -3437680.163287101 -8405752.055460498 0 0 0 0 0 110891760.4651844 -3137463.988018559 -3137463.988018559 -8141168.200372831 0 0 0 0 0 110823140.1720376 -2853017.649906171 -2853017.649906171 -7882377.770350615 0 0 0 0 0 110745374.5951644 -2583621.01762099 -2583621.01762099 -7629410.774028338 0 0 0 0 0 110659295.0489014 -2328393.498211272 -2328393.498211272 -7382764.569399467 0 0 0 0 0 110577373.3950402 -2099842.413227027 -2099842.413227027 -7203923.50920235 0 0 0 0 0 110565901.5723275 -2087387.356787104 -2087387.356787104 -7142083.353490014 0 0 0 0 0 110175916.8999045 -2035857.428840575 -2035857.428840575 -6936390.908770432 0 0 0 0 0 110066368.4631072 -1828644.398247486 -1828644.398247486 -6718755.476942448 0 0 0 0 0 109962777.153211 -1634149.783952675 -1634149.783952675 -6505935.169287638 0 0 0 0 0 109852432.7416119 -1449768.535461768 -1449768.535461768 -6303919.956649286 0 0 0 0 0 109747819.5794429 -1267109.165006981 -1267109.165006981 -6097676.071818022 0 0 0 0 0 109637197.5590475 -1093689.203015315 -1093689.203015315 -5896250.722004595 0 0 0 0 0 109606511.2519226 -1124202.60353923 -1124202.60353923 -5981264.751042063 0 0 0 0 0 109290806.0241832 -1087979.849498113 -1087979.849498113 -5751422.407015271 0 0 0 0 0 109183725.2000201 -931896.0522909414 -931896.0522909414 -5565536.392859415 0 0 0 0 0 109075930.4303787 -784259.489288431 -784259.489288431 -5382826.417717219 0 0 0 0 0 108963387.8848494 -645300.4559748134 -645300.4559748134 -5208788.07749172 0 0 0 0 0 108921884.1982063 -679134.8655988638 -679134.8655988638 -5293951.415603881 0 0 0 0 0 108654949.2616102 -655519.6166055233 -655519.6166055233 -5086984.343737607 0 0 0 0 0 108552797.9342434 -529528.9603223852 -529528.9603223852 -4921155.787598657 0 0 0 0 0 108460420.7571843 -413331.1829801901 -413331.1829801901 -4772614.891291094 0 0 0 0 0 108389870.4458972 -305707.6170446767 -305707.6170446767 -4592506.458803295 0 0 0 0 0 108279011.436571 -259896.8223224154 -259896.8223224154 -4502985.952039398 0 0 0 0 0 108147619.5366419 -218820.6171161145 -218820.6171161145 -4403282.386879104 0 0 0 0 0 110115942.1721384 -13844267.45398532 -13844267.45398532 -15414416.01655684 0 0 0 0 0 -1947906.169314565 4927944.536224171 4927944.536224171 -97366111.68210366 0 0 0 0 0 -650107.9738949327 4663649.84040268 4663649.84040268 -81265565.10822351 0 0 0 0 0 -3388832.44366547 5627124.27208314 5627124.27208314 -80008309.60621408 0 0 0 0 0 -1088155.571003271 1054005.789912884 1054005.789912884 -64420091.05195262 0 0 0 0 0 -1885215.544466586 3167380.352197157 3167380.352197157 -68067451.36997855 0 0 0 0 0 -367873.9035085003 -1160424.122787416 -1160424.122787416 -55471601.46350317 0 0 0 0 0 -1292536.398679345 -165476.6524381583 -165476.6524381583 -52103667.36318383 0 0 0 0 0 4234374.527775881 -8482299.031977948 -8482299.031977948 -42100091.3646124 0 0 0 0 0 7651728.022286478 -11552388.72542026 -11552388.72542026 -36984468.1267701 0 0 0 0 0 11581646.05764974 -14755968.50043496 -14755968.50043496 -32568044.26198359 0 0 0 0 0 16022505.00389067 -17968635.96645873 -17968635.96645873 -28939043.30473949 0 0 0 0 0 24342244.03426039 -23402636.72713267 -23402636.72713267 -23876703.92932175 0 0 0 0 0 17695425.72740959 -17461631.90704155 -17461631.90704155 -28782879.2726232 0 0 0 0 0 29554654.39153136 -25758574.90216143 -25758574.90216143 -22129090.20844274 0 0 0 0 0 34957131.27193026 -27810050.23263557 -27810050.23263557 -20814395.61432746 0 0 0 0 0 40465968.46867873 -29528384.97670115 -29528384.97670115 -19881314.83785642 0 0 0 0 0 45998227.60122493 -30894027.55746049 -30894027.55746049 -19259652.01329288 0 0 0 0 0 51472979.53722654 -31904870.29951558 -31904870.29951558 -18880980.88443331 0 0 0 0 0 56833653.36043759 -32578297.67307671 -32578297.67307671 -18691272.5483121 0 0 0 0 0 62031971.78001937 -32936791.33568871 -32936791.33568871 -18641282.79321502 0 0 0 0 0 67028448.89145294 -33004124.18703492 -33004124.18703492 -18688160.16287406 0 0 0 0 0 71112710.23245464 -31825427.14213433 -31825427.14213433 -18558856.73010534 0 0 0 0 0 72821413.00975801 -32565475.37711785 -32565475.37711785 -18662747.33996911 0 0 0 0 0 77069431.58014515 -32075684.73538205 -32075684.73538205 -18801254.80987335 0 0 0 0 0 81057614.83889756 -31405987.26120722 -31405987.26120722 -18930908.84307095 0 0 0 0 0 84779382.21965635 -30590557.18437393 -30590557.18437393 -19042455.18559229 0 0 0 0 0 88328619.36472063 -29256481.13080123 -29256481.13080123 -18904232.54789091 0 0 0 0 0 88248801.6006014 -29484381.43636892 -29484381.43636892 -18531594.18299688 0 0 0 0 0 91361546.53412992 -28236357.04831927 -28236357.04831927 -18941261.462759 0 0 0 0 0 94151855.99558368 -27149951.93540801 -27149951.93540801 -18934837.02382822 0 0 0 0 0 96706076.73036852 -26014294.18321119 -26014294.18321119 -18883379.38353907 0 0 0 0 0 99034007.92302985 -24844481.45970337 -24844481.45970337 -18785638.29578479 0 0 0 0 0 101145385.5834827 -23656267.43712756 -23656267.43712756 -18642170.09192388 0 0 0 0 0 103052810.7928404 -22462023.05538887 -22462023.05538887 -18457239.27115564 0 0 0 0 0 105180507.0390413 -21726427.34623591 -21726427.34623591 -17918534.47780916 0 0 0 0 0 104133896.9063116 -21103085.92777507 -21103085.92777507 -17998421.72399082 0 0 0 0 0 105625796.7789998 -19965638.47931321 -19965638.47931321 -17752579.08414131 0 0 0 0 0 106958478.7704304 -18846703.53723009 -18846703.53723009 -17475107.27201948 0 0 0 0 0 108145116.4291341 -17753082.80849633 -17753082.80849633 -17167964.82536748 0 0 0 0 0 109192862.6028528 -16687668.41244517 -16687668.41244517 -16825153.32498563 0 0 0 0 0 110096101.5619132 -15664448.37669576 -15664448.37669576 -16465339.01389737 0 0 0 0 0 111281463.5408927 -15253434.68202946 -15253434.68202946 -16137313.2570077 0 0 0 0 0 110124521.3776296 -14731751.76038596 -14731751.76038596 -15959873.31253882 0 0 0 0 0 110830784.4023434 -13797253.11147563 -13797253.11147563 -15596861.63581614 0 0 0 0 0 111098089.1090904 -13481929.26034803 -13481929.26034803 -15079136.23266087 0 0 0 0 0 111619176.1508559 -12647343.54129826 -12647343.54129826 -14760533.62977648 0 0 0 0 0 111384999.1146825 -11914506.63140995 -11914506.63140995 -14237371.03874686 0 0 0 0 0 110575699.020277 -12216638.19550861 -12216638.19550861 -14529412.98459006 0 0 0 0 0 111775618.7001338 -11161334.82548265 -11161334.82548265 -13916457.3155918 0 0 0 0 0 112105157.0265914 -10439107.4719568 -10439107.4719568 -13588256.80009069 0 0 0 0 0 112380435.6862105 -9747589.34674149 -9747589.34674149 -13254214.45371126 0 0 0 0 0 112605390.7596089 -9085478.27576986 -9085478.27576986 -12915603.61529 0 0 0 0 0 112188344.6615391 -8593597.727330865 -8593597.727330865 -12454272.08884308 0 0 0 0 0 111703625.4725999 -8771525.089639261 -8771525.089639261 -12618595.25940937 0 0 0 0 0 112340871.5771677 -8003719.400315285 -8003719.400315285 -12128750.53572425 0 0 0 0 0 112456467.0350501 -7442149.663570714 -7442149.663570714 -11802790.7405309 0 0 0 0 0 112539178.1613647 -6907978.194031051 -6907978.194031051 -11477071.16935951 0 0 0 0 0 112592179.6736105 -6399746.154518179 -6399746.154518179 -11152550.63043084 0 0 0 0 0 112618174.7426999 -5916730.477331639 -5916730.477331639 -10830671.74194119 0 0 0 0 0 111898687.8765833 -5715562.949331078 -5715562.949331078 -10509267.07152233 0 0 0 0 0 112132337.4046468 -5206201.496571796 -5206201.496571796 -10156090.73298847 0 0 0 0 0 111926028.5570736 -5272446.274302814 -5272446.274302814 -10188421.89157916 0 0 0 0 0 112109500.1398851 -4797655.52903251 -4797655.52903251 -9855929.600510743 0 0 0 0 0 112069733.59892 -4410200.007006651 -4410200.007006651 -9559958.005979978 0 0 0 0 0 112013554.5868235 -4043223.128542566 -4043223.128542566 -9269314.756148117 0 0 0 0 0 111943777.3567211 -3695765.779993482 -3695765.779993482 -8983090.147328695 0 0 0 0 0 111477870.3975093 -3552154.171213611 -3552154.171213611 -8698325.144023234 0 0 0 0 0 111384018.1051475 -3572773.39132971 -3572773.39132971 -8676251.129309988 0 0 0 0 0 111398879.5971271 -3242120.111294653 -3242120.111294653 -8431321.638787948 0 0 0 0 0 111310149.8204307 -2948518.11559705 -2948518.11559705 -8169479.486583835 0 0 0 0 0 111212941.1925319 -2670584.472205503 -2670584.472205503 -7913034.392531428 0 0 0 0 0 111108047.8153708 -2407572.435645864 -2407572.435645864 -7662215.150631244 0 0 0 0 0 110996823.2458701 -2158886.356651009 -2158886.356651009 -7417189.196022405 0 0 0 0 0 110465642.5676262 -1867115.646034179 -1867115.646034179 -6900326.557275848 0 0 0 0 0 110876724.8186902 -1925553.835485209 -1925553.835485209 -7180279.30087376 0 0 0 0 0 110468247.4233309 -1887589.827463588 -1887589.827463588 -6987473.527208244 0 0 0 0 0 110342222.3489977 -1685853.492454961 -1685853.492454961 -6767321.849985468 0 0 0 0 0 110209862.2187465 -1495322.522584033 -1495322.522584033 -6555768.653949267 0 0 0 0 0 110091685.164427 -1309180.749587652 -1309180.749587652 -6343334.8619905 0 0 0 0 0 109967925.7667579 -1131433.734363405 -1131433.734363405 -6137567.171203014 0 0 0 0 0 109841129.6875395 -963447.1109505218 -963447.1109505218 -5936583.658186743 0 0 0 0 0 109524241.7496308 -929917.0996082718 -929917.0996082718 -5700422.365298936 0 0 0 0 0 109486232.1701902 -964079.7652115956 -964079.7652115956 -5790835.188264883 0 0 0 0 0 109366300.8655263 -812250.2387698611 -812250.2387698611 -5603843.271878887 0 0 0 0 0 109241889.3177357 -670156.3534036148 -670156.3534036148 -5423938.583739798 0 0 0 0 0 109121471.2253795 -534236.6606031967 -534236.6606031967 -5245989.508553324 0 0 0 0 0 108851600.9601682 -511761.0569369094 -511761.0569369094 -5036015.679384341 0 0 0 0 0 108805558.6784187 -547273.2763258697 -547273.2763258697 -5123365.062633486 0 0 0 0 0 108689037.437721 -424487.0507162271 -424487.0507162271 -4958032.983130396 0 0 0 0 0 108578486.797953 -318445.071853155 -318445.071853155 -4807851.383453649 0 0 0 0 0 108402632.6670283 -242015.4084118616 -242015.4084118616 -4687329.081598229 0 0 0 0 0 108217239.508074 -198524.3864124456 -198524.3864124456 -4603073.804009757 0 0 0 0 0 108071245.2008818 -161634.0050853231 -161634.0050853231 -4495839.349804674 0 0 0 0 0 111826902.4249344 -13437585.74620979 -13437585.74620979 -15284635.57185599 0 0 0 0 0 -2738630.062147258 7316445.745021382 7316445.745021382 -96227405.1567435 0 0 0 0 0 -1309805.81787247 7035016.950725644 7035016.950725644 -78808752.70576108 0 0 0 0 0 -3046804.697321231 6135829.928920686 6135829.928920686 -65484573.8623916 0 0 0 0 0 -2940643.043322402 6939400.2484628 6939400.2484628 -78478444.55055687 0 0 0 0 0 -2395514.588178164 4747514.381447501 4747514.381447501 -61535823.70893595 0 0 0 0 0 1686177.820201192 -4060256.449937354 -4060256.449937354 -48799692.43359333 0 0 0 0 0 1328492.983080819 -3421772.615719666 -3421772.615719666 -46214073.68856075 0 0 0 0 0 4579231.296420184 -6766240.134863454 -6766240.134863454 -40971596.97961121 0 0 0 0 0 8650094.916572727 -10351832.58080723 -10351832.58080723 -36272070.75828984 0 0 0 0 0 13651277.09027292 -14000163.31855163 -14000163.31855163 -32207154.18052337 0 0 0 0 0 23194121.64613397 -20426830.71151933 -20426830.71151933 -26173724.27917534 0 0 0 0 0 20961864.28983539 -20998518.97072179 -20998518.97072179 -25970321.1189516 0 0 0 0 0 28988653.71608894 -23110878.57143696 -23110878.57143696 -24065882.24063749 0 0 0 0 0 34967905.26424447 -25466151.71160612 -25466151.71160612 -22402684.84343919 0 0 0 0 0 41074457.54977772 -27464939.96197483 -27464939.96197483 -21136308.02790257 0 0 0 0 0 47168444.0067215 -29079622.8147267 -29079622.8147267 -20213057.099581 0 0 0 0 0 53136582.24596027 -30304635.04843006 -30304635.04843006 -19571356.24372009 0 0 0 0 0 58928379.30598549 -31161987.13089756 -31161987.13089756 -19153656.27623655 0 0 0 0 0 64495392.01818664 -31675667.05716769 -31675667.05716769 -18906820.41491257 0 0 0 0 0 69796984.67884147 -31870834.77022528 -31870834.77022528 -18784567.03873771 0 0 0 0 0 71791754.10914962 -32810346.69263285 -32810346.69263285 -18791824.06888615 0 0 0 0 0 75818338.25292207 -31627310.45491401 -31627310.45491401 -18578920.84937995 0 0 0 0 0 80223784.80591279 -31211346.78039327 -31211346.78039327 -18632652.24382647 0 0 0 0 0 84310077.44016227 -30606571.60004512 -30606571.60004512 -18702000.43882254 0 0 0 0 0 88089217.21254507 -29839284.55702288 -29839284.55702288 -18764436.53383331 0 0 0 0 0 91543471.33039388 -28586187.71029219 -28586187.71029219 -18585515.12074963 0 0 0 0 0 88239317.09498881 -29651424.43788407 -29651424.43788407 -19122957.92682687 0 0 0 0 0 94560229.39981847 -27595922.85563894 -27595922.85563894 -18611085.83508546 0 0 0 0 0 97305342.74711657 -26533711.86910813 -26533711.86910813 -18600112.55939337 0 0 0 0 0 99796930.96631974 -25418450.03717106 -25418450.03717106 -18549612.06225475 0 0 0 0 0 102042190.8121139 -24266442.94356896 -24266442.94356896 -18459225.04112428 0 0 0 0 0 104055275.5839744 -23093615.28974266 -23093615.28974266 -18328787.75959206 0 0 0 0 0 105857386.550015 -21913126.39181526 -21913126.39181526 -18158774.72447526 0 0 0 0 0 104769729.6082495 -21271359.84210679 -21271359.84210679 -18233479.18486163 0 0 0 0 0 106734901.5734344 -20589136.77505865 -20589136.77505865 -17725370.68495471 0 0 0 0 0 108113221.874759 -19462843.73303182 -19462843.73303182 -17499162.9578695 0 0 0 0 0 109329694.0592308 -18355127.87798725 -18355127.87798725 -17241913.83586673 0 0 0 0 0 110393277.1537052 -17271980.18037116 -17271980.18037116 -16957200.96611984 0 0 0 0 0 111310641.1835733 -16226356.32894514 -16226356.32894514 -16659845.54082746 0 0 0 0 0 112088864.2324905 -15223879.62347843 -15223879.62347843 -16349594.98929161 0 0 0 0 0 110877329.7291277 -14691299.84218168 -14691299.84218168 -16133444.4916881 0 0 0 0 0 111985530.8587094 -14299096.25856115 -14299096.25856115 -15809072.98445697 0 0 0 0 0 112587438.2345637 -13375101.54727429 -13375101.54727429 -15463269.45049032 0 0 0 0 0 110728112.5597695 -12974247.97031883 -12974247.97031883 -15058988.51474714 0 0 0 0 0 111259408.4035538 -12137695.25572195 -12137695.25572195 -14694188.40650157 0 0 0 0 0 111041620.0351806 -11434097.75498854 -11434097.75498854 -14176004.3224326 0 0 0 0 0 112068031.5424235 -11842202.54704014 -11842202.54704014 -14427746.43392416 0 0 0 0 0 111442537.3569516 -10683780.73608709 -10683780.73608709 -13816435.35535787 0 0 0 0 0 111783540.524065 -9966040.814989487 -9966040.814989487 -13452456.35266197 0 0 0 0 0 112069660.7627012 -9279342.647601975 -9279342.647601975 -13085983.60891938 0 0 0 0 0 112306687.9764487 -8624176.969013978 -8624176.969013978 -12717451.86406603 0 0 0 0 0 111908410.5553656 -8160664.792714851 -8160664.792714851 -12266920.75604068 0 0 0 0 0 112784657.3833056 -8453594.157090183 -8453594.157090183 -12574831.39262427 0 0 0 0 0 112073288.6258958 -7578779.831568602 -7578779.831568602 -11915524.48557493 0 0 0 0 0 112200708.2805627 -7025932.304133922 -7025932.304133922 -11566409.73131245 0 0 0 0 0 112294246.5206778 -6500941.783037459 -6500941.783037459 -11220957.52809299 0 0 0 0 0 112358122.6590063 -6002101.797986226 -6002101.797986226 -10878908.89377579 0 0 0 0 0 112394996.0049768 -5528829.853660308 -5528829.853660308 -10540991.95555628 0 0 0 0 0 112619921.1214857 -5458212.715709034 -5458212.715709034 -10511734.65795432 0 0 0 0 0 111931993.7811349 -4851844.655330702 -4851844.655330702 -9872591.157309432 0 0 0 0 0 112600221.5726025 -5023315.829445777 -5023315.829445777 -10196144.97457268 0 0 0 0 0 111919208.5496252 -4452783.721940557 -4452783.721940557 -9561158.262778915 0 0 0 0 0 111888347.0723777 -4074710.468847813 -4074710.468847813 -9255153.191861214 0 0 0 0 0 111841191.6225006 -3717410.216349756 -3717410.216349756 -8955497.489898458 0 0 0 0 0 111779832.1501563 -3379412.654863019 -3379412.654863019 -8662463.956798727 0 0 0 0 0 111324280.1541059 -3254309.73313116 -3254309.73313116 -8397532.004499929 0 0 0 0 0 111861482.8241411 -3366704.370295803 -3366704.370295803 -8701855.831103733 0 0 0 0 0 111253016.592503 -2953041.631948819 -2953041.631948819 -8124953.882613286 0 0 0 0 0 111171726.5683144 -2668102.418828684 -2668102.418828684 -7858656.914237021 0 0 0 0 0 111081507.2018375 -2398654.590418246 -2398654.590418246 -7598835.547054183 0 0 0 0 0 110983526.4619097 -2144019.971014145 -2144019.971014145 -7345157.517797355 0 0 0 0 0 110879054.7615944 -1903668.735733266 -1903668.735733266 -7098050.358753864 0 0 0 0 0 110735801.9357896 -1711603.534413776 -1711603.534413776 -6955087.692792893 0 0 0 0 0 110771587.2833104 -1676335.390970711 -1676335.390970711 -6858301.535709579 0 0 0 0 0 110351041.2168143 -1661100.110600261 -1661100.110600261 -6683048.634947056 0 0 0 0 0 110230767.6105851 -1465848.125381589 -1465848.125381589 -6464102.491299183 0 0 0 0 0 110119853.2013897 -1278194.756571949 -1278194.756571949 -6253411.329358357 0 0 0 0 0 110001388.1185462 -1097916.677268362 -1097916.677268362 -6043966.355796954 0 0 0 0 0 109883020.9829587 -926304.773186003 -926304.773186003 -5838257.727490544 0 0 0 0 0 109762207.6795304 -764100.3674338082 -764100.3674338082 -5637927.862639364 0 0 0 0 0 109712164.1241189 -805493.6888762682 -805493.6888762682 -5742731.055700745 0 0 0 0 0 109408603.9388116 -776206.5344130639 -776206.5344130639 -5510865.190411833 0 0 0 0 0 109290235.5025006 -631227.5459604078 -631227.5459604078 -5326726.258653022 0 0 0 0 0 109172916.1594395 -494038.0932609125 -494038.0932609125 -5147488.556852371 0 0 0 0 0 109050765.5667173 -364476.1324783549 -364476.1324783549 -4976763.870949159 0 0 0 0 0 108999455.8382287 -403735.2731249199 -403735.2731249199 -5072352.404800237 0 0 0 0 0 108740669.8397967 -386090.681430581 -386090.681430581 -4865044.49676396 0 0 0 0 0 108638055.4459169 -272651.5310612992 -272651.5310612992 -4695045.82200224 0 0 0 0 0 108517668.318138 -173331.1047258931 -173331.1047258931 -4549787.41092862 0 0 0 0 0 108441973.8585144 -70369.08958125184 -70369.08958125184 -4391540.932576912 0 0 0 0 0 108303279.5280985 -33303.94458270993 -33303.94458270993 -4290405.248440251 0 0 0 0 0 111445611.9804703 -12899467.18559581 -12899467.18559581 -15220867.1558597 0 0 0 0 0 -3023831.275239738 10197715.35980705 10197715.35980705 -92584217.86838181 0 0 0 0 0 -2654902.392904283 7422727.839708754 7422727.839708754 -72924561.4097099 0 0 0 0 0 -1850293.698644963 9631538.188703956 9631538.188703956 -76899716.95791419 0 0 0 0 0 152879.8641711599 1023365.825380579 1023365.825380579 -55787378.45047466 0 0 0 0 0 -2173007.095191082 5373432.817963947 5373432.817963947 -60680549.28820974 0 0 0 0 0 -982337.2361385755 1697626.98902492 1697626.98902492 -52920214.41545365 0 0 0 0 0 4778433.144296984 -7141483.177668255 -7141483.177668255 -42625596.42951019 0 0 0 0 0 8365971.176920217 -10589356.47644869 -10589356.47644869 -36882806.5631993 0 0 0 0 0 12518328.92990923 -14296614.73783632 -14296614.73783632 -32128674.3499509 0 0 0 0 0 17373477.94684629 -17811658.21284356 -17811658.21284356 -28287021.50179789 0 0 0 0 0 26254043.75649727 -23766536.59447997 -23766536.59447997 -23640103.73247916 0 0 0 0 0 19160377.60943361 -17448604.62181602 -17448604.62181602 -28815813.11819876 0 0 0 0 0 31800230.88676189 -26215387.09718034 -26215387.09718034 -21864286.6068659 0 0 0 0 0 37528557.80397167 -28308744.37948509 -28308744.37948509 -20567117.2917362 0 0 0 0 0 43316265.5703731 -30015706.36769603 -30015706.36769603 -19687488.12650233 0 0 0 0 0 49085539.78386677 -31321245.30983642 -31321245.30983642 -19121655.12831324 0 0 0 0 0 54750786.23451697 -32240406.965832 -32240406.965832 -18803210.53888844 0 0 0 0 0 60257795.89010394 -32800324.58086988 -32800324.58086988 -18668698.77569497 0 0 0 0 0 65556565.99548501 -33029366.33478142 -33029366.33478142 -18666605.78913233 0 0 0 0 0 70619434.2655229 -32957715.40042018 -32957715.40042018 -18747842.68761197 0 0 0 0 0 74816490.90554227 -31783373.34587803 -31783373.34587803 -18749961.23889536 0 0 0 0 0 76299996.92096373 -32381714.5791376 -32381714.5791376 -18915251.67224723 0 0 0 0 0 80525093.39445096 -31750086.0815882 -31750086.0815882 -19041429.59390083 0 0 0 0 0 84463834.37406023 -30955297.28223006 -30955297.28223006 -19154416.80246782 0 0 0 0 0 88114536.86671452 -30019303.35706821 -30019303.35706821 -19235892.93588943 0 0 0 0 0 91433671.33158793 -28613850.37936592 -28613850.37936592 -19160858.74321954 0 0 0 0 0 91565286.39275926 -28939424.49227402 -28939424.49227402 -18807492.70470437 0 0 0 0 0 94365972.48002614 -27499803.30993437 -27499803.30993437 -19151281.01081548 0 0 0 0 0 97042292.8218075 -26331686.05734415 -26331686.05734415 -19095949.65174274 0 0 0 0 0 99476655.32206869 -25123422.11752092 -25123422.11752092 -18992254.52373784 0 0 0 0 0 101676997.9773419 -23893427.22673494 -23893427.22673494 -18843544.01367212 0 0 0 0 0 103657142.4868538 -22657308.46500835 -22657308.46500835 -18650171.28610804 0 0 0 0 0 105434077.2415702 -21424703.13588394 -21424703.13588394 -18416293.14806529 0 0 0 0 0 107463918.5560809 -20735634.27270423 -20735634.27270423 -17952272.42278641 0 0 0 0 0 106307775.9601225 -20091473.10963945 -20091473.10963945 -17972984.63435105 0 0 0 0 0 107676489.0491214 -18931553.11312862 -18931553.11312862 -17678947.64279148 0 0 0 0 0 108887884.0676267 -17797342.87016831 -17797342.87016831 -17356802.92541339 0 0 0 0 0 109954713.4356403 -16697737.76002089 -16697737.76002089 -17003427.84579131 0 0 0 0 0 110887691.2131649 -15642023.64656212 -15642023.64656212 -16633506.95535221 0 0 0 0 0 111681845.250483 -14622864.30022595 -14622864.30022595 -16240065.97013696 0 0 0 0 0 112777876.2745396 -14237829.43327384 -14237829.43327384 -15972225.38547029 0 0 0 0 0 111578930.3016546 -13731225.30146544 -13731225.30146544 -15748024.93428464 0 0 0 0 0 112189453.1438236 -12806317.61493128 -12806317.61493128 -15353073.20606891 0 0 0 0 0 112342420.8581115 -12577543.00130406 -12577543.00130406 -14947145.44221991 0 0 0 0 0 112779851.5564857 -11751081.63662958 -11751081.63662958 -14598147.0217075 0 0 0 0 0 112448602.7031179 -11068981.50285016 -11068981.50285016 -14087953.25577564 0 0 0 0 0 111715266.1284978 -11335495.57792502 -11335495.57792502 -14323712.99369536 0 0 0 0 0 112766812.247304 -10328049.39792597 -10328049.39792597 -13741489.08304527 0 0 0 0 0 113027621.7561046 -9619546.237105018 -9619546.237105018 -13389908.26993053 0 0 0 0 0 113238145.5416501 -8941995.185251638 -8941995.185251638 -13034048.4662584 0 0 0 0 0 113401240.3122196 -8296736.039253654 -8296736.039253654 -12676814.73966729 0 0 0 0 0 112922202.3586997 -7851437.926884647 -7851437.926884647 -12232825.48766703 0 0 0 0 0 112498271.8547174 -8000648.65361717 -8000648.65361717 -12349920.2631188 0 0 0 0 0 113022239.5567758 -7279217.135658058 -7279217.135658058 -11892013.72788193 0 0 0 0 0 113087758.4932407 -6735862.739018076 -6735862.739018076 -11552439.53006209 0 0 0 0 0 113123460.8238348 -6219460.302065701 -6219460.302065701 -11213971.17905656 0 0 0 0 0 113132727.6855837 -5729736.410346114 -5729736.410346114 -10878642.88684049 0 0 0 0 0 113117421.8697453 -5265473.496986924 -5265473.496986924 -10547180.30332547 0 0 0 0 0 112407454.740246 -5080423.275300613 -5080423.275300613 -10208025.20078664 0 0 0 0 0 112562312.1414313 -4610458.979552215 -4610458.979552215 -9884586.827217443 0 0 0 0 0 112397902.9975107 -4655694.589281098 -4655694.589281098 -9880957.445130402 0 0 0 0 0 112506362.2584898 -4219299.400837038 -4219299.400837038 -9578026.947872151 0 0 0 0 0 112434965.651237 -3849736.233227306 -3849736.233227306 -9277157.945364095 0 0 0 0 0 112349789.7665949 -3500448.61896733 -3500448.61896733 -8981620.261579679 0 0 0 0 0 112253412.5504741 -3169713.245950211 -3169713.245950211 -8691200.419384792 0 0 0 0 0 111768559.6547106 -3055349.063907071 -3055349.063907071 -8426470.698628193 0 0 0 0 0 111706420.7439668 -3059570.781379159 -3059570.781379159 -8375331.549379847 0 0 0 0 0 111666045.2660825 -2760952.961023205 -2760952.961023205 -8156657.334138091 0 0 0 0 0 111555479.985374 -2482843.888943158 -2482843.888943158 -7892691.406438487 0 0 0 0 0 111437901.3438466 -2220073.537656797 -2220073.537656797 -7634739.157461669 0 0 0 0 0 111313847.111254 -1971862.458732112 -1971862.458732112 -7382961.843744311 0 0 0 0 0 111184613.8212449 -1737875.868761654 -1737875.868761654 -7137573.212165558 0 0 0 0 0 110667534.1971726 -1464741.251668688 -1464741.251668688 -6605120.508442095 0 0 0 0 0 111050641.9663584 -1517245.574820264 -1517245.574820264 -6899645.780235316 0 0 0 0 0 110615145.2381978 -1518022.756913277 -1518022.756913277 -6739097.276583266 0 0 0 0 0 110482074.0015164 -1323710.204726551 -1323710.204726551 -6513209.394364729 0 0 0 0 0 110348920.6656365 -1137274.217591726 -1137274.217591726 -6296688.865745959 0 0 0 0 0 110215600.4321557 -961293.9242756763 -961293.9242756763 -6085678.691108034 0 0 0 0 0 110079960.41461 -794396.0216782989 -794396.0216782989 -5880780.98835175 0 0 0 0 0 109942863.755201 -639009.5737602283 -639009.5737602283 -5683965.869812375 0 0 0 0 0 109636044.4287502 -613429.6543523339 -613429.6543523339 -5445889.51711221 0 0 0 0 0 109581626.2044322 -656740.5161594674 -656740.5161594674 -5553450.879942222 0 0 0 0 0 109450275.203869 -516255.3749948574 -516255.3749948574 -5368580.110484754 0 0 0 0 0 109318365.1751547 -383945.1646376463 -383945.1646376463 -5190898.909491997 0 0 0 0 0 109190896.7035649 -256826.369026443 -256826.369026443 -5013611.252715409 0 0 0 0 0 108932432.5208411 -238262.0423014961 -238262.0423014961 -4809854.257642712 0 0 0 0 0 108876304.099081 -277960.8587156739 -277960.8587156739 -4902482.024322721 0 0 0 0 0 108750278.183921 -173955.2424711402 -173955.2424711402 -4752711.476155629 0 0 0 0 0 108665478.4172452 -57704.27208960456 -57704.27208960456 -4578085.019196638 0 0 0 0 0 108365454.2772431 -21167.70026397237 -21167.70026397237 -4475085.637721781 0 0 0 0 0 108217127.9329184 17584.85712023087 17584.85712023087 -4373013.146833719 0 0 0 0 0 113097060.8517713 -12488501.1947755 -12488501.1947755 -15106495.28923637 0 0 0 0 0 -2580443.480360742 11395957.31624005 11395957.31624005 -70951588.70003474 0 0 0 0 0 -3412612.196630723 12553367.96039647 12553367.96039647 -87534917.30663994 0 0 0 0 0 -2785508.276132855 7148034.638233612 7148034.638233612 -58724954.44242749 0 0 0 0 0 -2026196.0450127 7552847.603878388 7552847.603878388 -68403774.80454011 0 0 0 0 0 2001056.328732842 -1973171.187609361 -1973171.187609361 -48773181.46740673 0 0 0 0 0 1492995.513227631 -1625992.732516779 -1625992.732516779 -46998375.38285564 0 0 0 0 0 4463833.932758119 -5354429.977546989 -5354429.977546989 -41336456.23964482 0 0 0 0 0 9264921.825988928 -9529880.415899348 -9529880.415899348 -36151364.5596398 0 0 0 0 0 14780429.53451667 -13585982.3348223 -13585982.3348223 -31782584.34293338 0 0 0 0 0 25105386.98482886 -20637142.57597871 -20637142.57597871 -26042654.24026204 0 0 0 0 0 22695383.05620374 -21090255.0414074 -21090255.0414074 -25184061.0099314 0 0 0 0 0 31310359.30946538 -23467278.98438148 -23467278.98438148 -23850805.28663905 0 0 0 0 0 37666441.6052874 -25906313.57790544 -25906313.57790544 -22163066.08867659 0 0 0 0 0 44132832.76247997 -27926682.52267882 -27926682.52267882 -20908834.37708531 0 0 0 0 0 50494939.38132802 -29497895.00902601 -29497895.00902601 -20024518.47758237 0 0 0 0 0 56671779.724575 -30646258.82093074 -30646258.82093074 -19428282.97112117 0 0 0 0 0 62613224.1440865 -31398976.70891333 -31398976.70891333 -19058418.72508864 0 0 0 0 0 68275046.73349492 -31784286.73519899 -31784286.73519899 -18852823.7960061 0 0 0 0 0 73636476.38232669 -31842238.22386692 -31842238.22386692 -18765886.03199158 0 0 0 0 0 75411047.95462862 -32616273.45197739 -32616273.45197739 -18870301.96109593 0 0 0 0 0 79519393.076406 -31450211.22695911 -31450211.22695911 -18776638.92982362 0 0 0 0 0 83866097.48545226 -30894198.02947829 -30894198.02947829 -18829694.8448193 0 0 0 0 0 87878224.95264649 -30156315.29811638 -30156315.29811638 -18882502.88031204 0 0 0 0 0 91560508.9154833 -29269611.28368352 -29269611.28368352 -18925576.65027219 0 0 0 0 0 94749915.05612195 -27936917.91892412 -27936917.91892412 -18825125.4250074 0 0 0 0 0 91481373.94205332 -28970879.60339024 -28970879.60339024 -19282133.57719333 0 0 0 0 0 97637251.94570658 -26851849.53385689 -26851849.53385689 -18809290.60222449 0 0 0 0 0 100246903.4482968 -25707722.64499775 -25707722.64499775 -18753742.90963067 0 0 0 0 0 102590773.5925199 -24519878.12207748 -24519878.12207748 -18657529.71288881 0 0 0 0 0 104693086.3024765 -23307885.12886425 -23307885.12886425 -18520215.12518735 0 0 0 0 0 106565887.3504329 -22087176.16605962 -22087176.16605962 -18341670.46165492 0 0 0 0 0 108226756.6543924 -20869128.50675633 -20869128.50675633 -18123919.4433011 0 0 0 0 0 107022581.8298796 -20201457.16837485 -20201457.16837485 -18141838.40311622 0 0 0 0 0 108882269.1104879 -19568857.62484407 -19568857.62484407 -17711845.76060287 0 0 0 0 0 110126284.2593292 -18421111.7732724 -18421111.7732724 -17439473.86344622 0 0 0 0 0 111215838.4708717 -17299421.23703359 -17299421.23703359 -17138135.20152923 0 0 0 0 0 112143523.2519605 -16216597.8583303 -16216597.8583303 -16819970.20701732 0 0 0 0 0 112939207.5353751 -15173879.06560595 -15173879.06560595 -16478912.15331621 0 0 0 0 0 113616678.4106527 -14169707.81936537 -14169707.81936537 -16122732.36700981 0 0 0 0 0 112368395.7627875 -13643658.92376772 -13643658.92376772 -15860817.63797346 0 0 0 0 0 113377901.9327697 -13294758.48228959 -13294758.48228959 -15611647.81715875 0 0 0 0 0 113881409.3824132 -12382369.641646 -12382369.641646 -15236443.15237512 0 0 0 0 0 111971951.658673 -12038996.73241078 -12038996.73241078 -14835330.15550048 0 0 0 0 0 112420281.9506612 -11215524.53222234 -11215524.53222234 -14444798.04925566 0 0 0 0 0 112106277.7266136 -10566002.58592203 -10566002.58592203 -13945954.1453211 0 0 0 0 0 113148279.7930858 -10958057.80975911 -10958057.80975911 -14238322.10838608 0 0 0 0 0 112436028.2784943 -9830143.651552301 -9830143.651552301 -13564407.14120913 0 0 0 0 0 112710550.0675935 -9127083.421635197 -9127083.421635197 -13179449.50720776 0 0 0 0 0 112932315.7243826 -8458418.790141709 -8458418.790141709 -12794976.82963007 0 0 0 0 0 113108828.880734 -7822415.475783484 -7822415.475783484 -12410784.78230496 0 0 0 0 0 112647927.7217482 -7407907.737930865 -7407907.737930865 -11983339.38925592 0 0 0 0 0 113522402.6992916 -7682748.083253369 -7682748.083253369 -12318913.6037373 0 0 0 0 0 112760361.1323526 -6845099.66375842 -6845099.66375842 -11619656.39059163 0 0 0 0 0 112838980.4726219 -6311132.868703836 -6311132.868703836 -11259486.11690787 0 0 0 0 0 112886478.0012174 -5805385.139945837 -5805385.139945837 -10903790.18337263 0 0 0 0 0 112906582.2337367 -5326297.656804672 -5326297.656804672 -10553748.67525826 0 0 0 0 0 112901945.2572813 -4873309.012663349 -4873309.012663349 -10209526.69341113 0 0 0 0 0 113080730.2832965 -4825875.835248741 -4825875.835248741 -10219980.08461661 0 0 0 0 0 112368879.3450857 -4253252.750332722 -4253252.750332722 -9559806.745364649 0 0 0 0 0 113025183.7676701 -4409542.309845479 -4409542.309845479 -9897206.99768294 0 0 0 0 0 112323552.6116668 -3872252.93890746 -3872252.93890746 -9243182.178237053 0 0 0 0 0 112260778.231301 -3513209.973826287 -3513209.973826287 -8934574.189395964 0 0 0 0 0 112184305.0742543 -3174095.608712615 -3174095.608712615 -8633064.608585713 0 0 0 0 0 112095340.9889541 -2853835.702636729 -2853835.702636729 -8338238.032471999 0 0 0 0 0 111621782.1317024 -2757402.994647418 -2757402.994647418 -8094828.517069911 0 0 0 0 0 112145853.1361499 -2857446.718835651 -2857446.718835651 -8407056.001764387 0 0 0 0 0 111527082.3777767 -2472310.398709565 -2472310.398709565 -7821038.027524792 0 0 0 0 0 111423853.6384846 -2203243.071132124 -2203243.071132124 -7554296.4932124 0 0 0 0 0 111312925.3161758 -1949386.860894401 -1949386.860894401 -7294840.438268923 0 0 0 0 0 111196075.669929 -1709821.26319576 -1709821.26319576 -7041349.958057181 0 0 0 0 0 111073137.1626039 -1484228.553687477 -1484228.553687477 -6795908.847323657 0 0 0 0 0 110880815.2559075 -1327393.476302798 -1327393.476302798 -6693239.034207229 0 0 0 0 0 110946656.9384758 -1273298.746157082 -1273298.746157082 -6554915.974139552 0 0 0 0 0 110512894.553699 -1288199.881447183 -1288199.881447183 -6413183.099467417 0 0 0 0 0 110383433.1974515 -1101499.771612283 -1101499.771612283 -6194582.277527837 0 0 0 0 0 110260170.1138597 -921320.5467181144 -921320.5467181144 -5979284.461418059 0 0 0 0 0 110131054.469615 -751374.116087319 -751374.116087319 -5769621.119100614 0 0 0 0 0 110000404.9235869 -592567.9584316853 -592567.9584316853 -5566056.041173368 0 0 0 0 0 109864645.706675 -444526.6711762818 -444526.6711762818 -5371209.585142703 0 0 0 0 0 109802035.1994574 -493165.5580448819 -493165.5580448819 -5490877.080191668 0 0 0 0 0 109509985.041247 -470644.5198550477 -470644.5198550477 -5258469.029761645 0 0 0 0 0 109382629.5998416 -336207.1507595947 -336207.1507595947 -5076735.660870584 0 0 0 0 0 109255232.9035095 -209749.6921897658 -209749.6921897658 -4901252.603027587 0 0 0 0 0 109126151.5534814 -89464.84025165188 -89464.84025165188 -4730474.655973327 0 0 0 0 0 109061044.3097048 -137496.6378592654 -137496.6378592654 -4845362.930778278 0 0 0 0 0 108817568.3928126 -125725.7315508903 -125725.7315508903 -4638247.056308339 0 0 0 0 0 108693493.8212847 -34747.86374957055 -34747.86374957055 -4495916.337735405 0 0 0 0 0 108516679.2419364 15202.35353941288 15202.35353941288 -4482346.870080733 0 0 0 0 0 108639675.8794983 134245.6480092405 134245.6480092405 -4274248.607688276 0 0 0 0 0 108470754.9057205 151727.2532336117 151727.2532336117 -4164321.524407854 0 0 0 0 0 112713812.6373952 -11920534.46815244 -11920534.46815244 -14949464.42944638 0 0 0 0 0 -3703585.781937277 14310372.32180697 14310372.32180697 -81383651.22645532 0 0 0 0 0 -409573.5535808367 5314786.404884089 5314786.404884089 -59485076.97148746 0 0 0 0 0 -3010464.744279186 12785791.8684238 12785791.8684238 -66012384.04106393 0 0 0 0 0 -2075230.741262093 5173242.380930413 5173242.380930413 -53349349.20729937 0 0 0 0 0 5207754.9311655 -5344814.604518837 -5344814.604518837 -42058103.29950301 0 0 0 0 0 8918077.09256912 -9587814.146645328 -9587814.146645328 -36000077.03130432 0 0 0 0 0 13562536.56869009 -13669631.96098047 -13669631.96098047 -30787803.94054222 0 0 0 0 0 18842904.14622491 -17538580.35051814 -17538580.35051814 -26849493.39717292 0 0 0 0 0 28360033.71761361 -24037687.58535368 -24037687.58535368 -22858612.73619623 0 0 0 0 0 20727324.9246864 -17349901.9652838 -17349901.9652838 -28197012.2861919 0 0 0 0 0 34258484.7797306 -26595310.76364164 -26595310.76364164 -21126960.78247291 0 0 0 0 0 40319031.27981741 -28740274.90910864 -28740274.90910864 -19929950.04843133 0 0 0 0 0 46409195.25973357 -30417182.54723532 -30417182.54723532 -19152006.36405176 0 0 0 0 0 52404981.57307927 -31648000.80713443 -31648000.80713443 -18685059.30396792 0 0 0 0 0 58246260.29954535 -32467902.878424 -32467902.878424 -18463261.50857056 0 0 0 0 0 63880636.54677584 -32904640.9838073 -32904640.9838073 -18414567.64280066 0 0 0 0 0 69263110.52933727 -32992978.54860403 -32992978.54860403 -18484472.23929755 0 0 0 0 0 74372129.5281149 -32772289.14752143 -32772289.14752143 -18616024.96803143 0 0 0 0 0 78666885.12542284 -31613127.27773361 -31613127.27773361 -18762122.65291885 0 0 0 0 0 79908531.07071586 -32044153.52826839 -32044153.52826839 -18998370.42800963 0 0 0 0 0 84083769.92874724 -31280361.37871889 -31280361.37871889 -19122915.32439664 0 0 0 0 0 87948832.93956077 -30356205.23603037 -30356205.23603037 -19222149.74455613 0 0 0 0 0 91502449.25390334 -29301074.22536881 -29301074.22536881 -19281321.75732348 0 0 0 0 0 94569403.5211006 -27832709.32217218 -27832709.32217218 -19278152.14132025 0 0 0 0 0 94919369.17868401 -28259832.39753129 -28259832.39753129 -18940622.15914415 0 0 0 0 0 97379951.03048261 -26633001.64314686 -26633001.64314686 -19224541.43518447 0 0 0 0 0 99927244.4459841 -25390187.03919264 -25390187.03919264 -19119471.35860198 0 0 0 0 0 102221477.3317817 -24124379.95994474 -24124379.95994474 -18970559.2956927 0 0 0 0 0 104281837.2618196 -22843606.03674921 -22843606.03674921 -18777626.00682188 0 0 0 0 0 106126470.0705636 -21562565.20137614 -21562565.20137614 -18535788.01494325 0 0 0 0 0 107769746.2904386 -20294307.67988917 -20294307.67988917 -18251796.42665884 0 0 0 0 0 109683135.1909287 -19659813.24841025 -19659813.24841025 -17872572.76073973 0 0 0 0 0 108429552.3224324 -18999132.59739266 -18999132.59739266 -17835035.40781202 0 0 0 0 0 109669302.0868218 -17825937.27072514 -17825937.27072514 -17497388.40865171 0 0 0 0 0 110759480.3189493 -16685675.80843674 -16685675.80843674 -17133163.17503571 0 0 0 0 0 111706810.6941773 -15586634.03041437 -15586634.03041437 -16737623.17255598 0 0 0 0 0 112511553.4451354 -14533458.71281815 -14533458.71281815 -16338925.90724823 0 0 0 0 0 113195690.8124567 -13527520.27598568 -13527520.27598568 -15924935.17977037 0 0 0 0 0 114200292.5463203 -13194275.33313727 -13194275.33313727 -15728970.90309249 0 0 0 0 0 112967352.964971 -12693951.2671581 -12693951.2671581 -15450962.62000566 0 0 0 0 0 113482453.2798902 -11782826.4775494 -11782826.4775494 -15028913.72749957 0 0 0 0 0 113523270.5525708 -11639648.68979224 -11639648.68979224 -14740499.64451947 0 0 0 0 0 113877232.5016156 -10827409.10569613 -10827409.10569613 -14364819.13562045 0 0 0 0 0 113453551.5779397 -10198739.29039808 -10198739.29039808 -13873349.24047406 0 0 0 0 0 112797472.3830739 -10428364.80621836 -10428364.80621836 -14050435.76175166 0 0 0 0 0 113700966.13215 -9472331.888251586 -9472331.888251586 -13503108.90121848 0 0 0 0 0 113893902.197558 -8780354.710452197 -8780354.710452197 -13131202.84106306 0 0 0 0 0 114039365.7908709 -8121776.527452592 -8121776.527452592 -12757116.30133662 0 0 0 0 0 114141606.9807747 -7496607.323820909 -7496607.323820909 -12384406.96521988 0 0 0 0 0 113605075.7596743 -7100036.128151139 -7100036.128151139 -11962638.92875976 0 0 0 0 0 113242245.6017856 -7219431.853971092 -7219431.853971092 -12030480.00311816 0 0 0 0 0 113653869.0669209 -6546843.047809735 -6546843.047809735 -11608102.57694291 0 0 0 0 0 113671559.1813044 -6022702.201289155 -6022702.201289155 -11256384.11061298 0 0 0 0 0 113661768.6613604 -5526581.154981031 -5526581.154981031 -10908222.61709135 0 0 0 0 0 113628395.0355632 -5057690.172003157 -5057690.172003157 -10564501.50827152 0 0 0 0 0 113573496.5247354 -4613773.778063335 -4613773.778063335 -10225281.97361505 0 0 0 0 0 112875901.1303979 -4444723.643822328 -4444723.643822328 -9871172.231789872 0 0 0 0 0 112954058.7219904 -4015181.884418608 -4015181.884418608 -9579401.314367037 0 0 0 0 0 112830422.6254425 -4039680.811284049 -4039680.811284049 -9539736.857474376 0 0 0 0 0 112865426.6524537 -3643754.482600079 -3643754.482600079 -9269276.079529302 0 0 0 0 0 112764020.3656279 -3292928.640843445 -3292928.640843445 -8964435.234703135 0 0 0 0 0 112651301.2997075 -2961737.223408701 -2961737.223408701 -8665782.860289145 0 0 0 0 0 112528906.6743624 -2648981.12750188 -2648981.12750188 -8373212.483385243 0 0 0 0 0 112029188.4390419 -2562724.693039416 -2562724.693039416 -8129583.856283242 0 0 0 0 0 111996687.5298128 -2551308.686573569 -2551308.686573569 -8050129.52703854 0 0 0 0 0 111904167.1219618 -2284625.145417801 -2284625.145417801 -7858294.186260913 0 0 0 0 0 111772736.3249819 -2022524.031444876 -2022524.031444876 -7593677.834196285 0 0 0 0 0 111636144.2060179 -1775296.872625824 -1775296.872625824 -7335156.419281426 0 0 0 0 0 111493582.2221294 -1542466.227745751 -1542466.227745751 -7083824.838483416 0 0 0 0 0 111347517.7552268 -1323502.340817424 -1323502.340817424 -6839162.049676771 0 0 0 0 0 110823185.3849027 -1083033.165204326 -1083033.165204326 -6308659.060735149 0 0 0 0 0 111194831.7683984 -1119328.430819369 -1119328.430819369 -6603867.729478396 0 0 0 0 0 110751457.5597035 -1142431.827047618 -1142431.827047618 -6460368.884887173 0 0 0 0 0 110608919.6012395 -958163.5297375156 -958163.5297375156 -6238174.324327614 0 0 0 0 0 110465576.2089393 -783435.128516337 -783435.128516337 -6023906.44708621 0 0 0 0 0 110319769.2037319 -619083.1546517677 -619083.1546517677 -5814659.645715949 0 0 0 0 0 110170889.4734001 -466629.9275429408 -466629.9275429408 -5614293.971992697 0 0 0 0 0 110022774.2588284 -324240.6315776921 -324240.6315776921 -5419728.220566316 0 0 0 0 0 109729220.5428154 -304236.6541726007 -304236.6541726007 -5181154.635255341 0 0 0 0 0 109661549.6443024 -355107.3425631038 -355107.3425631038 -5303443.123489778 0 0 0 0 0 109521776.0704965 -224620.3925588835 -224620.3925588835 -5120887.449759046 0 0 0 0 0 109382066.6178467 -102001.7779719612 -102001.7779719612 -4944677.706220623 0 0 0 0 0 109243837.0544331 13454.69298939694 13454.69298939694 -4771964.144084885 0 0 0 0 0 109000161.3191743 23725.09121208742 23725.09121208742 -4564631.701859719 0 0 0 0 0 108905556.5069303 -37030.9446606541 -37030.9446606541 -4696057.284190704 0 0 0 0 0 108718252.8661309 33193.42478281457 33193.42478281457 -4572036.052732368 0 0 0 0 0 108810429.1650552 170553.5422808936 170553.5422808936 -4319714.064468299 0 0 0 0 0 108493060.2262021 176019.5934408886 176019.5934408886 -4315499.512423052 0 0 0 0 0 108356864.3784248 204367.7121811288 204367.7121811288 -4248035.804114147 0 0 0 0 0 114297823.9742046 -11508091.19276182 -11508091.19276182 -14850977.186642 0 0 0 0 0 -3361026.755264099 13118185.45024785 13118185.45024785 -58718366.8316085 0 0 0 0 0 -4061181.988534038 14950028.97069552 14950028.97069552 -74122398.17656437 0 0 0 0 0 1751040.644668715 1463299.437472047 1463299.437472047 -46758017.64756212 0 0 0 0 0 486267.98887613 967625.0141795792 967625.0141795792 -47421299.74198295 0 0 0 0 0 4646493.390959709 -3909058.283799966 -3909058.283799966 -40611445.50423582 0 0 0 0 0 9986561.07130935 -8676132.389744926 -8676132.389744926 -35040004.91263126 0 0 0 0 0 15927812.44468936 -13127052.10308892 -13127052.10308892 -30511886.62156251 0 0 0 0 0 27199550.05694129 -20812549.57789163 -20812549.57789163 -25329672.29544652 0 0 0 0 0 24564703.27400881 -21122541.49043858 -21122541.49043858 -23671665.80528151 0 0 0 0 0 33822992.78596593 -23801965.00309474 -23801965.00309474 -23129071.30967829 0 0 0 0 0 40649382.94310839 -26325149.740118 -26325149.740118 -21487891.59334364 0 0 0 0 0 47468821.58314257 -28343131.19620462 -28343131.19620462 -20305905.71830427 0 0 0 0 0 54067695.43009827 -29858511.19976399 -29858511.19976399 -19503131.2061546 0 0 0 0 0 60433225.16305787 -30914058.57202186 -30914058.57202186 -18997088.82512798 0 0 0 0 0 66503356.84230313 -31544947.9365396 -31544947.9365396 -18711107.00393216 0 0 0 0 0 72240450.97734429 -31790671.26144072 -31790671.26144072 -18576050.64408072 0 0 0 0 0 77621155.08623952 -31695054.59803657 -31695054.59803657 -18545636.50135522 0 0 0 0 0 79165646.77834332 -32280520.42219891 -32280520.42219891 -18762155.1520115 0 0 0 0 0 83313348.13696617 -31130970.89014477 -31130970.89014477 -18805367.5570279 0 0 0 0 0 87592000.48915455 -30437900.58183862 -30437900.58183862 -18860431.62326162 0 0 0 0 0 91504209.65355852 -29570804.85118854 -29570804.85118854 -18907979.02994604 0 0 0 0 0 95063106.21131863 -28560811.50024732 -28560811.50024732 -18932919.89960623 0 0 0 0 0 97963947.38303111 -27155188.28200809 -27155188.28200809 -18925422.08930699 0 0 0 0 0 94756321.58517359 -28147984.33678718 -28147984.33678718 -19292115.37562386 0 0 0 0 0 100704388.3778432 -25982860.61891511 -25982860.61891511 -18871244.08335825 0 0 0 0 0 103154302.7621511 -24764494.52989121 -24764494.52989121 -18777858.84392567 0 0 0 0 0 105342093.9247408 -23517856.81716349 -23517856.81716349 -18637345.50110412 0 0 0 0 0 107301163.814414 -22256762.47718208 -22256762.47718208 -18451684.04216561 0 0 0 0 0 109020313.1388584 -20990618.18739887 -20990618.18739887 -18227194.40594453 0 0 0 0 0 110521046.8043188 -19736729.26068592 -19736729.26068592 -17969845.04813981 0 0 0 0 0 109216457.6232559 -19051827.31336591 -19051827.31336591 -17931609.60731462 0 0 0 0 0 110961291.9924119 -18472016.80107414 -18472016.80107414 -17587142.48451433 0 0 0 0 0 112068639.0448014 -17311954.84321053 -17311954.84321053 -17271975.0788025 0 0 0 0 0 113024239.6332548 -16184884.95815001 -16184884.95815001 -16931478.98225528 0 0 0 0 0 113817699.3059498 -15107191.60151147 -15107191.60151147 -16582030.64151986 0 0 0 0 0 114488713.2647594 -14068070.93540226 -14068070.93540226 -16205321.79569184 0 0 0 0 0 115063022.8409926 -13074947.40925687 -13074947.40925687 -15809183.60165224 0 0 0 0 0 113782662.203591 -12559052.24380044 -12559052.24380044 -15509075.66827728 0 0 0 0 0 114696092.9787181 -12257383.41731855 -12257383.41731855 -15333391.86935505 0 0 0 0 0 115100924.2312393 -11359021.99343499 -11359021.99343499 -14929299.27836023 0 0 0 0 0 113154208.5397408 -11074454.85890082 -11074454.85890082 -14537662.78413151 0 0 0 0 0 113519847.4858025 -10268071.54226602 -10268071.54226602 -14125578.79161913 0 0 0 0 0 113113860.3685879 -9675151.889683988 -9675151.889683988 -13651698.78225631 0 0 0 0 0 114165712.4756249 -10050023.58327458 -10050023.58327458 -13980974.09743247 0 0 0 0 0 113373989.2160081 -8956250.228981901 -8956250.228981901 -13249095.13676821 0 0 0 0 0 113581602.4729732 -8273119.223722292 -8273119.223722292 -12847862.23945976 0 0 0 0 0 113740816.8982082 -7625496.115495581 -7625496.115495581 -12448223.08538213 0 0 0 0 0 113857213.4566629 -7011814.343820318 -7011814.343820318 -12052601.05576927 0 0 0 0 0 113338868.8472672 -6646586.152731987 -6646586.152731987 -11651529.96376207 0 0 0 0 0 114206781.0567165 -6902728.683289802 -6902728.683289802 -12011417.95296552 0 0 0 0 0 113400423.8061638 -6104208.949540415 -6104208.949540415 -11276960.62943813 0 0 0 0 0 113430681.2813627 -5591746.551480853 -5591746.551480853 -10908849.80864119 0 0 0 0 0 113433432.7233182 -5107254.634433841 -5107254.634433841 -10544904.94877985 0 0 0 0 0 113409868.2519489 -4650779.28713195 -4650779.28713195 -10190853.17135835 0 0 0 0 0 113366318.6663276 -4218680.683398307 -4218680.683398307 -9841498.515100451 0 0 0 0 0 113499635.1034811 -4194317.262666827 -4194317.262666827 -9891954.378763717 0 0 0 0 0 112767416.0795114 -3657054.672557766 -3657054.672557766 -9214550.433004186 0 0 0 0 0 113409406.1211349 -3798224.683559472 -3798224.683559472 -9564419.092512991 0 0 0 0 0 112689993.6685645 -3296049.280652261 -3296049.280652261 -8896483.694419729 0 0 0 0 0 112597816.2773922 -2956066.125152816 -2956066.125152816 -8586032.660244731 0 0 0 0 0 112493542.2474898 -2635748.616981305 -2635748.616981305 -8283994.11732191 0 0 0 0 0 112378969.2519996 -2333713.372326825 -2333713.372326825 -7988725.460208411 0 0 0 0 0 111888146.2247923 -2266203.582881433 -2266203.582881433 -7769534.559231655 0 0 0 0 0 112397505.852295 -2354164.056907763 -2354164.056907763 -8087756.764565763 0 0 0 0 0 111771917.5526606 -1997365.973507321 -1997365.973507321 -7495368.694745944 0 0 0 0 0 111647622.7402926 -1744799.872504764 -1744799.872504764 -7229552.288704841 0 0 0 0 0 111517231.9938097 -1506776.538386427 -1506776.538386427 -6971277.483426321 0 0 0 0 0 111382631.3320946 -1282589.875946433 -1282589.875946433 -6718774.261145948 0 0 0 0 0 111243445.4490243 -1072487.906756069 -1072487.906756069 -6475191.693224196 0 0 0 0 0 111009342.2089078 -944041.6270758262 -944041.6270758262 -6405253.784786443 0 0 0 0 0 111101748.2898698 -874962.3279661579 -874962.3279661579 -6238403.746194219 0 0 0 0 0 110657019.4557281 -914499.0592640762 -914499.0592640762 -6121257.64613214 0 0 0 0 0 110520948.124829 -736319.9582532782 -736319.9582532782 -5901693.370083451 0 0 0 0 0 110382301.0756398 -569084.9806412779 -569084.9806412779 -5688924.221553943 0 0 0 0 0 110241910.1893224 -412474.1755445021 -412474.1755445021 -5481705.326038763 0 0 0 0 0 110099747.040713 -266608.6749954307 -266608.6749954307 -5282787.235836484 0 0 0 0 0 109951585.3526506 -131360.3551093338 -131360.3551093338 -5092879.034688998 0 0 0 0 0 109874143.0589032 -188239.376509405 -188239.376509405 -5227926.351625871 0 0 0 0 0 109593232.6461576 -172526.3540355564 -172526.3540355564 -4996536.204949203 0 0 0 0 0 109457809.12358 -47883.58244661905 -47883.58244661905 -4817151.282354652 0 0 0 0 0 109323317.9697137 69285.38127280545 69285.38127280545 -4642102.111497349 0 0 0 0 0 109187976.2256485 179340.1292444161 179340.1292444161 -4472574.829225818 0 0 0 0 0 109105533.3151313 121619.5974058422 121619.5974058422 -4606442.223851223 0 0 0 0 0 108885814.4719515 132851.3853975887 132851.3853975887 -4389580.21350986 0 0 0 0 0 108666392.200137 211156.4680856677 211156.4680856677 -4306241.185209805 0 0 0 0 0 108593954.0727554 335961.3747858044 335961.3747858044 -4036126.9823664 0 0 0 0 0 108776280.7998179 326047.700334539 326047.700334539 -4103027.198153067 0 0 0 0 0 113915122.8821124 -10912871.92073034 -10912871.92073034 -14599667.57170074 0 0 0 0 0 -4362075.676075969 14603517.55931956 14603517.55931956 -64988996.35679009 0 0 0 0 0 -1854616.73846168 7789047.008909796 7789047.008909796 -54534734.75851833 0 0 0 0 0 5094897.314070213 -3643754.996543475 -3643754.996543475 -40084928.12458403 0 0 0 0 0 9647139.57635536 -8401728.71626832 -8401728.71626832 -33612020.24657757 0 0 0 0 0 14661051.40128044 -12966819.2035825 -12966819.2035825 -28519037.41869015 0 0 0 0 0 20374952.99470627 -17284710.36845055 -17284710.36845055 -24579139.38169856 0 0 0 0 0 30647563.35485773 -24268038.33917513 -24268038.33917513 -21487279.68103957 0 0 0 0 0 22411202.81153821 -17241064.08948023 -17241064.08948023 -26856124.31987857 0 0 0 0 0 36910615.21390074 -26974299.9282007 -26974299.9282007 -19939884.46172588 0 0 0 0 0 43357493.7937251 -29114568.27740689 -29114568.27740689 -18892338.26849604 0 0 0 0 0 49724990.15645843 -30746755.3400622 -30746755.3400622 -18262005.22487449 0 0 0 0 0 55940029.7514784 -31901999.38975478 -31901999.38975478 -17952276.23669865 0 0 0 0 0 61947623.17415801 -32603723.99308489 -32603723.99308489 -17868241.44401823 0 0 0 0 0 67688006.15171041 -32900277.56279255 -32900277.56279255 -17936453.93470236 0 0 0 0 0 73135180.7650589 -32835306.42818954 -32835306.42818954 -18094956.58307033 0 0 0 0 0 78263582.75424975 -32458821.10272755 -32458821.10272755 -18289940.80120984 0 0 0 0 0 82619389.92944968 -31313728.46377328 -31313728.46377328 -18592238.51460786 0 0 0 0 0 83612194.54664828 -31566130.80840515 -31566130.80840515 -18916003.34495378 0 0 0 0 0 87717635.69789067 -30663631.95947348 -30663631.95947348 -19042419.94082851 0 0 0 0 0 91484528.72223747 -29612708.10471784 -29612708.10471784 -19130482.21055544 0 0 0 0 0 94924525.18959521 -28446463.50935261 -28446463.50935261 -19168742.02966078 0 0 0 0 0 97714233.32690424 -26919331.81828024 -26919331.81828024 -19251588.96219972 0 0 0 0 0 98279322.51664585 -27444645.41352206 -27444645.41352206 -18927091.59466947 0 0 0 0 0 100387435.0347556 -25643988.36942471 -25643988.36942471 -19154774.06511658 0 0 0 0 0 102782858.6238208 -24338859.65925015 -24338859.65925015 -19008767.21955876 0 0 0 0 0 104921903.0078069 -23017420.40355893 -23017420.40355893 -18818200.6914123 0 0 0 0 0 106837388.6822178 -21686757.61594423 -21686757.61594423 -18583039.91535921 0 0 0 0 0 108545052.5077841 -20374579.50353343 -20374579.50353343 -18292239.64098072 0 0 0 0 0 110038403.8140773 -19086588.13349503 -19086588.13349503 -17962547.60946465 0 0 0 0 0 111822491.2765595 -18510563.72269447 -18510563.72269447 -17677625.22352815 0 0 0 0 0 110484748.8785306 -17837002.5899575 -17837002.5899575 -17584837.96297137 0 0 0 0 0 111594909.1529135 -16656810.15400458 -16656810.15400458 -17206439.13132141 0 0 0 0 0 112556164.7086384 -15518306.20539085 -15518306.20539085 -16803672.78397316 0 0 0 0 0 113381602.7803295 -14424782.72845308 -14424782.72845308 -16372901.66432636 0 0 0 0 0 114055420.9723054 -13393965.10204487 -13393965.10204487 -15951348.24344422 0 0 0 0 0 114630768.8815667 -12402453.17228881 -12402453.17228881 -15518542.65031029 0 0 0 0 0 115543243.7784389 -12110699.65568282 -12110699.65568282 -15390398.49683036 0 0 0 0 0 114284347.1903372 -11624703.03625902 -11624703.03625902 -15070402.20711428 0 0 0 0 0 114704398.5165216 -10731634.10943278 -10731634.10943278 -14624679.26898417 0 0 0 0 0 114635403.8907945 -10675876.73845861 -10675876.73845861 -14459623.78087776 0 0 0 0 0 114907762.5255762 -9879084.384857154 -9879084.384857154 -14058124.17100651 0 0 0 0 0 114396311.8037236 -9306805.420631042 -9306805.420631042 -13592583.89801403 0 0 0 0 0 113821354.0317028 -9497260.510166872 -9497260.510166872 -13708322.03386481 0 0 0 0 0 114572108.7629384 -8599831.261599485 -8599831.261599485 -13203585.23599421 0 0 0 0 0 114699592.7295976 -7927936.554222714 -7927936.554222714 -12813199.26102179 0 0 0 0 0 114782623.0584771 -7291517.762328191 -7291517.762328191 -12424082.71563293 0 0 0 0 0 114827501.5615411 -6688238.74094453 -6688238.74094453 -12036877.91327989 0 0 0 0 0 114236883.409794 -6340751.81245717 -6340751.81245717 -11642528.78075022 0 0 0 0 0 113935024.1883206 -6430149.330916866 -6430149.330916866 -11659799.8188067 0 0 0 0 0 114235186.1513725 -5809559.152847026 -5809559.152847026 -11277658.33385297 0 0 0 0 0 114206652.6002966 -5307161.377337901 -5307161.377337901 -10916255.83629031 0 0 0 0 0 114151809.3178428 -4834014.606781008 -4834014.606781008 -10561968.01937686 0 0 0 0 0 114078195.4642693 -4386457.577290561 -4386457.577290561 -10210415.80730308 0 0 0 0 0 113985432.4424254 -3964186.428363767 -3964186.428363767 -9866317.861535177 0 0 0 0 0 113303405.2919235 -3811236.676572752 -3811236.676572752 -9499686.137880912 0 0 0 0 0 113304671.7566095 -3424620.477285352 -3424620.477285352 -9243401.560843969 0 0 0 0 0 113223631.6133485 -3427091.73953294 -3427091.73953294 -9165486.853554612 0 0 0 0 0 113186424.9740286 -3072566.206515943 -3072566.206515943 -8929699.010481112 0 0 0 0 0 113056786.8261251 -2741316.789628708 -2741316.789628708 -8622987.912399078 0 0 0 0 0 112918392.7080668 -2428856.79575297 -2428856.79575297 -8322702.010698361 0 0 0 0 0 112771271.1616254 -2134783.387384966 -2134783.387384966 -8029968.163055073 0 0 0 0 0 112259069.3311333 -2076163.092435372 -2076163.092435372 -7808860.866961103 0 0 0 0 0 112255581.3612706 -2049383.397483892 -2049383.397483892 -7701740.071430335 0 0 0 0 0 112113040.5294208 -1815071.530607514 -1815071.530607514 -7537837.911451574 0 0 0 0 0 111962150.1065004 -1569510.233786447 -1569510.233786447 -7273362.202962992 0 0 0 0 0 111807889.6851472 -1337855.428489222 -1337855.428489222 -7015230.137784254 0 0 0 0 0 111647987.3788242 -1120217.052526168 -1120217.052526168 -6765392.628455924 0 0 0 0 0 111487205.4562718 -916427.3472969632 -916427.3472969632 -6522605.66055693 0 0 0 0 0 110968531.416209 -697939.0546712823 -697939.0546712823 -5996629.16903628 0 0 0 0 0 111322766.6176829 -725430.9505164914 -725430.9505164914 -6287444.490718295 0 0 0 0 0 110870109.6461285 -770329.5148119837 -770329.5148119837 -6168489.163148893 0 0 0 0 0 110717401.3741485 -598177.0493007011 -598177.0493007011 -5948401.774048829 0 0 0 0 0 110561842.4474963 -436515.8672922458 -436515.8672922458 -5736069.495387331 0 0 0 0 0 110402996.4441688 -286293.4841061067 -286293.4841061067 -5531993.559320716 0 0 0 0 0 110243440.862029 -147179.11118472 -147179.11118472 -5336166.258035043 0 0 0 0 0 110087423.6994003 -14331.80595753132 -14331.80595753132 -5141495.260995927 0 0 0 0 0 109806521.3982568 -1878.788423678172 -1878.788423678172 -4905962.472891215 0 0 0 0 0 109725432.7465905 -59773.0761198678 -59773.0761198678 -5042320.382753924 0 0 0 0 0 109577889.201814 60993.4171015816 60993.4171015816 -4862551.34774387 0 0 0 0 0 109430645.1506746 174309.9464724957 174309.9464724957 -4687876.922429159 0 0 0 0 0 109285411.8921728 279989.0607518969 279989.0607518969 -4517737.563966264 0 0 0 0 0 109052646.6199839 283628.8272657101 283628.8272657101 -4308488.677702037 0 0 0 0 0 108949754.6130706 214311.7534973786 214311.7534973786 -4462862.72838761 0 0 0 0 0 108842850.9439275 341450.6978761797 341450.6978761797 -4235113.220636144 0 0 0 0 0 108490052.5750292 388396.8106387318 388396.8106387318 -4120814.979116189 0 0 0 0 0 108627436.3205486 374481.0315766123 374481.0315766123 -4173279.601909349 0 0 0 0 0 115424347.0277014 -10502142.65045164 -10502142.65045164 -14519065.06856943 0 0 0 0 0 -2882147.888502778 11003680.25480131 11003680.25480131 -49710984.02737776 0 0 0 0 0 1239389.594664976 3445274.221184107 3445274.221184107 -42195289.65035382 0 0 0 0 0 932836.3700339062 2175920.366230279 2175920.366230279 -45039733.47407033 0 0 0 0 0 4683632.43275625 -2544845.341063312 -2544845.341063312 -37947860.57177918 0 0 0 0 0 10375591.63051033 -7793644.003204585 -7793644.003204585 -33062270.71343379 0 0 0 0 0 16748719.01331846 -12700500.68336873 -12700500.68336873 -28347091.73167027 0 0 0 0 0 29380406.39014292 -21024609.74775011 -21024609.74775011 -23994240.34394411 0 0 0 0 0 26554142.17151365 -21121187.35123752 -21121187.35123752 -21306034.72696052 0 0 0 0 0 36678047.38902942 -24192426.16025986 -24192426.16025986 -21885426.37270521 0 0 0 0 0 43900432.60058585 -26742515.69843462 -26742515.69843462 -20364899.04343788 0 0 0 0 0 51020085.07100736 -28737571.80283928 -28737571.80283928 -19316526.1919686 0 0 0 0 0 57873452.06453258 -30183501.41213454 -30183501.41213454 -18658841.48753939 0 0 0 0 0 64410809.24883989 -31121212.08943031 -31121212.08943031 -18287124.09749982 0 0 0 0 0 70598750.29547456 -31610652.78787469 -31610652.78787469 -18116750.6081099 0 0 0 0 0 76378517.65008934 -31694952.05568791 -31694952.05568791 -18080684.04353093 0 0 0 0 0 81741497.04364516 -31441230.5162141 -31441230.5162141 -18133371.87660355 0 0 0 0 0 83019022.1542763 -31810517.43349903 -31810517.43349903 -18486415.99397401 0 0 0 0 0 87202352.3854349 -30681416.32216137 -30681416.32216137 -18657216.28469656 0 0 0 0 0 91378134.88407327 -29846304.74331443 -29846304.74331443 -18723595.46980828 0 0 0 0 0 95164009.53583455 -28848115.02162875 -28848115.02162875 -18771174.77433077 0 0 0 0 0 98571962.77977495 -27723822.02144563 -27723822.02144563 -18787672.60546805 0 0 0 0 0 101169729.4476697 -26247170.92141661 -26247170.92141661 -18882011.99751612 0 0 0 0 0 98041430.26285668 -27193743.87349399 -27193743.87349399 -19152010.58187335 0 0 0 0 0 103737613.3765586 -25000214.74277333 -25000214.74277333 -18798411.72629838 0 0 0 0 0 106009620.579359 -23718209.95025695 -23718209.95025695 -18665609.41358367 0 0 0 0 0 108037094.9850491 -22418151.04354532 -22418151.04354532 -18483265.00912014 0 0 0 0 0 109839752.5664757 -21101676.17677914 -21101676.17677914 -18250092.52892143 0 0 0 0 0 111394358.6165439 -19803064.36526926 -19803064.36526926 -17989725.97238338 0 0 0 0 0 112728369.6227558 -18533786.31227763 -18533786.31227763 -17697779.68255221 0 0 0 0 0 111333248.7597957 -17835634.98055699 -17835634.98055699 -17605165.80509041 0 0 0 0 0 112956779.2767429 -17308416.30889351 -17308416.30889351 -17349377.27756845 0 0 0 0 0 113926829.7958736 -16143637.1296804 -16143637.1296804 -16996790.09849233 0 0 0 0 0 114743235.5946086 -15018426.96060115 -15018426.96060115 -16619763.95229034 0 0 0 0 0 115407627.7484043 -13952436.97531091 -13952436.97531091 -16244246.29989723 0 0 0 0 0 115961914.7418824 -12934515.74821445 -12934515.74821445 -15835515.7000774 0 0 0 0 0 116424303.1300085 -11946479.60617547 -11946479.60617547 -15402963.69319893 0 0 0 0 0 115120547.5205035 -11444267.36853222 -11444267.36853222 -15067306.77330216 0 0 0 0 0 115934438.2890026 -11190262.25138687 -11190262.25138687 -14968368.51855791 0 0 0 0 0 116243028.3634897 -10310550.282484 -10310550.282484 -14540124.16660692 0 0 0 0 0 114269897.0553039 -10085148.32948861 -10085148.32948861 -14167364.66549979 0 0 0 0 0 114554637.4988955 -9298169.301264925 -9298169.301264925 -13734254.4887716 0 0 0 0 0 114063992.2917426 -8764239.937411582 -8764239.937411582 -13290491.42583378 0 0 0 0 0 115118369.2374806 -9120211.252672147 -9120211.252672147 -13653882.71747764 0 0 0 0 0 114252592.0280275 -8068456.46088139 -8068456.46088139 -12872887.67417301 0 0 0 0 0 114392414.1255037 -7410433.179992557 -7410433.179992557 -12459683.48311689 0 0 0 0 0 114490360.2931674 -6786181.143541202 -6786181.143541202 -12048449.20861971 0 0 0 0 0 114548769.6207077 -6195999.025919947 -6195999.025919947 -11642866.68896699 0 0 0 0 0 113979113.9802039 -5879765.253276116 -5879765.253276116 -11271234.13806967 0 0 0 0 0 114836932.1960454 -6117717.993078004 -6117717.993078004 -11653210.68899357 0 0 0 0 0 113990248.5149805 -5361251.923837995 -5361251.923837995 -10890224.74123484 0 0 0 0 0 113974100.1378393 -4872004.644688655 -4872004.644688655 -10515812.20868818 0 0 0 0 0 113933369.1924748 -4410829.701946473 -4410829.701946473 -10147485.44358929 0 0 0 0 0 113868948.6594531 -3977125.477750672 -3977125.477750672 -9789872.569436023 0 0 0 0 0 113787353.8990365 -3567830.255379562 -3567830.255379562 -9438319.267829133 0 0 0 0 0 113876267.4858885 -3566285.517354375 -3566285.517354375 -9528923.167737164 0 0 0 0 0 113127922.2331287 -3065293.888994221 -3065293.888994221 -8838823.094137954 0 0 0 0 0 113752743.4144454 -3191648.087593858 -3191648.087593858 -9198726.07324584 0 0 0 0 0 113019408.3881767 -2725174.689279837 -2725174.689279837 -8520766.12168212 0 0 0 0 0 112899094.8692931 -2405240.360997377 -2405240.360997377 -8210965.872834457 0 0 0 0 0 112768498.2864451 -2104385.114333103 -2104385.114333103 -7909634.241759522 0 0 0 0 0 112629820.8632188 -1821276.766852268 -1821276.766852268 -7615606.071924958 0 0 0 0 0 112124051.2169169 -1781992.525651514 -1781992.525651514 -7422125.995315877 0 0 0 0 0 112617197.0900745 -1858375.67103548 -1858375.67103548 -7744843.355302223 0 0 0 0 0 111986392.5792931 -1530744.633801598 -1530744.633801598 -7149968.795706468 0 0 0 0 0 111842714.9031064 -1294740.798491116 -1294740.798491116 -6886083.130277479 0 0 0 0 0 111694569.3022466 -1072157.607989665 -1072157.607989665 -6629947.352472053 0 0 0 0 0 111543380.9462491 -863877.4635868067 -863877.4635868067 -6380489.676128794 0 0 0 0 0 111385307.4456961 -670238.5497654869 -670238.5497654869 -6142380.235232756 0 0 0 0 0 111122931.4995158 -566950.6983049412 -566950.6983049412 -6096050.522243227 0 0 0 0 0 111226913.5170317 -488601.4914572512 -488601.4914572512 -5907523.333924877 0 0 0 0 0 110784448.0458427 -543822.4710864768 -543822.4710864768 -5810628.453797585 0 0 0 0 0 110635286.3994309 -379359.3147248621 -379359.3147248621 -5594381.869781195 0 0 0 0 0 110484732.3072162 -225506.2544669288 -225506.2544669288 -5385114.695482877 0 0 0 0 0 110333889.1218452 -81821.47862314328 -81821.47862314328 -5182449.679016843 0 0 0 0 0 110178320.7284665 50427.98878201139 50427.98878201139 -4989487.066641922 0 0 0 0 0 110022533.884899 175951.671412343 175951.671412343 -4802503.979801144 0 0 0 0 0 109930842.5329726 111345.3569031177 111345.3569031177 -4953172.647250596 0 0 0 0 0 109663525.3159494 120865.3094811115 120865.3094811115 -4723691.026026853 0 0 0 0 0 109519694.3397004 235737.7145255985 235737.7145255985 -4546722.539589383 0 0 0 0 0 109376623.4326718 342719.3549509849 342719.3549509849 -4373889.860318696 0 0 0 0 0 109233945.9670939 443156.3668653126 443156.3668653126 -4209536.205578163 0 0 0 0 0 109145439.6534317 381725.6270863322 381725.6270863322 -4351287.446155846 0 0 0 0 0 108904343.9467372 377831.1993726191 377831.1993726191 -4159094.584081545 0 0 0 0 0 108815707.1726929 486622.4450586689 486622.4450586689 -3970541.391361336 0 0 0 0 0 108735016.0030008 526063.4685278491 526063.4685278491 -3892374.751776726 0 0 0 0 0 115045235.6613621 -9882971.508475652 -9882971.508475652 -14173264.39841251 0 0 0 0 0 -4862561.477139296 14902510.42004737 14902510.42004737 -58514088.08117364 0 0 0 0 0 465295.2286929534 6528794.367457204 6528794.367457204 -47499762.44923215 0 0 0 0 0 5621091.377606912 -2091474.72103039 -2091474.72103039 -37267941.36224899 0 0 0 0 0 9887118.21019938 -7166171.950476757 -7166171.950476757 -30173626.93745903 0 0 0 0 0 15884712.95153783 -12338210.40570288 -12338210.40570288 -25207947.00336216 0 0 0 0 0 22107948.34894596 -17064158.21966253 -17064158.21966253 -21606525.62421241 0 0 0 0 0 33053414.24324117 -24632512.24627163 -24632512.24627163 -19657199.8186579 0 0 0 0 0 24181703.14592114 -17130518.28124566 -17130518.28124566 -24775654.99735632 0 0 0 0 0 39843258.57443938 -27330174.32845034 -27330174.32845034 -18238876.28732733 0 0 0 0 0 46658648.41928832 -29460420.30163132 -29460420.30163132 -17410870.23197712 0 0 0 0 0 53270741.87163315 -31055911.80397099 -31055911.80397099 -17033019.97738967 0 0 0 0 0 59696475.07582661 -32099289.07390509 -32099289.07390509 -16935646.90268553 0 0 0 0 0 65850378.97451519 -32661958.98778836 -32661958.98778836 -17033581.29432768 0 0 0 0 0 71681212.87364446 -32797540.49291712 -32797540.49291712 -17242815.64905294 0 0 0 0 0 77161896.65739992 -32563408.62185875 -32563408.62185875 -17509887.8338041 0 0 0 0 0 82256904.15047333 -32017122.28901492 -32017122.28901492 -17781692.80883182 0 0 0 0 0 86667752.65427253 -30889605.5246514 -30889605.5246514 -18227166.63950157 0 0 0 0 0 87398362.75794648 -30944910.85659654 -30944910.85659654 -18660149.54158775 0 0 0 0 0 91407238.09502009 -29907232.68204651 -29907232.68204651 -18795158.96430906 0 0 0 0 0 95054213.99924625 -28733171.53114321 -28733171.53114321 -18877717.37415039 0 0 0 0 0 98349831.38203646 -27460118.48360853 -27460118.48360853 -18900525.46353669 0 0 0 0 0 100854131.6171912 -25882759.27327109 -25882759.27327109 -19076244.7931807 0 0 0 0 0 101624440.6110513 -26505645.36927772 -26505645.36927772 -18762726.03112122 0 0 0 0 0 103363250.2197792 -24535609.36963415 -24535609.36963415 -18939635.43336065 0 0 0 0 0 105584573.8641586 -23178975.61684607 -23178975.61684607 -18760734.01754148 0 0 0 0 0 107562375.442278 -21814221.71489661 -21814221.71489661 -18529088.97071969 0 0 0 0 0 109324840.7426548 -20460051.68243424 -20460051.68243424 -18258097.09366286 0 0 0 0 0 110882115.6767864 -19119538.19333547 -19119538.19333547 -17922528.20850659 0 0 0 0 0 112214981.6134674 -17822150.44716409 -17822150.44716409 -17554474.72447047 0 0 0 0 0 113871350.2085567 -17298557.19975409 -17298557.19975409 -17366390.15388596 0 0 0 0 0 112455080.7359014 -16621692.50263322 -16621692.50263322 -17223050.74963561 0 0 0 0 0 113429989.3458656 -15442318.63731802 -15442318.63731802 -16808841.97935105 0 0 0 0 0 114257923.5819705 -14318733.41815861 -14318733.41815861 -16371483.84091814 0 0 0 0 0 114950066.2807627 -13244511.20746209 -13244511.20746209 -15926280.51125083 0 0 0 0 0 115518685.2484082 -12220343.05485007 -12220343.05485007 -15474045.38429037 0 0 0 0 0 115988746.9539658 -11241968.10937208 -11241968.10937208 -15013955.56766088 0 0 0 0 0 116798917.7696003 -11001841.06602865 -11001841.06602865 -14965110.82323479 0 0 0 0 0 115523657.4193914 -10530199.86591398 -10530199.86591398 -14606673.42703005 0 0 0 0 0 115848466.1558592 -9660989.545815576 -9660989.545815576 -14141165.34162885 0 0 0 0 0 115677235.8954118 -9687301.261426713 -9687301.261426713 -14102342.59218947 0 0 0 0 0 115867757.5976545 -8912679.68092663 -8912679.68092663 -13680981.72733755 0 0 0 0 0 115273622.373786 -8399340.242997723 -8399340.242997723 -13247858.26815547 0 0 0 0 0 114779871.8363308 -8550477.995114114 -8550477.995114114 -13299357.69998209 0 0 0 0 0 115379243.7355214 -7716546.44502786 -7716546.44502786 -12843063.27056394 0 0 0 0 0 115441672.1903744 -7069126.267471878 -7069126.267471878 -12437609.65819639 0 0 0 0 0 115464579.6349886 -6456881.388245231 -6456881.388245231 -12036542.11473212 0 0 0 0 0 115453905.9460109 -5877789.701296428 -5877789.701296428 -11638102.7868162 0 0 0 0 0 114814395.306842 -5579618.241387546 -5579618.241387546 -11275387.08788627 0 0 0 0 0 114573332.1389469 -5638138.362740017 -5638138.362740017 -11240394.0030501 0 0 0 0 0 114764763.8862769 -5071945.932508726 -5071945.932508726 -10901593.19179192 0 0 0 0 0 114691135.5570821 -4593380.179938035 -4593380.179938035 -10533719.64462904 0 0 0 0 0 114594844.0474729 -4143434.166222732 -4143434.166222732 -10174138.3462575 0 0 0 0 0 114482161.9385306 -3719179.983982735 -3719179.983982735 -9818516.963597432 0 0 0 0 0 114353194.9406322 -3319830.343251434 -3319830.343251434 -9471431.566441787 0 0 0 0 0 113689127.9019868 -3182665.105326545 -3182665.105326545 -9095052.754609285 0 0 0 0 0 113616533.0957405 -2839304.702844555 -2839304.702844555 -8876150.908816524 0 0 0 0 0 113576101.0567072 -2820647.21451421 -2820647.21451421 -8760334.586831553 0 0 0 0 0 113469707.7718735 -2507895.641037919 -2507895.641037919 -8561117.417696929 0 0 0 0 0 113313868.2434994 -2196501.162693935 -2196501.162693935 -8253930.05902662 0 0 0 0 0 113150688.3097719 -1903693.90446039 -1903693.90446039 -7954039.881591933 0 0 0 0 0 112980044.4501905 -1629352.04750188 -1629352.04750188 -7663349.677067114 0 0 0 0 0 112457301.1703714 -1598423.783713365 -1598423.783713365 -7466821.109171389 0 0 0 0 0 112482942.2140193 -1556096.899630707 -1556096.899630707 -7331292.181540923 0 0 0 0 0 112292185.1585025 -1354055.802053223 -1354055.802053223 -7196653.906169512 0 0 0 0 0 112125377.8442304 -1123985.207729521 -1123985.207729521 -6932940.179026833 0 0 0 0 0 111956380.7338235 -908415.8972344459 -908415.8972344459 -6677130.639026021 0 0 0 0 0 111777840.8832413 -709832.9399059949 -709832.9399059949 -6431958.670410428 0 0 0 0 0 111603597.5560302 -522085.5414323615 -522085.5414323615 -6191199.706440546 0 0 0 0 0 111080156.9368382 -327764.695183365 -327764.695183365 -5679849.353857871 0 0 0 0 0 111422435.7803554 -347858.9114559799 -347858.9114559799 -5959222.82308565 0 0 0 0 0 110969534.1920063 -405103.8980525483 -405103.8980525483 -5859293.659624282 0 0 0 0 0 110804657.0073524 -246864.7773611038 -246864.7773611038 -5643682.05803622 0 0 0 0 0 110638256.4185278 -98248.54773168929 -98248.54773168929 -5435459.644076054 0 0 0 0 0 110469127.716164 38245.78835997706 38245.78835997706 -5236895.573398028 0 0 0 0 0 110300944.004513 166293.2977013233 166293.2977013233 -5042687.929199358 0 0 0 0 0 110136154.2962909 287684.1498714795 287684.1498714795 -4852431.70791857 0 0 0 0 0 109869558.4577475 295077.2306273025 295077.2306273025 -4619512.173533572 0 0 0 0 0 109774905.0203774 229439.3439927148 229439.3439927148 -4770960.397476166 0 0 0 0 0 109619860.3225838 340330.0665812038 340330.0665812038 -4593920.805727757 0 0 0 0 0 109465679.0515822 444452.0134091292 444452.0134091292 -4421788.111938044 0 0 0 0 0 109320333.2397031 541265.8743763124 541265.8743763124 -4255587.014311949 0 0 0 0 0 109082923.2952209 541318.5627573957 541318.5627573957 -4053201.240210714 0 0 0 0 0 108986961.3211082 475945.1968611431 475945.1968611431 -4201017.120164114 0 0 0 0 0 108822982.7823961 560365.8224383096 560365.8224383096 -4029542.245269315 0 0 0 0 0 108619899.9643811 579304.6684053112 579304.6684053112 -3979227.785846489 0 0 0 0 0 116474340.5385135 -9476921.593003828 -9476921.593003828 -14109353.51318866 0 0 0 0 0 -3179000.475263862 11474575.79451198 11474575.79451198 -43716183.04220235 0 0 0 0 0 -52825.70854785664 4400078.768007601 4400078.768007601 -38998537.54572264 0 0 0 0 0 5825723.233364126 -1895193.205998894 -1895193.205998894 -35306084.20104562 0 0 0 0 0 11715753.49030165 -7611027.184994693 -7611027.184994693 -29048793.90533186 0 0 0 0 0 17268986.01041109 -12451594.00409953 -12451594.00409953 -24522252.74310604 0 0 0 0 0 32217978.50464756 -21406448.50169048 -21406448.50169048 -22049299.17785342 0 0 0 0 0 28166505.38161434 -21360399.99210229 -21360399.99210229 -18577338.20093979 0 0 0 0 0 39886234.57751434 -24685240.31949304 -24685240.31949304 -20026114.16886578 0 0 0 0 0 47363873.37492955 -27218180.61912742 -27218180.61912742 -18753244.19770201 0 0 0 0 0 54843195.1530652 -29170087.07085997 -29170087.07085997 -17941384.49585832 0 0 0 0 0 61910558.31902219 -30493902.35425489 -30493902.35425489 -17499130.61560955 0 0 0 0 0 68618621.39157964 -31284149.32499512 -31284149.32499512 -17303124.3134659 0 0 0 0 0 74889774.14896329 -31604456.05442163 -31604456.05442163 -17285632.52653651 0 0 0 0 0 80669228.90376286 -31509176.84109366 -31509176.84109366 -17372849.72241877 0 0 0 0 0 85978543.51695241 -31072683.18172035 -31072683.18172035 -17520525.309375 0 0 0 0 0 86956683.64645785 -31210872.52798911 -31210872.52798911 -18030797.94856509 0 0 0 0 0 91149786.59891115 -30102174.95366428 -30102174.95366428 -18333765.88027551 0 0 0 0 0 95192653.06580965 -29124889.55016382 -29124889.55016382 -18422071.01911805 0 0 0 0 0 98821067.38204204 -27997080.91390411 -27997080.91390411 -18476856.95110442 0 0 0 0 0 102062795.5881635 -26762325.31307315 -26762325.31307315 -18487118.08956017 0 0 0 0 0 104334222.9215687 -25223540.0760342 -25223540.0760342 -18694088.42852825 0 0 0 0 0 101312628.9986296 -26116743.36208332 -26116743.36208332 -18857126.33342631 0 0 0 0 0 106713877.1633013 -23906234.3134065 -23906234.3134065 -18583164.20834327 0 0 0 0 0 108812339.7915807 -22571363.46300481 -22571363.46300481 -18415363.84653065 0 0 0 0 0 110654792.2048842 -21227511.38754746 -21227511.38754746 -18197037.17934783 0 0 0 0 0 112280002.4948075 -19875621.86661296 -19875621.86661296 -17922137.22485643 0 0 0 0 0 113666552.4728587 -18555443.64780934 -18555443.64780934 -17631498.04225822 0 0 0 0 0 114830677.857163 -17279749.2485223 -17279749.2485223 -17305231.43741536 0 0 0 0 0 113356731.7053036 -16571112.85990588 -16571112.85990588 -17167840.02594476 0 0 0 0 0 114857673.5824188 -16096073.62275651 -16096073.62275651 -17001137.03740906 0 0 0 0 0 115685567.1491906 -14934926.3963001 -14934926.3963001 -16615881.04574791 0 0 0 0 0 116351449.5805646 -13832302.20128967 -13832302.20128967 -16218580.5673653 0 0 0 0 0 116900179.2291731 -12776362.99735241 -12776362.99735241 -15802016.67092005 0 0 0 0 0 117343041.3632351 -11763587.41756502 -11763587.41756502 -15363566.26352068 0 0 0 0 0 117695424.3846859 -10793482.27371394 -10793482.27371394 -14910016.52801247 0 0 0 0 0 116376538.3886825 -10306361.66731505 -10306361.66731505 -14540576.73238142 0 0 0 0 0 117086929.5502784 -10100888.35988639 -10100888.35988639 -14520304.17055303 0 0 0 0 0 117299923.3008812 -9246389.31333074 -9246389.31333074 -14072800.41935286 0 0 0 0 0 115313838.933589 -9078630.414840609 -9078630.414840609 -13723469.43344372 0 0 0 0 0 115517521.1359889 -8317797.867390462 -8317797.867390462 -13275094.25865226 0 0 0 0 0 114948648.140889 -7843115.566519379 -7843115.566519379 -12867152.05999766 0 0 0 0 0 116000743.9794934 -8178848.800593358 -8178848.800593358 -13260558.23699221 0 0 0 0 0 115067556.7417968 -7174331.565683612 -7174331.565683612 -12439059.89639277 0 0 0 0 0 115143443.7854533 -6541493.005494652 -6541493.005494652 -12014999.68783517 0 0 0 0 0 115180352.6820916 -5943868.684293402 -5943868.684293402 -11596312.13326615 0 0 0 0 0 115182623.1542109 -5379769.6711068 -5379769.6711068 -11182579.78093765 0 0 0 0 0 114564828.4732708 -5113830.232381281 -5113830.232381281 -10846745.80401135 0 0 0 0 0 115408572.3737907 -5333148.031231504 -5333148.031231504 -11247180.8273804 0 0 0 0 0 114528327.5638866 -4620209.534672563 -4620209.534672563 -10460900.77856134 0 0 0 0 0 114467346.2592763 -4155656.477212837 -4155656.477212837 -10083046.07687651 0 0 0 0 0 114385165.3529654 -3719101.443499742 -3719101.443499742 -9712751.579968562 0 0 0 0 0 114282161.7735429 -3309340.632689542 -3309340.632689542 -9353612.924058292 0 0 0 0 0 114164699.244815 -2923561.753259918 -2923561.753259918 -9001715.881454308 0 0 0 0 0 114210384.3146982 -2944454.199975338 -2944454.199975338 -9132221.933112623 0 0 0 0 0 113449882.0797128 -2480638.587180788 -2480638.587180788 -8434241.317580389 0 0 0 0 0 114055611.4100026 -2591954.923637439 -2591954.923637439 -8801038.69281991 0 0 0 0 0 113312500.6749538 -2161582.769556774 -2161582.769556774 -8117438.339486158 0 0 0 0 0 113165636.2685143 -1862133.440442942 -1862133.440442942 -7809560.286786983 0 0 0 0 0 113010677.256776 -1581103.824745149 -1581103.824745149 -7510205.526340835 0 0 0 0 0 112848780.5619567 -1317901.710895475 -1317901.710895475 -7220011.101163258 0 0 0 0 0 112330347.2992613 -1306605.964537404 -1306605.964537404 -7054593.926700377 0 0 0 0 0 112804927.3662328 -1371351.885028457 -1371351.885028457 -7379348.098872466 0 0 0 0 0 112172673.0369783 -1073089.952328791 -1073089.952328791 -6786192.21254727 0 0 0 0 0 112010117.4085103 -854566.4147464605 -854566.4147464605 -6525844.416824091 0 0 0 0 0 111841559.2366521 -650723.982315618 -650723.982315618 -6274944.276193747 0 0 0 0 0 111672505.8409352 -461454.6940008953 -461454.6940008953 -6034301.184790703 0 0 0 0 0 111497165.152318 -284374.896310557 -284374.896310557 -5800971.124352362 0 0 0 0 0 111211473.0671322 -204350.043241816 -204350.043241816 -5769159.730610163 0 0 0 0 0 111323873.9373309 -117445.0418543349 -117445.0418543349 -5569088.679005877 0 0 0 0 0 110890228.5362239 -181901.3807793173 -181901.3807793173 -5485235.238130187 0 0 0 0 0 110729566.279476 -31224.62447053022 -31224.62447053022 -5274894.72011003 0 0 0 0 0 110567380.0509592 108973.8363389823 108973.8363389823 -5070661.406393132 0 0 0 0 0 110403420.7192804 238483.5784297939 238483.5784297939 -4875226.492387613 0 0 0 0 0 110240453.2900615 360150.1716163491 360150.1716163491 -4685695.843695291 0 0 0 0 0 110076376.2442347 474328.9440311199 474328.9440311199 -4502851.86307885 0 0 0 0 0 109972030.34372 402435.1448610919 402435.1448610919 -4667973.298861948 0 0 0 0 0 109717399.968775 406955.8976480658 406955.8976480658 -4441828.68330656 0 0 0 0 0 109565857.891095 511810.6751663249 511810.6751663249 -4269750.255457688 0 0 0 0 0 109416889.2961833 607834.1836163101 607834.1836163101 -4101144.508804607 0 0 0 0 0 109260829.2513265 696068.6103888412 696068.6103888412 -3946551.862140207 0 0 0 0 0 109180700.0625885 636955.734513904 636955.734513904 -4086758.227170008 0 0 0 0 0 108958870.9706997 636241.0978305717 636241.0978305717 -3884296.672877926 0 0 0 0 0 108867587.1409591 727623.6353024257 727623.6353024257 -3722007.043166191 0 0 0 0 0 116100183.5654162 -8838008.119378537 -8838008.119378537 -13672164.78617415 0 0 0 0 0 -4389558.224591549 13540680.23310396 13540680.23310396 -48388001.60081297 0 0 0 0 0 2151541.209477609 3830976.599400701 3830976.599400701 -39943228.17194324 0 0 0 0 0 10746815.76601053 -6571768.914936738 -6571768.914936738 -24799752.0038797 0 0 0 0 0 2453652.064635532 724599.1757988841 724599.1757988841 -30551975.72028224 0 0 0 0 0 16915247.31832295 -11796556.63621572 -11796556.63621572 -21601449.08462094 0 0 0 0 0 22656340.20098726 -15350063.41845429 -15350063.41845429 -21316948.80121778 0 0 0 0 0 35879352.14678787 -24956756.83812281 -24956756.83812281 -16904668.09886595 0 0 0 0 0 28254415.53696214 -18937135.67995284 -18937135.67995284 -21268985.63496934 0 0 0 0 0 43032061.62407524 -27716259.98263569 -27716259.98263569 -16020947.95559307 0 0 0 0 0 50131894.01920669 -29891489.05702709 -29891489.05702709 -15603993.25440413 0 0 0 0 0 57034720.75314703 -31364203.81389276 -31364203.81389276 -15506943.10307093 0 0 0 0 0 63661682.39505766 -32262406.87435883 -32262406.87435883 -15675743.27597326 0 0 0 0 0 69951964.30094419 -32653293.59396225 -32653293.59396225 -15977248.98857694 0 0 0 0 0 75844127.43507116 -32599418.47936847 -32599418.47936847 -16346502.15689909 0 0 0 0 0 81321713.96910816 -32183170.96787281 -32183170.96787281 -16739064.13049873 0 0 0 0 0 86364217.01029278 -31456401.11330183 -31456401.11330183 -17097930.13680399 0 0 0 0 0 90793256.80988656 -30348786.81201164 -30348786.81201164 -17686113.09514343 0 0 0 0 0 91242046.46629947 -30194279.34565813 -30194279.34565813 -18233500.11624678 0 0 0 0 0 95124514.85655069 -29022811.80547691 -29022811.80547691 -18381822.64528609 0 0 0 0 0 98621819.56842281 -27732016.27094051 -27732016.27094051 -18465412.47309016 0 0 0 0 0 101757437.4714047 -26355201.47529856 -26355201.47529856 -18473534.95649021 0 0 0 0 0 103953925.8285437 -24731982.59182992 -24731982.59182992 -18749085.9147201 0 0 0 0 0 104924116.8652875 -25450056.53009981 -25450056.53009981 -18449486.96606731 0 0 0 0 0 106283302.0208861 -23328599.78474957 -23328599.78474957 -18588052.41683558 0 0 0 0 0 108336664.48628 -21918605.45928252 -21918605.45928252 -18367532.75158533 0 0 0 0 0 110139407.2244264 -20527564.67962351 -20527564.67962351 -18109121.1565583 0 0 0 0 0 111727959.7473054 -19156254.15239443 -19156254.15239443 -17802170.01565744 0 0 0 0 0 113124140.5538789 -17798833.91084675 -17798833.91084675 -17426389.53311346 0 0 0 0 0 114295296.3332609 -16495751.21290926 -16495751.21290926 -17027261.11981176 0 0 0 0 0 115819093.8809455 -16042383.81785242 -16042383.81785242 -16936030.11279355 0 0 0 0 0 114333912.9730288 -15358970.07337516 -15358970.07337516 -16748719.88852735 0 0 0 0 0 115172116.5445288 -14194958.10615837 -14194958.10615837 -16306908.8578138 0 0 0 0 0 115864911.3578098 -13076063.32581846 -13076063.32581846 -15842305.56422592 0 0 0 0 0 116430603.244425 -12022529.53694805 -12022529.53694805 -15378950.65853876 0 0 0 0 0 116891756.9539766 -11018427.85636836 -11018427.85636836 -14906222.09844913 0 0 0 0 0 117262588.8214203 -10059369.95276554 -10059369.95276554 -14419097.87441063 0 0 0 0 0 117963679.0350229 -9869252.49795617 -9869252.49795617 -14450779.11209624 0 0 0 0 0 116683513.6626856 -9416810.671665048 -9416810.671665048 -14059892.13684598 0 0 0 0 0 116913984.7925441 -8576316.052983046 -8576316.052983046 -13578600.33618408 0 0 0 0 0 116640853.7759552 -8687291.775965311 -8687291.775965311 -13674648.79529426 0 0 0 0 0 116749881.9222475 -7939200.66614404 -7939200.66614404 -13237651.19389768 0 0 0 0 0 116081942.1639787 -7484660.424862519 -7484660.424862519 -12840673.40101034 0 0 0 0 0 115666799.755602 -7597570.23275703 -7597570.23275703 -12827904.94526714 0 0 0 0 0 116120064.8641791 -6827563.462702748 -6827563.462702748 -12421825.57283573 0 0 0 0 0 116119178.7049191 -6207202.475039709 -6207202.475039709 -12006260.80162161 0 0 0 0 0 116084509.0058409 -5621433.2145301 -5621433.2145301 -11595228.25417802 0 0 0 0 0 116018286.5167105 -5069813.577635581 -5069813.577635581 -11190258.93951451 0 0 0 0 0 115336596.7369221 -4820294.331344435 -4820294.331344435 -10861634.70711316 0 0 0 0 0 115154472.8542141 -4849201.530798869 -4849201.530798869 -10775836.35741998 0 0 0 0 0 115240949.8556231 -4337855.223220519 -4337855.223220519 -10482361.70236788 0 0 0 0 0 115124640.6473229 -3884267.872519859 -3884267.872519859 -10110285.38248448 0 0 0 0 0 114989032.0079097 -3458987.093212564 -3458987.093212564 -9747688.581214247 0 0 0 0 0 114839604.8172686 -3058771.062159929 -3058771.062159929 -9390256.761708019 0 0 0 0 0 114676490.9754076 -2683308.434132652 -2683308.434132652 -9042557.080977712 0 0 0 0 0 114032655.1471515 -2561768.635285961 -2561768.635285961 -8659246.68181283 0 0 0 0 0 113890402.4597162 -2261318.043518699 -2261318.043518699 -8478454.117459027 0 0 0 0 0 113888261.2433748 -2222556.355535931 -2222556.355535931 -8326106.489399124 0 0 0 0 0 113716804.4209376 -1951162.914621148 -1951162.914621148 -8164107.89436654 0 0 0 0 0 113536286.3977978 -1660246.826989568 -1660246.826989568 -7858103.520596185 0 0 0 0 0 113349662.7947198 -1387696.542239511 -1387696.542239511 -7560592.152019701 0 0 0 0 0 113158210.1603167 -1132492.168299919 -1132492.168299919 -7272013.92052799 0 0 0 0 0 112625272.5656315 -1129465.640230846 -1129465.640230846 -7103891.472004243 0 0 0 0 0 112680966.5635411 -1071113.867273467 -1071113.867273467 -6938604.263454368 0 0 0 0 0 112441074.4220177 -903090.9218552731 -903090.9218552731 -6836695.746528343 0 0 0 0 0 112255819.4070926 -692804.7103311211 -692804.7103311211 -6579192.647598583 0 0 0 0 0 112064942.623625 -498834.8131981363 -498834.8131981363 -6330938.872779326 0 0 0 0 0 111874570.2983859 -316685.5335353481 -316685.5335353481 -6089855.163761356 0 0 0 0 0 111685831.2136875 -146182.6179993954 -146182.6179993954 -5854325.016968987 0 0 0 0 0 111163220.2683574 27337.78752389866 27337.78752389866 -5356257.649969259 0 0 0 0 0 111494440.417094 13612.942175914 13612.942175914 -5627517.841795233 0 0 0 0 0 111047684.5270388 -51207.93775204069 -51207.93775204069 -5535001.758153049 0 0 0 0 0 110872255.2759969 94977.01450258127 94977.01450258127 -5327057.105907677 0 0 0 0 0 110693495.1380789 228411.1711666349 228411.1711666349 -5125333.019113184 0 0 0 0 0 110516877.2515051 353519.4125512309 353519.4125512309 -4929408.511763209 0 0 0 0 0 110340465.0086134 470083.8231223387 470083.8231223387 -4739420.5778615 0 0 0 0 0 110168508.1795514 580701.6135161646 580701.6135161646 -4553027.537094468 0 0 0 0 0 109915730.3733763 582804.5209273114 582804.5209273114 -4324881.758439922 0 0 0 0 0 109808796.5836519 510145.6234721561 510145.6234721561 -4490117.60648646 0 0 0 0 0 109647895.318741 611070.5158725391 611070.5158725391 -4317642.68193941 0 0 0 0 0 109488189.1828475 703991.6178253244 703991.6178253244 -4154273.160115624 0 0 0 0 0 109320003.931435 782480.6182242779 782480.6182242779 -3997641.792742527 0 0 0 0 0 109091003.4086502 774361.9517910887 774361.9517910887 -3826375.127580154 0 0 0 0 0 109059857.0863193 750396.4926784837 750396.4926784837 -3906245.972120856 0 0 0 0 0 108755549.915642 771577.0483594728 771577.0483594728 -3791372.513870295 0 0 0 0 0 117439831.5850772 -8440916.149974793 -8440916.149974793 -13626803.68626144 0 0 0 0 0 -2969412.578414027 9975823.11855601 9975823.11855601 -34744982.0996704 0 0 0 0 0 4033190.134314219 -758935.7624541095 -758935.7624541095 -29509068.97769552 0 0 0 0 0 5423837.220458818 140469.6336229051 140469.6336229051 -31357909.24666454 0 0 0 0 0 12170728.19632304 -7304323.48633833 -7304323.48633833 -26023089.99629559 0 0 0 0 0 22570013.55494005 -16900333.35225329 -16900333.35225329 -17826989.9688122 0 0 0 0 0 16078539.61457178 -11202439.77659609 -11202439.77659609 -18152554.34919913 0 0 0 0 0 35172575.78727981 -22173926.26717793 -22173926.26717793 -18840469.1954688 0 0 0 0 0 31587946.68467655 -22450247.90865511 -22450247.90865511 -14934309.39277398 0 0 0 0 0 43084118.88655091 -25281276.37821501 -25281276.37821501 -17640024.11101251 0 0 0 0 0 51174831.2318672 -27828237.19613437 -27828237.19613437 -16743202.97724842 0 0 0 0 0 58897443.06606285 -29625615.03035118 -29625615.03035118 -16260953.25900004 0 0 0 0 0 66192543.67276466 -30790015.21363882 -30790015.21363882 -16059402.39674034 0 0 0 0 0 73054403.47096486 -31406978.84796908 -31406978.84796908 -16074507.85629093 0 0 0 0 0 79353909.10863788 -31524307.48420624 -31524307.48420624 -16237385.1393929 0 0 0 0 0 85111560.62460224 -31234187.24356249 -31234187.24356249 -16464775.739957 0 0 0 0 0 90315153.43040882 -30600877.1864267 -30600877.1864267 -16718101.15567733 0 0 0 0 0 90955480.90770163 -30478679.08982416 -30478679.08982416 -17403968.27470963 0 0 0 0 0 95135838.91292025 -29405472.3346539 -29405472.3346539 -17837820.75327028 0 0 0 0 0 99013546.98629487 -28285018.26370778 -28285018.26370778 -17954754.89321001 0 0 0 0 0 102465571.407884 -27035525.76488821 -27035525.76488821 -18017330.5787628 0 0 0 0 0 105507901.3762405 -25691901.05772888 -25691901.05772888 -18028768.4622426 0 0 0 0 0 107432597.1665673 -24094574.23231482 -24094574.23231482 -18363525.65495371 0 0 0 0 0 104541465.9727849 -24931456.47038776 -24931456.47038776 -18408583.85684664 0 0 0 0 0 109633437.8467799 -22715909.56609195 -22715909.56609195 -18217610.31182684 0 0 0 0 0 111537660.6642749 -21333126.17121867 -21333126.17121867 -18027846.20872198 0 0 0 0 0 113190644.6672239 -19949319.25874064 -19949319.25874064 -17775398.7906959 0 0 0 0 0 114623862.4843822 -18579510.2312529 -18579510.2312529 -17467772.18849297 0 0 0 0 0 115830196.2525533 -17252064.42921164 -17252064.42921164 -17145498.87054288 0 0 0 0 0 116832362.044597 -15971955.65801841 -15971955.65801841 -16789090.78711419 0 0 0 0 0 115284750.1152709 -15242412.5367501 -15242412.5367501 -16607671.41479403 0 0 0 0 0 116648659.6992674 -14850339.10694849 -14850339.10694849 -16541638.54368325 0 0 0 0 0 117330489.0426379 -13702725.15839091 -13702725.15839091 -16128188.70529655 0 0 0 0 0 117867989.4117824 -12607636.27937207 -12607636.27937207 -15707708.65074834 0 0 0 0 0 118292718.2207143 -11562071.21529618 -11562071.21529618 -15260621.72537957 0 0 0 0 0 118627929.8972414 -10564338.33596119 -10564338.33596119 -14795806.40178829 0 0 0 0 0 118872061.8390861 -9618507.230697658 -9618507.230697658 -14326172.13996046 0 0 0 0 0 117547848.4799106 -9150168.719684707 -9150168.719684707 -13926518.95773697 0 0 0 0 0 118152002.9198596 -8996028.49626855 -8996028.49626855 -13989707.35158377 0 0 0 0 0 118269435.6059582 -8172943.087004001 -8172943.087004001 -13528382.68027952 0 0 0 0 0 116282517.9011271 -8063529.283818026 -8063529.283818026 -13211199.42706141 0 0 0 0 0 116408873.4777357 -7330668.086633282 -7330668.086633282 -12749775.5240465 0 0 0 0 0 115765121.5779458 -6917316.507046524 -6917316.507046524 -12384812.77169285 0 0 0 0 0 116808010.4530749 -7232333.347564613 -7232333.347564613 -12803068.41783898 0 0 0 0 0 115817793.8458615 -6276290.123443092 -6276290.123443092 -11947102.96609134 0 0 0 0 0 115830945.0704231 -5672209.210513333 -5672209.210513333 -11517000.76253076 0 0 0 0 0 115810007.2370288 -5102882.740152168 -5102882.740152168 -11092676.46274104 0 0 0 0 0 115757597.2679936 -4567706.421779845 -4567706.421779845 -10675463.13193202 0 0 0 0 0 115096897.9147761 -4351428.084324838 -4351428.084324838 -10378526.39914055 0 0 0 0 0 115922666.5506003 -4551826.065222685 -4551826.065222685 -10793211.00256539 0 0 0 0 0 115014637.4089814 -3884153.405926584 -3884153.405926584 -9990448.379854089 0 0 0 0 0 114911133.5495356 -3445655.539348739 -3445655.539348739 -9611625.485336008 0 0 0 0 0 114789334.0018427 -3034659.790577197 -3034659.790577197 -9242120.035439935 0 0 0 0 0 114650130.965569 -2649556.376874205 -2649556.376874205 -8883162.983364081 0 0 0 0 0 114498138.321927 -2288665.08729866 -2288665.08729866 -8533564.339870252 0 0 0 0 0 114502096.319796 -2331423.138808563 -2331423.138808563 -8703461.05363662 0 0 0 0 0 113733186.2030512 -1904802.448492756 -1904802.448492756 -8002410.214365282 0 0 0 0 0 114318027.0108974 -2001819.717685367 -2001819.717685367 -8373319.911166602 0 0 0 0 0 113568842.1019463 -1607334.028979952 -1607334.028979952 -7688570.874639342 0 0 0 0 0 113396998.0606978 -1328821.271731882 -1328821.271731882 -7384011.931203127 0 0 0 0 0 113218750.1726944 -1068227.545638472 -1068227.545638472 -7088887.436908574 0 0 0 0 0 113035407.3510479 -824771.6888850351 -824771.6888850351 -6803105.615654557 0 0 0 0 0 112508507.4544385 -840097.5491145769 -840097.5491145769 -6666168.07686417 0 0 0 0 0 112963051.0335809 -893754.4794341064 -893754.4794341064 -6991687.000903664 0 0 0 0 0 112334117.0217818 -624904.0878358511 -624904.0878358511 -6401074.003865033 0 0 0 0 0 112155070.1503804 -424115.5017842514 -424115.5017842514 -6145444.223148817 0 0 0 0 0 111967503.7202146 -241721.0182463471 -241721.0182463471 -5904432.479820158 0 0 0 0 0 111780527.7884232 -71008.9539142651 -71008.9539142651 -5672268.355011829 0 0 0 0 0 111589504.2513324 88383.32772895141 88383.32772895141 -5445367.23896369 0 0 0 0 0 111294823.5635154 158215.0191991034 158215.0191991034 -5423051.303255267 0 0 0 0 0 111397420.2026963 237106.2630755194 237106.2630755194 -5225659.785687946 0 0 0 0 0 110977019.827639 170135.6661600091 170135.6661600091 -5149265.78799176 0 0 0 0 0 110803138.8267625 306194.4488730535 306194.4488730535 -4944563.924139936 0 0 0 0 0 110629656.1027298 432380.6410790911 432380.6410790911 -4747845.371178024 0 0 0 0 0 110455997.7062849 549938.0104431817 549938.0104431817 -4556853.998354727 0 0 0 0 0 110284422.5976728 659773.0324696596 659773.0324696596 -4372669.79832286 0 0 0 0 0 110114113.4265697 763539.4846112211 763539.4846112211 -4193421.229044508 0 0 0 0 0 109997141.1508056 684054.1532520381 684054.1532520381 -4374215.317371181 0 0 0 0 0 109756020.7682488 683893.4079183227 683893.4079183227 -4153076.147995229 0 0 0 0 0 109598748.7805998 777055.6227358001 777055.6227358001 -3990019.865542952 0 0 0 0 0 109447579.3859589 867647.3220295152 867647.3220295152 -3818647.666409128 0 0 0 0 0 109278631.7506173 923039.3445224549 923039.3445224549 -3705490.971349409 0 0 0 0 0 109211486.7327832 868862.7673737432 868862.7673737432 -3832013.820481836 0 0 0 0 0 108927310.2719166 852750.304184291 852750.304184291 -3690175.211949479 0 0 0 0 0 109018015.2912978 926152.9877622206 926152.9877622206 -3557294.642861225 0 0 0 0 0 117075971.7476029 -7784850.897787772 -7784850.897787772 -13099160.37059044 0 0 0 0 0 -2527177.508971902 11217750.13474504 11217750.13474504 -38755272.98489504 0 0 0 0 0 10124364.14397318 -5575119.867991587 -5575119.867991587 -20167633.36245936 0 0 0 0 0 -2181702.888058817 7634383.30764848 7634383.30764848 -27505467.87987204 0 0 0 0 0 27758751.3455511 -18490672.33791531 -18490672.33791531 -16689729.45576048 0 0 0 0 0 17711851.79936054 -10563718.68479944 -10563718.68479944 -19544423.90178558 0 0 0 0 0 38828068.35974737 -25564940.3039333 -25564940.3039333 -13961648.30456202 0 0 0 0 0 27793494.48588925 -18388349.52897717 -18388349.52897717 -17402614.70493013 0 0 0 0 0 46324520.20646568 -28381430.33630968 -28381430.33630968 -13573250.38525686 0 0 0 0 0 53884929.84846476 -30392754.08102253 -30392754.08102253 -13481330.62386923 0 0 0 0 0 61029947.85968671 -31683253.93739339 -31683253.93739339 -13721535.83429343 0 0 0 0 0 67850858.48636185 -32396261.15129112 -32396261.15129112 -14178431.04327966 0 0 0 0 0 74250867.68064003 -32580085.70389331 -32580085.70389331 -14708960.86708559 0 0 0 0 0 80162503.24405506 -32312723.549945 -32312723.549945 -15273477.55293755 0 0 0 0 0 85601490.08014433 -31685887.81627269 -31685887.81627269 -15800230.90660076 0 0 0 0 0 90537010.59713447 -30758214.97501833 -30758214.97501833 -16260256.58741335 0 0 0 0 0 94992680.46575521 -29710102.10719628 -29710102.10719628 -16962859.23565879 0 0 0 0 0 95111192.19323263 -29318158.72882749 -29318158.72882749 -17648863.96901526 0 0 0 0 0 98834595.51568709 -28009667.02084248 -28009667.02084248 -17814571.99563201 0 0 0 0 0 102162956.0994791 -26607274.34248346 -26607274.34248346 -17899576.3069335 0 0 0 0 0 105115119.362225 -25141776.33067805 -25141776.33067805 -17899801.76456312 0 0 0 0 0 106986300.8509087 -23478193.80228244 -23478193.80228244 -18282119.84476767 0 0 0 0 0 108158765.5402456 -24296982.25051214 -24296982.25051214 -17986596.41371726 0 0 0 0 0 109141273.5937697 -22019702.01368071 -22019702.01368071 -18091888.61398074 0 0 0 0 0 111020451.0592148 -20576382.17062116 -20576382.17062116 -17842364.70447817 0 0 0 0 0 112651351.2427078 -19155662.05783256 -19155662.05783256 -17547869.12629028 0 0 0 0 0 114056098.5321134 -17758902.69285825 -17758902.69285825 -17197284.36058719 0 0 0 0 0 115261243.7809499 -16413280.01131288 -16413280.01131288 -16811996.32648075 0 0 0 0 0 116277545.6776023 -15116209.47076312 -15116209.47076312 -16384086.75345767 0 0 0 0 0 117653600.669718 -14739684.16124519 -14739684.16124519 -16401755.62354935 0 0 0 0 0 116111160.819798 -14046647.71979759 -14046647.71979759 -16168915.21530453 0 0 0 0 0 116803674.9980782 -12900936.11967085 -12900936.11967085 -15708603.36295904 0 0 0 0 0 117378212.2693982 -11805560.21727238 -11805560.21727238 -15218376.6871295 0 0 0 0 0 117825422.2350063 -10773981.02321367 -10773981.02321367 -14733972.98881556 0 0 0 0 0 118177462.675615 -9793032.269429779 -9793032.269429779 -14239907.6369589 0 0 0 0 0 118442529.6864253 -8862352.126729649 -8862352.126729649 -13736142.12937734 0 0 0 0 0 119034315.6640453 -8725951.632273903 -8725951.632273903 -13853299.3396648 0 0 0 0 0 117756742.9300917 -8291977.158818033 -8291977.158818033 -13432638.88897302 0 0 0 0 0 117892124.7538616 -7487114.260447893 -7487114.260447893 -12944010.25637016 0 0 0 0 0 117523820.9480867 -7679057.747561485 -7679057.747561485 -13174957.62077386 0 0 0 0 0 117555554.8659119 -6960593.314116944 -6960593.314116944 -12727083.83187341 0 0 0 0 0 116820493.7328012 -6565657.65109626 -6565657.65109626 -12371326.42281402 0 0 0 0 0 116483300.7119445 -6640336.014605803 -6640336.014605803 -12293739.22235226 0 0 0 0 0 116792677.5976137 -5937939.06613918 -5937939.06613918 -11943553.41525885 0 0 0 0 0 116732226.4815765 -5346187.782480258 -5346187.782480258 -11519817.60514713 0 0 0 0 0 116641705.3055633 -4789519.326084667 -4789519.326084667 -11102955.04091829 0 0 0 0 0 116522728.3933236 -4267002.791580549 -4267002.791580549 -10693646.11871115 0 0 0 0 0 115803671.5641536 -4065900.794466803 -4065900.794466803 -10403398.34034268 0 0 0 0 0 115679029.3844727 -4065631.864143549 -4065631.864143549 -10266906.42703215 0 0 0 0 0 115664359.4938625 -3610137.766094241 -3610137.766094241 -10021284.79111337 0 0 0 0 0 115507614.5286889 -3182861.893613264 -3182861.893613264 -9647602.390622575 0 0 0 0 0 115335368.5115971 -2782948.210920806 -2782948.210920806 -9283824.856545789 0 0 0 0 0 115150931.6217634 -2408163.551153317 -2408163.551153317 -8927535.835635018 0 0 0 0 0 114955697.3542664 -2057489.772878557 -2057489.772878557 -8581252.69671824 0 0 0 0 0 114334274.7339665 -1950960.479698315 -1950960.479698315 -8194027.668825911 0 0 0 0 0 114125820.6763086 -1693459.544457372 -1693459.544457372 -8052488.581749126 0 0 0 0 0 114160392.3417945 -1635185.424185554 -1635185.424185554 -7864437.483955026 0 0 0 0 0 113927394.1011049 -1404890.908590086 -1404890.908590086 -7740455.328086336 0 0 0 0 0 113723631.1641866 -1135023.988078374 -1135023.988078374 -7437533.899488503 0 0 0 0 0 113515603.595569 -882905.552776549 -882905.552776549 -7143759.29679111 0 0 0 0 0 113304331.0696948 -647579.3132564822 -647579.3132564822 -6859153.582344512 0 0 0 0 0 112765076.3591827 -670317.2844192738 -670317.2844192738 -6719864.552487621 0 0 0 0 0 112847670.6095796 -597313.2688676377 -597313.2688676377 -6526830.073729955 0 0 0 0 0 112561865.943551 -462374.433776469 -462374.433776469 -6457595.525483766 0 0 0 0 0 112361083.445486 -273111.4348008503 -273111.4348008503 -6209689.668921228 0 0 0 0 0 112153969.2158276 -98171.00814270675 -98171.00814270675 -5965868.638270572 0 0 0 0 0 111948250.2466374 65047.70265789939 65047.70265789939 -5732739.798562008 0 0 0 0 0 111748550.0413245 220809.9666228619 220809.9666228619 -5502058.751856017 0 0 0 0 0 111224254.0502862 375551.1508076569 375551.1508076569 -5013403.388704597 0 0 0 0 0 111545696.020634 366094.4710218866 366094.4710218866 -5281977.372785661 0 0 0 0 0 111108866.7503678 294410.440587012 294410.440587012 -5203970.54974106 0 0 0 0 0 110920651.7871217 424746.4242757997 424746.4242757997 -5000590.01929845 0 0 0 0 0 110732807.5093491 545826.8936208762 545826.8936208762 -4803256.844258243 0 0 0 0 0 110546691.5271234 658755.5076185431 658755.5076185431 -4611713.558740571 0 0 0 0 0 110364588.0482822 765125.0625847018 765125.0625847018 -4425429.734835939 0 0 0 0 0 110184713.4133046 864068.151447318 864068.151447318 -4244868.335770126 0 0 0 0 0 109945844.3102221 860793.7197836118 860793.7197836118 -4020837.50341003 0 0 0 0 0 109825239.9158178 780186.4216532513 780186.4216532513 -4202004.581378014 0 0 0 0 0 109652202.8185529 865013.0501341962 865013.0501341962 -4039146.547917417 0 0 0 0 0 109441685.6195444 936256.7146670711 936256.7146670711 -3881556.047008533 0 0 0 0 0 109260680.2582273 984604.8054621784 984604.8054621784 -3777298.636997158 0 0 0 0 0 109105628.6177005 975745.7391397887 975745.7391397887 -3629784.758907206 0 0 0 0 0 109115526.8395129 982029.081001207 982029.081001207 -3636905.913498587 0 0 0 0 0 108879103.4405258 974705.0689115097 974705.0689115097 -3615503.595320331 0 0 0 0 0 118322848.2446276 -7398879.571308665 -7398879.571308665 -13069758.24882848 0 0 0 0 0 6669806.569149265 -1680443.821494997 -1680443.821494997 -24814571.97572682 0 0 0 0 0 -1190705.868533799 7762597.651888167 7762597.651888167 -28574561.26033656 0 0 0 0 0 19614766.99495146 -13925134.5717855 -13925134.5717855 -13427448.7853573 0 0 0 0 0 10647022.61633006 -6659500.485387174 -6659500.485387174 -14147574.34404133 0 0 0 0 0 37367883.13247789 -22421455.62873857 -22421455.62873857 -16452556.77019269 0 0 0 0 0 33528374.73195234 -22595511.85067996 -22595511.85067996 -11026281.87600091 0 0 0 0 0 46772684.13050427 -25996193.99473353 -25996193.99473353 -15074684.52939733 0 0 0 0 0 55308912.96267935 -28488815.41660638 -28488815.41660638 -14419570.21419191 0 0 0 0 0 63315484.13730647 -30164494.81005588 -30164494.81005588 -14226447.25560595 0 0 0 0 0 70784250.17510822 -31125441.60169557 -31125441.60169557 -14321412.63424377 0 0 0 0 0 77701548.31108981 -31499583.13020974 -31499583.13020974 -14612784.25685359 0 0 0 0 0 84022018.2848336 -31393519.66937071 -31393519.66937071 -14982372.00321276 0 0 0 0 0 89677018.13853894 -30867317.55974713 -30867317.55974713 -15376369.73195794 0 0 0 0 0 94735865.71791658 -30029574.24669739 -30029574.24669739 -15761348.97008445 0 0 0 0 0 94994908.41466606 -29617801.13567225 -29617801.13567225 -16640658.79781267 0 0 0 0 0 99154153.86460224 -28601254.11935793 -28601254.11935793 -17167701.21537174 0 0 0 0 0 102838260.1721691 -27339279.73668715 -27339279.73668715 -17316707.03284055 0 0 0 0 0 106073708.2816018 -25965828.12591857 -25965828.12591857 -17400403.82942165 0 0 0 0 0 108894238.3596722 -24523507.77062846 -24523507.77062846 -17413449.69182954 0 0 0 0 0 110469887.2630747 -22871061.58475235 -22871061.58475235 -17877040.08783941 0 0 0 0 0 107697815.4152891 -23634107.71479126 -23634107.71479126 -17817659.62881092 0 0 0 0 0 112463917.3178411 -21432220.00324397 -21432220.00324397 -17710873.19877584 0 0 0 0 0 114175613.4867208 -20002866.30071319 -20002866.30071319 -17489482.12653999 0 0 0 0 0 115640155.623943 -18589822.13906206 -18589822.13906206 -17209559.72748961 0 0 0 0 0 116865979.7013497 -17219609.66672859 -17219609.66672859 -16895499.82699075 0 0 0 0 0 117885281.5385017 -15882383.28004972 -15882383.28004972 -16539152.21135079 0 0 0 0 0 118716530.0998077 -14605560.09636408 -14605560.09636408 -16156278.87262392 0 0 0 0 0 117116887.0930837 -13880669.51913408 -13880669.51913408 -15939120.36809254 0 0 0 0 0 118323650.7659474 -13553970.16209056 -13553970.16209056 -15980815.55853686 0 0 0 0 0 118867147.2879536 -12416081.35160857 -12416081.35160857 -15534422.68046639 0 0 0 0 0 119279273.3878862 -11342154.92756636 -11342154.92756636 -15089194.18277673 0 0 0 0 0 119589544.0815712 -10319140.26064621 -10319140.26064621 -14619032.82930408 0 0 0 0 0 119811903.3520594 -9350400.127426377 -9350400.127426377 -14139125.58908669 0 0 0 0 0 119946829.1150646 -8438610.894047737 -8438610.894047737 -13658449.83534481 0 0 0 0 0 118625123.1023629 -7987888.847416835 -7987888.847416835 -13232329.11730153 0 0 0 0 0 119122662.8087603 -7886813.69247008 -7886813.69247008 -13381779.53860041 0 0 0 0 0 119148439.4881976 -7098068.931789478 -7098068.931789478 -12909419.62304881 0 0 0 0 0 117174981.6587383 -7042579.292536386 -7042579.292536386 -12629900.75421061 0 0 0 0 0 117225504.5570319 -6341576.382495381 -6341576.382495381 -12160462.01472544 0 0 0 0 0 116512407.0352553 -5990809.091732536 -5990809.091732536 -11843763.19227541 0 0 0 0 0 117541078.3680475 -6284510.696605234 -6284510.696605234 -12282751.59833165 0 0 0 0 0 116500767.4114268 -5380548.953961695 -5380548.953961695 -11401134.69755012 0 0 0 0 0 116453792.2121935 -4807522.024597672 -4807522.024597672 -10967639.82068298 0 0 0 0 0 116376898.7867254 -4268607.641449698 -4268607.641449698 -10541189.69173077 0 0 0 0 0 116273602.0098366 -3763195.909581706 -3763195.909581706 -10123210.2056256 0 0 0 0 0 115574612.9530621 -3595920.6060967 -3595920.6060967 -9868747.2809627 0 0 0 0 0 116378978.5130857 -3777699.613643236 -3777699.613643236 -10293920.95525938 0 0 0 0 0 115448805.6281679 -3156356.037946106 -3156356.037946106 -9481168.462951446 0 0 0 0 0 115304811.8419152 -2744984.006186495 -2744984.006186495 -9103966.510289686 0 0 0 0 0 115145266.2576005 -2360700.769171725 -2360700.769171725 -8737512.473658156 0 0 0 0 0 114971932.923324 -2001358.720082536 -2001358.720082536 -8381480.634184396 0 0 0 0 0 114787686.9816325 -1665885.100881294 -1665885.100881294 -8036001.689645634 0 0 0 0 0 114751781.0362613 -1729773.614959539 -1729773.614959539 -8244446.895562041 0 0 0 0 0 113978039.7853123 -1340215.704492958 -1340215.704492958 -7545009.654309943 0 0 0 0 0 114540367.4943467 -1423600.599113792 -1423600.599113792 -7917389.390644192 0 0 0 0 0 113788592.9692673 -1064688.227984576 -1064688.227984576 -7235697.00118881 0 0 0 0 0 113593363.9388265 -807521.3348690948 -807521.3348690948 -6936249.447389788 0 0 0 0 0 113393443.7643536 -567743.1879830011 -567743.1879830011 -6646687.022020554 0 0 0 0 0 113190110.9481418 -344300.0520327433 -344300.0520327433 -6366745.553138574 0 0 0 0 0 112656921.6142139 -384674.7099737158 -384674.7099737158 -6260157.268831736 0 0 0 0 0 113090874.422117 -428100.3878604207 -428100.3878604207 -6583548.902618506 0 0 0 0 0 112467710.3149082 -188043.8834173508 -188043.8834173508 -5998486.859146326 0 0 0 0 0 112263162.8170029 -12644.31737938532 -12644.31737938532 -5755153.505631552 0 0 0 0 0 112064201.7338873 153292.1853114558 153292.1853114558 -5523371.811110474 0 0 0 0 0 111861887.3008902 305529.2591098693 305529.2591098693 -5298489.245836341 0 0 0 0 0 111662534.5134823 451765.0894120188 451765.0894120188 -5076876.38655748 0 0 0 0 0 111344441.1992846 501812.683295336 501812.683295336 -5072351.746615883 0 0 0 0 0 111466984.8565139 590159.7272008919 590159.7272008919 -4861737.60421346 0 0 0 0 0 111039030.9951609 508062.8990830222 508062.8990830222 -4806752.404857771 0 0 0 0 0 110854543.9963751 630701.8513400072 630701.8513400072 -4607392.213365189 0 0 0 0 0 110671721.5540205 744719.6616820289 744719.6616820289 -4415821.360113832 0 0 0 0 0 110490723.6240434 850865.4260184735 850865.4260184735 -4230068.460223507 0 0 0 0 0 110312191.7076643 950157.6716710413 950157.6716710413 -4049915.361589313 0 0 0 0 0 110135535.6272232 1042589.764785724 1042589.764785724 -3876355.630526075 0 0 0 0 0 110008062.1967368 956557.2505793547 956557.2505793547 -4071076.501489557 0 0 0 0 0 109779218.3253313 949503.0818657859 949503.0818657859 -3849643.473247729 0 0 0 0 0 109610490.9726397 1041299.539860039 1041299.539860039 -3683309.753100824 0 0 0 0 0 109492120.3441899 1112729.099414892 1112729.099414892 -3573866.570249164 0 0 0 0 0 109302687.8625078 1122584.151909862 1122584.151909862 -3496232.699024037 0 0 0 0 0 109066002.3717991 1090242.818838168 1090242.818838168 -3384029.573316037 0 0 0 0 0 117967210.2978852 -6731932.778156704 -6731932.778156704 -12459834.05833704 0 0 0 0 0 591928.7725273271 2846480.506109734 2846480.506109734 -16908221.56478325 0 0 0 0 0 22081782.90004075 -13873271.8602047 -13873271.8602047 -13915105.08112658 0 0 0 0 0 10861537.25283562 -5630345.542002402 -5630345.542002402 -15800597.340951 0 0 0 0 0 41862078.06617085 -26288834.94441499 -26288834.94441499 -10520959.12806076 0 0 0 0 0 31547136.89147815 -19246091.61386646 -19246091.61386646 -13670099.15690016 0 0 0 0 0 50062159.41766784 -28987619.40733271 -28987619.40733271 -10590063.80138148 0 0 0 0 0 57861424.17925171 -30867555.71491803 -30867555.71491803 -11053175.54436522 0 0 0 0 0 65268076.08748936 -32014988.91675942 -32014988.91675942 -11729104.09384585 0 0 0 0 0 72261203.54785514 -32518495.63437364 -32518495.63437364 -12501051.74864314 0 0 0 0 0 78716557.20659052 -32442887.48532481 -32442887.48532481 -13297802.37049926 0 0 0 0 0 84637633.00668423 -31932962.77480632 -31932962.77480632 -14047876.55124729 0 0 0 0 0 89990037.869738 -31084390.98370111 -31084390.98370111 -14710722.42758444 0 0 0 0 0 94801750.62685536 -29967466.08475345 -29967466.08475345 -15269050.27755724 0 0 0 0 0 99220126.28588599 -28936379.33247383 -28936379.33247383 -16093719.01883874 0 0 0 0 0 98982284.20784993 -28301948.47757957 -28301948.47757957 -16921559.12471003 0 0 0 0 0 102530847.6093865 -26873426.69639514 -26873426.69639514 -17105430.45953282 0 0 0 0 0 105661244.5621164 -25363347.3909308 -25363347.3909308 -17190755.92865237 0 0 0 0 0 108402054.8125896 -23810166.82650224 -23810166.82650224 -17185657.63455478 0 0 0 0 0 109955641.4270624 -22124066.96996661 -22124066.96996661 -17668429.66435085 0 0 0 0 0 111330262.2108553 -23044710.59716259 -23044710.59716259 -17364810.42091357 0 0 0 0 0 111917238.9804534 -20626136.53033719 -20626136.53033719 -17454556.73896867 0 0 0 0 0 113612417.240789 -19150596.17191539 -19150596.17191539 -17177605.73614176 0 0 0 0 0 115061926.7840782 -17710774.1330374 -17710774.1330374 -16849386.45735426 0 0 0 0 0 116286040.508982 -16317174.76673957 -16317174.76673957 -16478208.03618847 0 0 0 0 0 117318080.6516442 -14973640.90991793 -14973640.90991793 -16058938.61825525 0 0 0 0 0 118165966.7392188 -13691863.6670327 -13691863.6670327 -15613919.93260166 0 0 0 0 0 119384892.1503142 -13379312.05922184 -13379312.05922184 -15737235.5462699 0 0 0 0 0 117803647.0215802 -12697886.18935524 -12697886.18935524 -15469460.07346931 0 0 0 0 0 118357662.5419542 -11571944.61862655 -11571944.61862655 -14986619.62697668 0 0 0 0 0 118795206.5683544 -10509652.03728718 -10509652.03728718 -14492084.80824673 0 0 0 0 0 119125097.4698997 -9506584.509984171 -9506584.509984171 -13990929.09445191 0 0 0 0 0 119361570.7686142 -8558377.090800624 -8558377.090800624 -13484902.1091787 0 0 0 0 0 119518670.8475795 -7665947.370310467 -7665947.370310467 -12974170.68177057 0 0 0 0 0 120003236.3012967 -7582571.66699388 -7582571.66699388 -13177016.024076 0 0 0 0 0 118735300.8097744 -7168558.482835522 -7168558.482835522 -12733489.36579585 0 0 0 0 0 118781682.7387372 -6401043.874230783 -6401043.874230783 -12240671.97304265 0 0 0 0 0 118326685.5591541 -6668122.225204844 -6668122.225204844 -12606327.73113691 0 0 0 0 0 118282828.7553124 -5983812.266242123 -5983812.266242123 -12152215.22886001 0 0 0 0 0 117486833.2217091 -5648920.49289923 -5648920.49289923 -11843262.29508697 0 0 0 0 0 117227540.6849806 -5684943.158302633 -5684943.158302633 -11700155.65585729 0 0 0 0 0 117396627.2591005 -5052445.632102176 -5052445.632102176 -11409520.53380445 0 0 0 0 0 117278456.5887013 -4491806.159870473 -4491806.159870473 -10981391.6504784 0 0 0 0 0 117135398.1181328 -3965743.186011119 -3965743.186011119 -10561529.29285218 0 0 0 0 0 116967400.0641486 -3473796.975189747 -3473796.975189747 -10151191.91800836 0 0 0 0 0 116215244.8346975 -3320159.986104752 -3320159.986104752 -9902783.374440793 0 0 0 0 0 116146660.7108085 -3291096.403299737 -3291096.403299737 -9715922.402900156 0 0 0 0 0 116034830.8765268 -2892284.25141848 -2892284.25141848 -9520458.639921583 0 0 0 0 0 115840035.2787944 -2492489.732422159 -2492489.732422159 -9147903.831610093 0 0 0 0 0 115633236.3278467 -2118944.824884144 -2118944.824884144 -8785393.559183536 0 0 0 0 0 115416243.8765058 -1770180.048566926 -1770180.048566926 -8432438.507607125 0 0 0 0 0 115191223.502575 -1444840.773436505 -1444840.773436505 -8089639.449663205 0 0 0 0 0 114594095.65072 -1352792.669387426 -1352792.669387426 -7701505.247013157 0 0 0 0 0 114323209.8678178 -1137842.735381461 -1137842.735381461 -7600014.135475847 0 0 0 0 0 114392716.9662155 -1060863.530022299 -1060863.530022299 -7377359.848279943 0 0 0 0 0 114101627.8865032 -871310.3400172882 -871310.3400172882 -7292183.499006371 0 0 0 0 0 113876341.6246912 -622811.4772305764 -622811.4772305764 -6994017.632777253 0 0 0 0 0 113648650.7675682 -391299.4504343893 -391299.4504343893 -6705312.417225562 0 0 0 0 0 113419372.1297009 -175919.4882742537 -175919.4882742537 -6426193.140863 0 0 0 0 0 112875885.8942137 -223645.6093497585 -223645.6093497585 -6317141.280361105 0 0 0 0 0 112983990.5033285 -136322.3850720229 -136322.3850720229 -6096320.167906255 0 0 0 0 0 112650520.5684028 -38300.25045786431 -38300.25045786431 -6066155.851755392 0 0 0 0 0 112434519.1676052 132897.2706550329 132897.2706550329 -5824176.565868628 0 0 0 0 0 112218155.932489 288733.6840077427 288733.6840077427 -5592070.440181137 0 0 0 0 0 112002283.3835433 438719.153404558 438719.153404558 -5358246.429986244 0 0 0 0 0 111790650.8469914 580546.7084891291 580546.7084891291 -5134751.732341788 0 0 0 0 0 111277737.5141855 717978.5489358748 717978.5489358748 -4652885.661572156 0 0 0 0 0 111580114.9269662 713482.5226276974 713482.5226276974 -4918859.718564905 0 0 0 0 0 111146109.2097819 626389.8295399863 626389.8295399863 -4864311.392400385 0 0 0 0 0 110948242.4852552 743363.313991433 743363.313991433 -4664924.800889394 0 0 0 0 0 110753102.0575967 852533.6359674294 852533.6359674294 -4471852.005328221 0 0 0 0 0 110560539.9975704 954752.8353017422 954752.8353017422 -4284381.671142966 0 0 0 0 0 110371227.125906 1049528.562450839 1049528.562450839 -4103341.093817365 0 0 0 0 0 110185105.0310351 1136893.95648601 1136893.95648601 -3928626.219817149 0 0 0 0 0 109959993.9203125 1130441.221339619 1130441.221339619 -3712728.872450218 0 0 0 0 0 109826664.844956 1043947.181675053 1043947.181675053 -3902878.96329258 0 0 0 0 0 109679499.3887793 1134885.911055838 1134885.911055838 -3724930.971366941 0 0 0 0 0 109295301.0453636 1130965.509275073 1130965.509275073 -3575652.499224725 0 0 0 0 0 109174578.9036087 1138538.91279378 1138538.91279378 -3499750.349835588 0 0 0 0 0 108987035.963564 1147130.500460911 1147130.500460911 -3461983.604784627 0 0 0 0 0 119119951.8575047 -6357509.10141146 -6357509.10141146 -12440551.81265347 0 0 0 0 0 223618.3496653111 4140053.989247022 4140053.989247022 -19380897.92468515 0 0 0 0 0 13653048.58942837 -10192015.42256484 -10192015.42256484 -7156370.481989256 0 0 0 0 0 24924907.37910438 -18046431.66212983 -18046431.66212983 -6555241.741413433 0 0 0 0 0 2753245.443838917 -648619.2742266625 -648619.2742266625 -8511829.180840643 0 0 0 0 0 41784710.85141473 -24009948.45662199 -24009948.45662199 -12197153.33984533 0 0 0 0 0 35846550.11165133 -23478614.16466888 -23478614.16466888 -6483886.296248962 0 0 0 0 0 51026654.47984034 -27136632.5500087 -27136632.5500087 -11627558.86797567 0 0 0 0 0 59833534.35507786 -29368395.59831018 -29368395.59831018 -11605721.32302307 0 0 0 0 0 68065639.73684569 -30778968.26803315 -30778968.26803315 -11889906.52181327 0 0 0 0 0 75694171.71520817 -31482732.63614322 -31482732.63614322 -12366626.03943282 0 0 0 0 0 82650993.51463793 -31593736.12709527 -31593736.12709527 -12938495.51595784 0 0 0 0 0 88848289.50142145 -31190457.18078083 -31190457.18078083 -13551924.97284696 0 0 0 0 0 94339211.22650611 -30399313.67941005 -30399313.67941005 -14131179.07353093 0 0 0 0 0 99219384.1170797 -29335672.77040938 -29335672.77040938 -14640338.35297479 0 0 0 0 0 99088803.51170619 -28639596.60159195 -28639596.60159195 -15703300.5732011 0 0 0 0 0 103168264.0882098 -27664835.52438039 -27664835.52438039 -16355747.68941638 0 0 0 0 0 106625384.6497651 -26264364.6085611 -26264364.6085611 -16540509.56768412 0 0 0 0 0 109620916.8999607 -24777923.88398987 -24777923.88398987 -16643721.92642388 0 0 0 0 0 112200762.366321 -23237599.29963964 -23237599.29963964 -16656818.80830549 0 0 0 0 0 113416070.595187 -21551780.23413204 -21551780.23413204 -17245158.84977338 0 0 0 0 0 110789462.8388463 -22238612.86650752 -22238612.86650752 -17082985.67769852 0 0 0 0 0 115196746.9191039 -20063396.94062708 -20063396.94062708 -17059193.53390188 0 0 0 0 0 116701652.7115306 -18598415.06904284 -18598415.06904284 -16815804.82419973 0 0 0 0 0 117959862.1850715 -17172865.86373161 -17172865.86373161 -16521365.85495325 0 0 0 0 0 119001910.1170507 -15788431.16320862 -15788431.16320862 -16175244.01050977 0 0 0 0 0 119835186.0461193 -14459041.52314211 -14459041.52314211 -15803474.46724856 0 0 0 0 0 120494761.2970903 -13193756.74081955 -13193756.74081955 -15396736.93004898 0 0 0 0 0 118849239.6910066 -12472953.09853202 -12472953.09853202 -15148459.41284761 0 0 0 0 0 119907686.8752146 -12212167.77278447 -12212167.77278447 -15296516.45928711 0 0 0 0 0 120304495.9669949 -11106677.05733757 -11106677.05733757 -14839371.61294333 0 0 0 0 0 120587576.2888666 -10057544.60938115 -10057544.60938115 -14370038.23807639 0 0 0 0 0 120774967.9567145 -9069614.848206256 -9069614.848206256 -13888453.21771706 0 0 0 0 0 120882587.075619 -8136826.063262548 -8136826.063262548 -13399762.67478121 0 0 0 0 0 120910742.9148884 -7261956.01341923 -7261956.01341923 -12910198.29108076 0 0 0 0 0 119602895.9919292 -6830200.313818444 -6830200.313818444 -12465320.20883367 0 0 0 0 0 119996813.9230642 -6779549.039969121 -6779549.039969121 -12696784.32039029 0 0 0 0 0 119936300.758333 -6027695.627804004 -6027695.627804004 -12218475.23580954 0 0 0 0 0 117988270.05381 -6022641.621089155 -6022641.621089155 -11982235.04872172 0 0 0 0 0 117963345.335303 -5358409.053444953 -5358409.053444953 -11512057.03748391 0 0 0 0 0 117189235.8047765 -5068705.240994173 -5068705.240994173 -11247144.59905002 0 0 0 0 0 118198523.2321894 -5341380.702001774 -5341380.702001774 -11701876.74972605 0 0 0 0 0 117116540.5835496 -4491239.113718323 -4491239.113718323 -10803186.99777265 0 0 0 0 0 117012101.6588538 -3950748.644584051 -3950748.644584051 -10369584.9786227 0 0 0 0 0 116880898.3993551 -3444735.982233081 -3444735.982233081 -9944809.265304044 0 0 0 0 0 116727545.2745871 -2971945.41875031 -2971945.41875031 -9530128.452347629 0 0 0 0 0 115997707.6937221 -2850866.905837498 -2850866.905837498 -9319793.706634961 0 0 0 0 0 116778342.4802591 -3014988.968617537 -3014988.968617537 -9751421.133664219 0 0 0 0 0 115830759.5016594 -2440133.109718649 -2440133.109718649 -8935196.466857798 0 0 0 0 0 115648584.6674433 -2057065.090457764 -2057065.090457764 -8562460.012964725 0 0 0 0 0 115453773.9605613 -1699911.785380297 -1699911.785380297 -8201091.950552528 0 0 0 0 0 115248075.681736 -1367192.367030924 -1367192.367030924 -7850628.663659368 0 0 0 0 0 115033867.4637363 -1057578.100335778 -1057578.100335778 -7511158.247082511 0 0 0 0 0 114960074.5322391 -1141866.768785523 -1141866.768785523 -7757205.720297912 0 0 0 0 0 114185056.8553195 -788902.2696525399 -788902.2696525399 -7063628.429434567 0 0 0 0 0 114723630.1946434 -859459.2880683595 -859459.2880683595 -7434974.053817555 0 0 0 0 0 113972148.292861 -535698.7516976587 -535698.7516976587 -6760691.02087844 0 0 0 0 0 113755173.0877919 -300176.6939769769 -300176.6939769769 -6468098.869797379 0 0 0 0 0 113535205.4837729 -81311.33732793486 -81311.33732793486 -6185609.554735524 0 0 0 0 0 113313126.2826609 121831.5840828059 121831.5840828059 -5913014.842679593 0 0 0 0 0 112776446.1468143 56776.09593598931 56776.09593598931 -5834730.509612831 0 0 0 0 0 113189285.201051 24298.56890709599 24298.56890709599 -6156245.226127216 0 0 0 0 0 112574513.0170829 234943.6724486017 234943.6724486017 -5582479.019793325 0 0 0 0 0 112358066.5194741 392320.4187565805 392320.4187565805 -5346660.62795927 0 0 0 0 0 112134078.234869 534299.4196137966 534299.4196137966 -5129833.324313371 0 0 0 0 0 111927781.928161 677776.8434110441 677776.8434110441 -4907119.944966951 0 0 0 0 0 111719758.097988 811578.7892870669 811578.7892870669 -4690388.608528454 0 0 0 0 0 111370860.9895145 835202.8464915765 835202.8464915765 -4712877.342754059 0 0 0 0 0 111514507.9108573 935248.8016837994 935248.8016837994 -4481523.203035864 0 0 0 0 0 111082704.599251 836055.127393886 836055.127393886 -4453002.135186512 0 0 0 0 0 110889564.4208599 945837.948636248 945837.948636248 -4259912.418104412 0 0 0 0 0 110697245.7849402 1047244.4526014 1047244.4526014 -4074350.227067134 0 0 0 0 0 110509895.2265906 1142574.360849177 1142574.360849177 -3893612.05407846 0 0 0 0 0 110324236.2818428 1230150.602683526 1230150.602683526 -3718585.803763378 0 0 0 0 0 110141843.8414719 1310618.943399047 1310618.943399047 -3549695.153688472 0 0 0 0 0 110005750.4980301 1217832.429686511 1217832.429686511 -3761205.354804897 0 0 0 0 0 109785120.9580738 1210496.539951058 1210496.539951058 -3547182.211458748 0 0 0 0 0 109544889.3621717 1274157.297966845 1274157.297966845 -3400677.506950803 0 0 0 0 0 109447438.1937861 1287977.013356279 1287977.013356279 -3260607.051849523 0 0 0 0 0 109587801.5752489 1293790.043033899 1293790.043033899 -3417774.7188504 0 0 0 0 0 109266140.9430476 1305307.144051791 1305307.144051791 -3182307.8197091 0 0 0 0 0 118774694.9644162 -5682725.616895733 -5682725.616895733 -11753621.89406 0 0 0 0 0 15478607.35774117 -9704014.04740948 -9704014.04740948 -7781896.414021716 0 0 0 0 0 26215345.4566431 -16907332.99019881 -16907332.99019881 -7896720.772620677 0 0 0 0 0 3504400.670819981 -184596.5653326071 -184596.5653326071 -9380825.855866659 0 0 0 0 0 45448756.58929655 -27351147.08454684 -27351147.08454684 -6760119.827799152 0 0 0 0 0 36326988.66591031 -21872431.21510535 -21872431.21510535 -7863983.857846863 0 0 0 0 0 54031012.44097026 -29899980.83813688 -29899980.83813688 -7464390.25051265 0 0 0 0 0 62164207.4231591 -31541573.55834975 -31541573.55834975 -8478176.067947373 0 0 0 0 0 69801335.97265247 -32408110.4626865 -32408110.4626865 -9619608.079428352 0 0 0 0 0 76888126.68894465 -32575626.32567051 -32575626.32567051 -10734397.52940528 0 0 0 0 0 83392386.0140494 -32231810.5608112 -32231810.5608112 -11772500.38907844 0 0 0 0 0 89259196.0907969 -31481403.66152885 -31481403.66152885 -12696153.62315418 0 0 0 0 0 94483934.2774462 -30390956.91216117 -30390956.91216117 -13472466.30748338 0 0 0 0 0 99116566.62979509 -29033688.05823556 -29033688.05823556 -14123746.39137865 0 0 0 0 0 103465306.3070964 -28055373.39556665 -28055373.39556665 -15061718.58886855 0 0 0 0 0 102882668.1432353 -27181199.38233482 -27181199.38233482 -16028537.13380756 0 0 0 0 0 106219036.1418461 -25624343.83218509 -25624343.83218509 -16231281.42101374 0 0 0 0 0 109124841.6807323 -24012424.20644154 -24012424.20644154 -16319171.58074314 0 0 0 0 0 111639022.2572694 -22382048.83833895 -22382048.83833895 -16306518.88851531 0 0 0 0 0 112841804.6326721 -20683634.28733121 -20683634.28733121 -16915578.66968799 0 0 0 0 0 114398410.3841617 -21689709.96168228 -21689709.96168228 -16604142.89086332 0 0 0 0 0 114604653.8985191 -19151679.29274552 -19151679.29274552 -16674109.74525381 0 0 0 0 0 116102707.7751567 -17660645.0914944 -17660645.0914944 -16371873.71726742 0 0 0 0 0 117355332.1890342 -16216173.56613268 -16216173.56613268 -16020688.14442306 0 0 0 0 0 118404330.5063525 -14826776.46880688 -14826776.46880688 -15630985.82954083 0 0 0 0 0 119265863.4002516 -13489915.19282128 -13489915.19282128 -15180821.66436732 0 0 0 0 0 119941650.4110592 -12233564.13929564 -12233564.13929564 -14725168.7888529 0 0 0 0 0 121002302.4542144 -11990209.44775012 -11990209.44775012 -14961601.49133492 0 0 0 0 0 119390686.9829777 -11316733.81975378 -11316733.81975378 -14660835.84777789 0 0 0 0 0 119801727.0801475 -10226468.90816317 -10226468.90816317 -14171092.39017398 0 0 0 0 0 120108585.1199749 -9198378.885388739 -9198378.885388739 -13666671.37070816 0 0 0 0 0 120318353.4549451 -8232911.837751435 -8232911.837751435 -13159501.69083557 0 0 0 0 0 120440904.3962453 -7324750.84304334 -7324750.84304334 -12647403.58890893 0 0 0 0 0 120492831.4017964 -6474970.177876102 -6474970.177876102 -12135916.14174621 0 0 0 0 0 120870010.9476636 -6443471.496950631 -6443471.496950631 -12423333.03213695 0 0 0 0 0 119620235.9925021 -6050578.123721377 -6050578.123721377 -11964086.10455416 0 0 0 0 0 119581350.1958929 -5323337.017598421 -5323337.017598421 -11471078.49098465 0 0 0 0 0 119044698.0846719 -5663705.574612368 -5663705.574612368 -11974471.42084504 0 0 0 0 0 118929739.9646924 -5014776.670496173 -5014776.670496173 -11515619.40390384 0 0 0 0 0 118080053.2147782 -4739295.995802093 -4739295.995802093 -11258344.95718372 0 0 0 0 0 117897058.6299987 -4736793.71928452 -4736793.71928452 -11050408.78079048 0 0 0 0 0 117930835.6604254 -4175674.33722799 -4175674.33722799 -10822465.83828677 0 0 0 0 0 117757726.66753 -3648339.634766265 -3648339.634766265 -10394016.46672484 0 0 0 0 0 117563388.4691963 -3155683.299643539 -3155683.299643539 -9975386.295695148 0 0 0 0 0 117348942.1468215 -2695788.437020952 -2695788.437020952 -9566860.474817993 0 0 0 0 0 116572065.8290341 -2586784.249495458 -2586784.249495458 -9361490.729927838 0 0 0 0 0 116555019.4495387 -2530996.627394027 -2530996.627394027 -9127211.004396347 0 0 0 0 0 116352689.3764325 -2187608.651173139 -2187608.651173139 -8982026.156443141 0 0 0 0 0 116122610.270988 -1816008.570945024 -1816008.570945024 -8613018.421323206 0 0 0 0 0 115883524.4718389 -1469864.440622592 -1469864.440622592 -8254745.161658789 0 0 0 0 0 115636398.0831836 -1147325.19732425 -1147325.19732425 -7907109.259707932 0 0 0 0 0 115383763.5240529 -848029.5579382761 -848029.5579382761 -7570450.037967253 0 0 0 0 0 114812129.0133386 -769874.0982879945 -769874.0982879945 -7184268.18010519 0 0 0 0 0 114483136.9372106 -596621.7135446672 -596621.7135446672 -7122959.872700148 0 0 0 0 0 114585546.2012721 -501836.8121065694 -501836.8121065694 -6867042.758666568 0 0 0 0 0 114240035.7328413 -352425.123727497 -352425.123727497 -6821103.176845851 0 0 0 0 0 113995079.3140603 -125473.4891752936 -125473.4891752936 -6529351.160294329 0 0 0 0 0 113749275.8148408 85153.85752577968 85153.85752577968 -6247504.51220953 0 0 0 0 0 113503435.8769785 280676.8882524846 280676.8882524846 -5975109.688278764 0 0 0 0 0 112958684.8986147 210405.7844566498 210405.7844566498 -5895490.908581309 0 0 0 0 0 113090227.2793591 310635.2140932226 310635.2140932226 -5650192.313044753 0 0 0 0 0 112722481.0882936 377531.8307610192 377531.8307610192 -5654277.673397277 0 0 0 0 0 112484242.8412515 524067.9464036957 524067.9464036957 -5426604.079013465 0 0 0 0 0 112263406.923179 668395.2598472206 668395.2598472206 -5193323.507700574 0 0 0 0 0 112037926.9660215 804646.6739113759 804646.6739113759 -4968137.711926146 0 0 0 0 0 111815158.2297016 932168.0115865575 932168.0115865575 -4749860.881994545 0 0 0 0 0 111310522.6161878 1048160.723793963 1048160.723793963 -4281935.825997313 0 0 0 0 0 111595260.7869217 1049598.672992225 1049598.672992225 -4541760.998254658 0 0 0 0 0 111163449.4380088 947341.0756474319 947341.0756474319 -4511485.516039312 0 0 0 0 0 110957836.6966975 1051441.940256009 1051441.940256009 -4318285.378979437 0 0 0 0 0 110756736.1719833 1149473.834390181 1149473.834390181 -4129757.659405364 0 0 0 0 0 110557944.7308223 1240147.992527385 1240147.992527385 -3948531.141655763 0 0 0 0 0 110362489.0675458 1323769.730918163 1323769.730918163 -3773096.176076987 0 0 0 0 0 110173727.4674159 1400955.441999356 1400955.441999356 -3603490.578890837 0 0 0 0 0 109958596.386848 1389846.026070593 1389846.026070593 -3404818.604845317 0 0 0 0 0 109812431.777649 1298357.587114553 1298357.587114553 -3600386.527491958 0 0 0 0 0 109673803.4308393 1387924.455489413 1387924.455489413 -3411588.252969583 0 0 0 0 0 109323054.0245962 1339293.190192822 1339293.190192822 -3332248.929809738 0 0 0 0 0 109386711.0591807 1382423.95169542 1382423.95169542 -3230599.565440444 0 0 0 0 0 109101083.9831449 1353756.079668111 1353756.079668111 -3257002.83207274 0 0 0 0 0 119827901.8426802 -5325323.141258338 -5325323.141258338 -11746215.97589018 0 0 0 0 0 5959923.751804708 -5253884.964673663 -5253884.964673663 -364438.9712605113 0 0 0 0 0 17474069.28105046 -13982379.47501476 -13982379.47501476 -834489.0915159271 0 0 0 0 0 28887169.70124684 -20650775.35813171 -20650775.35813171 -1423722.593559048 0 0 0 0 0 45958900.28519295 -25558746.41994179 -25558746.41994179 -7828768.654747932 0 0 0 0 0 39956761.59970312 -25499323.68142957 -25499323.68142957 -1647996.123569939 0 0 0 0 0 55616948.08028737 -28465261.54093174 -28465261.54093174 -8060838.532901132 0 0 0 0 0 64764735.26882885 -30391748.11783649 -30391748.11783649 -8634371.289972913 0 0 0 0 0 73298978.85094102 -31511439.66686565 -31511439.66686565 -9383749.065874377 0 0 0 0 0 80918766.87193263 -31840404.21085839 -31840404.21085839 -10260774.36953054 0 0 0 0 0 87757182.03047287 -31594031.48158469 -31594031.48158469 -11163561.09175368 0 0 0 0 0 93791724.34915221 -30873530.25112468 -30873530.25112468 -11987752.6854638 0 0 0 0 0 99113497.57133134 -29823305.12220744 -29823305.12220744 -12743576.56203692 0 0 0 0 0 103734075.4422931 -28550002.14886666 -28550002.14886666 -13379864.95378584 0 0 0 0 0 103185405.0738253 -27547440.01642444 -27547440.01642444 -14637232.19430062 0 0 0 0 0 107176487.3006943 -26620776.36880548 -26620776.36880548 -15383438.27340212 0 0 0 0 0 110376405.1449097 -25081759.87888178 -25081759.87888178 -15606498.57190743 0 0 0 0 0 113103075.2798697 -23482647.6038638 -23482647.6038638 -15728327.13079959 0 0 0 0 0 115416481.1028904 -21864361.17671588 -21864361.17671588 -15755485.17506692 0 0 0 0 0 116256413.0163351 -20140206.98590051 -20140206.98590051 -16468806.77823322 0 0 0 0 0 113797849.7903047 -20759759.48490476 -20759759.48490476 -16199825.3806682 0 0 0 0 0 117811366.6415071 -18618427.39735185 -18618427.39735185 -16268996.77984479 0 0 0 0 0 119094939.3282913 -17135047.87576358 -17135047.87576358 -16008767.37291051 0 0 0 0 0 120157724.6702814 -15700150.8618784 -15700150.8618784 -15692994.1434131 0 0 0 0 0 121018985.6604978 -14313257.01060708 -14313257.01060708 -15322496.40721339 0 0 0 0 0 121662895.8130254 -13005343.64902218 -13005343.64902218 -14941766.27925974 0 0 0 0 0 122144929.471354 -11759821.87883842 -11759821.87883842 -14520426.84243588 0 0 0 0 0 120467705.2233432 -11043331.63965758 -11043331.63965758 -14247191.1249911 0 0 0 0 0 121367972.988126 -10854219.26624127 -10854219.26624127 -14511251.59252363 0 0 0 0 0 121624535.8957482 -9781357.149711847 -9781357.149711847 -14039236.89001098 0 0 0 0 0 121778227.3872528 -8769017.890288522 -8769017.890288522 -13559409.56187239 0 0 0 0 0 121846401.2464817 -7817868.352164202 -7817868.352164202 -13069822.29634193 0 0 0 0 0 121842533.7622721 -6926436.147324596 -6926436.147324596 -12577177.38642297 0 0 0 0 0 121768952.4940784 -6091431.319953389 -6091431.319953389 -12083498.57827161 0 0 0 0 0 120481931.5235512 -5681423.593407544 -5681423.593407544 -11626798.0102484 0 0 0 0 0 120773939.8676314 -5680511.537805971 -5680511.537805971 -11939996.66397562 0 0 0 0 0 120630867.5819182 -4969157.072560092 -4969157.072560092 -11460969.06377615 0 0 0 0 0 118719088.181998 -5011675.817012067 -5011675.817012067 -11274800.60417233 0 0 0 0 0 118621842.4630756 -4385934.247019447 -4385934.247019447 -10807302.11544819 0 0 0 0 0 117795317.5560744 -4155664.637382667 -4155664.637382667 -10597813.31427403 0 0 0 0 0 118780017.8245915 -4407621.669319283 -4407621.669319283 -11063097.82672281 0 0 0 0 0 117663707.668196 -3613262.656401931 -3613262.656401931 -10156081.17089071 0 0 0 0 0 117505164.1764871 -3107288.328400424 -3107288.328400424 -9725464.999860568 0 0 0 0 0 117323415.3180909 -2635260.668030611 -2635260.668030611 -9305960.93146171 0 0 0 0 0 117123436.239815 -2195553.372177133 -2195553.372177133 -8897816.430406824 0 0 0 0 0 116365812.6659755 -2120087.291830424 -2120087.291830424 -8734864.379467513 0 0 0 0 0 117119572.6438306 -2266648.335708637 -2266648.335708637 -9168782.759919718 0 0 0 0 0 116160577.8433619 -1738789.061361327 -1738789.061361327 -8355330.403341786 0 0 0 0 0 115942649.1389824 -1384780.908572124 -1384780.908572124 -7989462.119405382 0 0 0 0 0 115715050.6528719 -1055323.161652182 -1055323.161652182 -7636165.605374842 0 0 0 0 0 115479309.9972165 -749597.4512822675 -749597.4512822675 -7293124.977567392 0 0 0 0 0 115236927.355198 -466564.4296256906 -466564.4296256906 -6962713.363967411 0 0 0 0 0 115128022.5315049 -570046.0215296646 -570046.0215296646 -7244052.305664158 0 0 0 0 0 114354730.6283394 -252905.7958893825 -252905.7958893825 -6560231.759010468 0 0 0 0 0 114868466.6042451 -311733.9296828121 -311733.9296828121 -6927949.42713296 0 0 0 0 0 114120072.8224147 -22311.27932660675 -22311.27932660675 -6265560.667022591 0 0 0 0 0 113883139.7620024 191411.3958877706 191411.3958877706 -5981346.825909041 0 0 0 0 0 113644861.3621552 389449.3306573511 389449.3306573511 -5707530.466463975 0 0 0 0 0 113406128.0106495 572596.007699678 572596.007699678 -5443244.398821575 0 0 0 0 0 112867621.6613272 484363.8381275416 484363.8381275416 -5396813.258298507 0 0 0 0 0 113258853.0837235 461805.6227147868 461805.6227147868 -5712245.688309311 0 0 0 0 0 112648921.9898012 641335.1213925311 641335.1213925311 -5154701.012150586 0 0 0 0 0 112419885.2399481 779004.7258003055 779004.7258003055 -4933944.402784809 0 0 0 0 0 112189313.8798725 911668.3146589816 911668.3146589816 -4717867.880184926 0 0 0 0 0 111969018.2098963 1039223.074832347 1039223.074832347 -4502382.5872048 0 0 0 0 0 111752439.092141 1157925.750561572 1157925.750561572 -4292827.966430271 0 0 0 0 0 111377698.7171052 1156783.439586693 1156783.439586693 -4342185.001960647 0 0 0 0 0 111536951.4126786 1266025.528591577 1266025.528591577 -4093643.061374531 0 0 0 0 0 111106791.7333824 1152782.01173519 1152782.01173519 -4089067.208268872 0 0 0 0 0 110905182.547585 1249391.226380122 1249391.226380122 -3903845.003990189 0 0 0 0 0 110707107.9969124 1339924.753268461 1339924.753268461 -3724067.917004227 0 0 0 0 0 110512041.0630485 1423139.306578762 1423139.306578762 -3550681.045671771 0 0 0 0 0 110320566.8039862 1498918.19992717 1498918.19992717 -3383597.569934265 0 0 0 0 0 110135278.2074261 1571914.27757034 1571914.27757034 -3212221.692822046 0 0 0 0 0 109979555.3888652 1461905.59909084 1461905.59909084 -3448783.467611232 0 0 0 0 0 109774380.4068912 1457330.989247701 1457330.989247701 -3246660.494885099 0 0 0 0 0 109582359.858926 1519013.051858514 1519013.051858514 -3122643.466299768 0 0 0 0 0 109363671.8177112 1507760.602010641 1507760.602010641 -3009862.009445043 0 0 0 0 0 109591132.8990005 1520945.941724561 1520945.941724561 -3156129.796993868 0 0 0 0 0 119495121.8772577 -4645678.134509324 -4645678.134509324 -10986358.86621962 0 0 0 0 0 7264480.413726647 -5536936.25636737 -5536936.25636737 91644.31683602805 0 0 0 0 0 20629128.12584615 -14467913.57808308 -14467913.57808308 12815.27804458661 0 0 0 0 0 30801750.62880869 -20153059.14290432 -20153059.14290432 -1821180.378092021 0 0 0 0 0 49442336.52560104 -28789966.77423789 -28789966.77423789 -2773241.544140466 0 0 0 0 0 40011424.50059548 -23904306.70206591 -23904306.70206591 -2771401.957336774 0 0 0 0 0 58398716.77881372 -31048532.62908978 -31048532.62908978 -4249241.23116175 0 0 0 0 0 66832478.91328076 -32319551.90952617 -32319551.90952617 -5874638.189481319 0 0 0 0 0 74668717.66905728 -32789023.92322439 -32789023.92322439 -7422638.786518035 0 0 0 0 0 81830712.9574161 -32633123.43829917 -32633123.43829917 -8853740.391394101 0 0 0 0 0 88271150.07493332 -31968333.22200292 -31968333.22200292 -10130213.82082133 0 0 0 0 0 94038268.30006965 -30967115.94497072 -30967115.94497072 -11207836.95078515 0 0 0 0 0 99058845.47570354 -29520921.17668347 -29520921.17668347 -12073429.23820289 0 0 0 0 0 103453203.4226825 -28009435.62608256 -28009435.62608256 -12882042.91046213 0 0 0 0 0 107707970.1491657 -27062990.47795394 -27062990.47795394 -13893017.48198228 0 0 0 0 0 106756801.875714 -25939578.12884231 -25939578.12884231 -14998367.90980327 0 0 0 0 0 109854255.0380396 -24260555.0751162 -24260555.0751162 -15212764.30767174 0 0 0 0 0 112513480.0394763 -22562224.62238909 -22562224.62238909 -15306213.73756089 0 0 0 0 0 114780182.5604757 -20868149.15065933 -20868149.15065933 -15289454.4997012 0 0 0 0 0 115633708.0642879 -19165126.19517036 -19165126.19517036 -16012025.66253246 0 0 0 0 0 117361047.8703781 -20249403.85933179 -20249403.85933179 -15695005.46045764 0 0 0 0 0 117179576.538993 -17613198.47312013 -17613198.47312013 -15754156.40112026 0 0 0 0 0 118459826.9161154 -16123259.95724146 -16123259.95724146 -15438082.28962515 0 0 0 0 0 119517254.1432078 -14686064.22583656 -14686064.22583656 -15069953.05361499 0 0 0 0 0 120383395.8355472 -13302036.87528876 -13302036.87528876 -14659630.39258008 0 0 0 0 0 121076379.0630382 -11986355.58146494 -11986355.58146494 -14197029.5768104 0 0 0 0 0 121586676.9672361 -10757276.95468502 -10757276.95468502 -13726851.90741996 0 0 0 0 0 122490923.1943393 -10587586.93085502 -10587586.93085502 -14075848.29461323 0 0 0 0 0 120859635.7528171 -9920169.558397628 -9920169.558397628 -13748145.18334277 0 0 0 0 0 121125150.5861701 -8875530.562977171 -8875530.562977171 -13262762.78096181 0 0 0 0 0 121305198.6917304 -7888688.975733792 -7888688.975733792 -12753637.55852317 0 0 0 0 0 121397642.6797567 -6965442.424881583 -6965442.424881583 -12244691.16365702 0 0 0 0 0 121412119.0526958 -6101804.003610712 -6101804.003610712 -11733501.45328936 0 0 0 0 0 121364938.8299933 -5295572.817023724 -5295572.817023724 -11224121.40546621 0 0 0 0 0 121634839.7960731 -5316456.29773747 -5316456.29773747 -11597343.85640852 0 0 0 0 0 120410525.3283151 -4944976.434713597 -4944976.434713597 -11128424.54810188 0 0 0 0 0 120289655.290996 -4260989.994604624 -4260989.994604624 -10640409.81544312 0 0 0 0 0 119677983.4025201 -4670152.03352378 -4670152.03352378 -11280349.2304868 0 0 0 0 0 119496166.2336069 -4058254.196383714 -4058254.196383714 -10820556.99667244 0 0 0 0 0 118600456.3381644 -3840788.03880178 -3840788.03880178 -10619497.13792374 0 0 0 0 0 118491055.3872339 -3801263.578108788 -3801263.578108788 -10347697.63968598 0 0 0 0 0 118395670.0000362 -3312285.25616155 -3312285.25616155 -10185129.56048835 0 0 0 0 0 118170319.1072563 -2819982.871178037 -2819982.871178037 -9760094.691148886 0 0 0 0 0 117929354.8783849 -2360852.371237891 -2360852.371237891 -9345279.577222142 0 0 0 0 0 117672229.8592504 -1934067.003459625 -1934067.003459625 -8942076.788038924 0 0 0 0 0 116874752.0527095 -1868780.532184851 -1868780.532184851 -8782948.425373502 0 0 0 0 0 116906761.6362502 -1787069.203452792 -1787069.203452792 -8501375.03817714 0 0 0 0 0 116618886.0564792 -1499339.843214984 -1499339.843214984 -8408631.361285504 0 0 0 0 0 116356069.6599466 -1156232.444497532 -1156232.444497532 -8045649.819524426 0 0 0 0 0 116088789.5820437 -838202.089804242 -838202.089804242 -7694252.183062217 0 0 0 0 0 115813295.3343879 -542792.0555152366 -542792.0555152366 -7354366.880115771 0 0 0 0 0 115534091.6097017 -271262.1654197705 -271262.1654197705 -7026970.589606513 0 0 0 0 0 114988335.7752859 -204728.7598383524 -204728.7598383524 -6644648.193484802 0 0 0 0 0 114606312.678921 -72073.06203890158 -72073.06203890158 -6622892.945494032 0 0 0 0 0 114738507.8954719 39154.53215421875 39154.53215421875 -6335636.858392867 0 0 0 0 0 114343575.045922 149901.4208870633 149901.4208870633 -6329067.721835737 0 0 0 0 0 114080764.6113173 355336.0433975374 355336.0433975374 -6045425.881396512 0 0 0 0 0 113819017.5405611 545432.3778421265 545432.3778421265 -5771720.662353259 0 0 0 0 0 113558811.5358391 721460.4825501336 721460.4825501336 -5507606.709935374 0 0 0 0 0 113013674.9444756 628331.6506381549 628331.6506381549 -5461194.00539088 0 0 0 0 0 113168070.4526396 741295.4270651008 741295.4270651008 -5191655.98430212 0 0 0 0 0 112762949.4453834 772137.4569928404 772137.4569928404 -5232820.609272076 0 0 0 0 0 112517905.7151013 905670.8638708935 905670.8638708935 -5007725.55611448 0 0 0 0 0 112283750.3449716 1034352.560727853 1034352.560727853 -4782018.115988025 0 0 0 0 0 112050644.0971589 1157082.240637836 1157082.240637836 -4562955.068959707 0 0 0 0 0 111817908.5423292 1269419.364357737 1269419.364357737 -4354366.177009705 0 0 0 0 0 111322540.6024512 1364678.083235352 1364678.083235352 -3902603.567693279 0 0 0 0 0 111590273.3793933 1371517.419393861 1371517.419393861 -4155427.103166207 0 0 0 0 0 111162523.1594292 1256070.703472173 1256070.703472173 -4148082.666317658 0 0 0 0 0 110951345.8546891 1348723.678563986 1348723.678563986 -3960863.158030954 0 0 0 0 0 110743506.4897065 1434367.258148419 1434367.258148419 -3779818.080177172 0 0 0 0 0 110538523.6713892 1513253.207609345 1513253.207609345 -3605615.632265333 0 0 0 0 0 110335593.8930753 1584309.619726836 1584309.619726836 -3438063.683898606 0 0 0 0 0 110108256.5290035 1638049.609830443 1638049.609830443 -3275784.878389561 0 0 0 0 0 109927614.4091731 1621433.005423436 1621433.005423436 -3118794.860607728 0 0 0 0 0 109781713.8067108 1532601.631995841 1532601.631995841 -3299309.242271329 0 0 0 0 0 109606888.1985004 1580544.00529277 1580544.00529277 -3151002.136333009 0 0 0 0 0 109201384.8207995 1539289.936214105 1539289.936214105 -3065455.754686378 0 0 0 0 0 109361231.9894129 1570570.815295646 1570570.815295646 -3053867.34806794 0 0 0 0 0 120447392.4366098 -4306853.668428528 -4306853.668428528 -10989030.22668865 0 0 0 0 0 10496868.89374229 -10972710.53162784 -10972710.53162784 8472587.622097801 0 0 0 0 0 20883699.18860545 -17819903.10720604 -17819903.10720604 3967550.673327263 0 0 0 0 0 34201257.31353108 -23753365.27632772 -23753365.27632772 4723568.550202743 0 0 0 0 0 50441114.98438554 -27440590.67703057 -27440590.67703057 -3413445.012874082 0 0 0 0 0 44040703.99091465 -27688398.83172037 -27688398.83172037 3387868.837174392 0 0 0 0 0 60696855.02067963 -30031181.98334376 -30031181.98334376 -4383811.34061682 0 0 0 0 0 70253156.42844638 -31579063.51443794 -31579063.51443794 -5545151.410026326 0 0 0 0 0 78813077.84423034 -32208102.27685174 -32208102.27685174 -6827416.024202234 0 0 0 0 0 86371957.66175759 -32146700.10475666 -32146700.10475666 -8095237.076073756 0 0 0 0 0 93029193.93865131 -31521324.77047019 -31521324.77047019 -9270625.582913894 0 0 0 0 0 98884417.44935419 -30436888.71916419 -30436888.71916419 -10268093.60004785 0 0 0 0 0 103960538.9503398 -29211673.10740887 -29211673.10740887 -11225800.33932241 0 0 0 0 0 108275078.2328019 -27627801.17522497 -27627801.17522497 -11974105.40837727 0 0 0 0 0 107293198.6447057 -26327954.74442594 -26327954.74442594 -13423071.37374079 0 0 0 0 0 111136561.5239338 -25465940.45031402 -25465940.45031402 -14273531.44628918 0 0 0 0 0 114027747.0520746 -23794709.51304482 -23794709.51304482 -14531097.29074717 0 0 0 0 0 116472354.926321 -22099070.362057 -22099070.362057 -14674534.77094016 0 0 0 0 0 118510989.0940238 -20407470.35549047 -20407470.35549047 -14710538.05087578 0 0 0 0 0 118971489.5651135 -18662032.50911181 -18662032.50911181 -15554350.55248645 0 0 0 0 0 116698587.7463114 -19201672.19914649 -19201672.19914649 -15174165.77303394 0 0 0 0 0 120287834.8130781 -17120663.16687195 -17120663.16687195 -15347448.09128462 0 0 0 0 0 121346158.5196625 -15631593.85110695 -15631593.85110695 -15070604.78719015 0 0 0 0 0 122203312.986162 -14200324.14883246 -14200324.14883246 -14737343.61095035 0 0 0 0 0 122874490.7525623 -12824774.69617732 -12824774.69617732 -14353687.46746067 0 0 0 0 0 123344692.2803205 -11535036.39625343 -11535036.39625343 -13959384.391957 0 0 0 0 0 123653644.2805429 -10321608.47979407 -10321608.47979407 -13533778.86329611 0 0 0 0 0 121955742.7840154 -9604521.661654742 -9604521.661654742 -13244269.27336892 0 0 0 0 0 122698330.2073891 -9490510.888432812 -9490510.888432812 -13626067.16014239 0 0 0 0 0 122817744.3831033 -8454602.52874176 -8454602.52874176 -13143207.95344263 0 0 0 0 0 122846427.4486601 -7484143.452639552 -7484143.452639552 -12658941.43428136 0 0 0 0 0 122800903.0301017 -6575230.982913558 -6575230.982913558 -12167276.95364363 0 0 0 0 0 122692376.1195624 -5727302.435950592 -5727302.435950592 -11674175.67220108 0 0 0 0 0 122520965.9559012 -4939377.945692732 -4939377.945692732 -11185237.78110605 0 0 0 0 0 121260482.9527484 -4549281.378860088 -4549281.378860088 -10722193.93096424 0 0 0 0 0 121453674.7429139 -4596899.509531277 -4596899.509531277 -11115861.77717615 0 0 0 0 0 121232762.6753694 -3928575.551315018 -3928575.551315018 -10640757.70745828 0 0 0 0 0 119367391.0093445 -4014427.991671544 -4014427.991671544 -10511024.28370033 0 0 0 0 0 119202758.5326916 -3428284.327113374 -3428284.327113374 -10048410.25572944 0 0 0 0 0 118329257.6736594 -3257186.540744795 -3257186.540744795 -9899582.313769702 0 0 0 0 0 119284493.0723777 -3488568.265966705 -3488568.265966705 -10370548.02631809 0 0 0 0 0 118142036.9199965 -2751059.236771384 -2751059.236771384 -9463345.373691775 0 0 0 0 0 117932374.0047101 -2280937.398122633 -2280937.398122633 -9039776.418828489 0 0 0 0 0 117703029.4484091 -1844390.091432407 -1844390.091432407 -8628582.80740571 0 0 0 0 0 117459281.682982 -1438873.151815502 -1438873.151815502 -8230636.941532479 0 0 0 0 0 116678565.1265441 -1407302.705264358 -1407302.705264358 -8116911.11166825 0 0 0 0 0 117403220.1596207 -1537130.068730391 -1537130.068730391 -8549389.41367821 0 0 0 0 0 116438866.2932114 -1055328.949091108 -1055328.949091108 -7745193.922537795 0 0 0 0 0 116187045.9608085 -731659.0120821539 -731659.0120821539 -7388868.142354217 0 0 0 0 0 115927335.8634873 -431574.1102013511 -431574.1102013511 -7048002.346218098 0 0 0 0 0 115663846.8602181 -153432.5558091823 -153432.5558091823 -6713661.196508752 0 0 0 0 0 115395143.6000483 102835.8947547872 102835.8947547872 -6393012.583948137 0 0 0 0 0 115253992.9412406 -18120.82042594906 -18120.82042594906 -6706931.871984378 0 0 0 0 0 114487569.0973683 265538.8684587076 265538.8684587076 -6037585.455143114 0 0 0 0 0 114973548.9217457 218262.5583532573 218262.5583532573 -6398370.086320347 0 0 0 0 0 114233123.8373479 473671.9416877425 473671.9416877425 -5752643.712650356 0 0 0 0 0 113978153.4803236 665846.055119697 665846.055119697 -5478265.423618705 0 0 0 0 0 113723085.5295184 842987.8380182219 842987.8380182219 -5215487.330380628 0 0 0 0 0 113469837.4317257 1005787.204311115 1005787.204311115 -4961962.96673117 0 0 0 0 0 112932321.2031499 894751.6789367163 894751.6789367163 -4948149.304942636 0 0 0 0 0 113298288.8028245 880036.2554642608 880036.2554642608 -5257257.686819911 0 0 0 0 0 112692823.9730763 1028690.135693448 1028690.135693448 -4724180.865612551 0 0 0 0 0 112457853.0214531 1155110.985710382 1155110.985710382 -4506350.093427571 0 0 0 0 0 112218325.2719332 1273246.708757833 1273246.708757833 -4295350.081688896 0 0 0 0 0 111988464.5654901 1386246.862875324 1386246.862875324 -4086990.463607445 0 0 0 0 0 111763829.8882648 1489623.809506524 1489623.809506524 -3887563.437071885 0 0 0 0 0 111365856.9641645 1465524.481745436 1465524.481745436 -3962612.034471032 0 0 0 0 0 111538276.1856535 1582437.383789261 1582437.383789261 -3698077.864848345 0 0 0 0 0 111111190.7098842 1456335.873368287 1456335.873368287 -3717927.773696091 0 0 0 0 0 110903759.3917254 1541439.662065344 1541439.662065344 -3539302.217006689 0 0 0 0 0 110699275.742847 1619839.225567379 1619839.225567379 -3367430.069111019 0 0 0 0 0 110498057.0616295 1691206.114735706 1691206.114735706 -3200540.875834726 0 0 0 0 0 110294689.8732631 1761573.18554403 1761573.18554403 -3036946.662627318 0 0 0 0 0 110141318.523244 1811498.52202545 1811498.52202545 -2928040.420677712 0 0 0 0 0 109972859.0883276 1693244.669211577 1693244.669211577 -3151994.862606199 0 0 0 0 0 109767647.917515 1686231.534631597 1686231.534631597 -2930889.913555461 0 0 0 0 0 109650965.6278996 1730389.893026317 1730389.893026317 -2809123.068558838 0 0 0 0 0 109486468.7149324 1709243.565659455 1709243.565659455 -2796024.61586092 0 0 0 0 0 120127999.7376789 -3625858.385385824 -3625858.385385824 -10162304.21878272 0 0 0 0 0 11219683.70165177 -11464352.37086327 -11464352.37086327 9075536.162729455 0 0 0 0 0 28805708.02240256 -21561483.00028563 -21561483.00028563 9897895.247881383 0 0 0 0 0 30120411.62106856 -21117179.76688816 -21117179.76688816 2489263.834924231 0 0 0 0 0 53810485.63270768 -30564421.75520256 -30564421.75520256 1188678.650361099 0 0 0 0 0 43532108.10620926 -26032882.51892953 -26032882.51892953 2230261.298228875 0 0 0 0 0 63168267.12841291 -32343699.79852269 -32343699.79852269 -1090606.508144511 0 0 0 0 0 72002001.61264619 -33168368.671388 -33168368.671388 -3199155.835659289 0 0 0 0 0 79904378.95530488 -33172145.67799727 -33172145.67799727 -5169190.868589335 0 0 0 0 0 86979926.05611365 -32605549.58033181 -32605549.58033181 -6922104.372495894 0 0 0 0 0 93355107.89186311 -31687670.27884992 -31687670.27884992 -8380759.454522723 0 0 0 0 0 98881660.06751549 -30214425.61644503 -30214425.61644503 -9576820.35321386 0 0 0 0 0 103656778.7192573 -28581703.58158171 -28581703.58158171 -10650702.62409934 0 0 0 0 0 107825310.9716723 -26863468.69925481 -26863468.69925481 -11504113.28464465 0 0 0 0 0 111932844.2878007 -25953799.38871235 -25953799.38871235 -12588166.20263029 0 0 0 0 0 110594306.0154545 -24567082.66803207 -24567082.66803207 -13814232.18843662 0 0 0 0 0 113401859.8500167 -22801816.95353343 -22801816.95353343 -14061768.10268897 0 0 0 0 0 115791755.0904699 -21028079.36282239 -21028079.36282239 -14160989.78840612 0 0 0 0 0 117800368.6419115 -19279740.12090143 -19279740.12090143 -14139390.04909665 0 0 0 0 0 118301667.4018587 -17584381.46886533 -17584381.46886533 -14973373.83275098 0 0 0 0 0 120185149.3354824 -18743357.77632497 -18743357.77632497 -14651650.05418776 0 0 0 0 0 119620498.008873 -16024923.04013304 -16024923.04013304 -14709172.08161586 0 0 0 0 0 120697512.3917425 -14528699.81427867 -14528699.81427867 -14371607.18834178 0 0 0 0 0 121546769.9905196 -13105058.21586323 -13105058.21586323 -13994772.30022586 0 0 0 0 0 122206403.1900375 -11758177.19822046 -11758177.19822046 -13582762.56379917 0 0 0 0 0 122725575.4055502 -10477945.78014807 -10477945.78014807 -13118371.53810855 0 0 0 0 0 123086995.5434939 -9281799.284770735 -9281799.284770735 -12634615.59248686 0 0 0 0 0 123837369.5052549 -9183057.9750755 -9183057.9750755 -13087919.16646557 0 0 0 0 0 122200353.6196041 -8525286.862685142 -8525286.862685142 -12744972.00500839 0 0 0 0 0 122326763.2584069 -7527924.251702047 -7527924.251702047 -12263432.72176795 0 0 0 0 0 122383457.3251858 -6586996.803883494 -6586996.803883494 -11758797.57225255 0 0 0 0 0 122360991.3259401 -5711780.194116514 -5711780.194116514 -11254241.67486312 0 0 0 0 0 122270891.1284381 -4896939.839750138 -4896939.839750138 -10749922.56048904 0 0 0 0 0 122128365.3094063 -4139875.833469782 -4139875.833469782 -10250269.47025183 0 0 0 0 0 122297288.7513356 -4209500.11949282 -4209500.11949282 -10703467.76328428 0 0 0 0 0 121104598.3308597 -3858989.225171221 -3858989.225171221 -10232116.15259502 0 0 0 0 0 120906489.7400501 -3220305.339303428 -3220305.339303428 -9753479.245655499 0 0 0 0 0 120228695.1426354 -3691820.448642645 -3691820.448642645 -10526580.14290622 0 0 0 0 0 119982854.9459175 -3119974.855636326 -3119974.855636326 -10071490.49844998 0 0 0 0 0 119048113.4294608 -2958904.470280795 -2958904.470280795 -9930469.231414413 0 0 0 0 0 119009666.6415274 -2883293.677392312 -2883293.677392312 -9596087.016956378 0 0 0 0 0 118791341.4182208 -2466885.047676157 -2466885.047676157 -9501173.783904728 0 0 0 0 0 118517837.2546808 -2010249.040718379 -2010249.040718379 -9082573.601906575 0 0 0 0 0 118231735.2410558 -1587236.299893561 -1587236.299893561 -8675908.98725193 0 0 0 0 0 117935790.9836696 -1194078.769268631 -1194078.769268631 -8281108.024322756 0 0 0 0 0 117125063.9969817 -1169028.707572241 -1169028.707572241 -8169481.953993887 0 0 0 0 0 117202771.3835139 -1063156.919866883 -1063156.919866883 -7844390.547158547 0 0 0 0 0 116838241.7588707 -830273.3439297609 -830273.3439297609 -7803982.077699257 0 0 0 0 0 116542517.9062926 -519010.769682041 -519010.769682041 -7450034.983087759 0 0 0 0 0 116249260.1446535 -230417.2734234479 -230417.2734234479 -7107938.098294985 0 0 0 0 0 115944719.7678594 36708.02346184511 36708.02346184511 -6778300.237875073 0 0 0 0 0 115642893.4998297 285752.9516735738 285752.9516735738 -6456158.119140844 0 0 0 0 0 115126700.5140316 342635.314035565 342635.314035565 -6083139.33583171 0 0 0 0 0 114693133.2070564 434872.9190685176 434872.9190685176 -6103443.161016505 0 0 0 0 0 114857502.2268382 563940.7453541097 563940.7453541097 -5782028.499309653 0 0 0 0 0 114413492.5006559 634077.8578685513 634077.8578685513 -5818482.193797601 0 0 0 0 0 114134853.542888 818333.6751234514 818333.6751234514 -5544334.87141844 0 0 0 0 0 113860051.0924647 987814.5536614279 987814.5536614279 -5281153.623091951 0 0 0 0 0 113579501.0131309 1137430.749120569 1137430.749120569 -5033040.851195649 0 0 0 0 0 113036222.3340435 1021527.066021286 1021527.066021286 -5020344.527777126 0 0 0 0 0 113215153.4999554 1150226.120475402 1150226.120475402 -4723966.032684931 0 0 0 0 0 112781426.081319 1152356.194994182 1152356.194994182 -4795366.037838128 0 0 0 0 0 112526835.8467152 1271739.289667034 1271739.289667034 -4577097.304836573 0 0 0 0 0 112284369.4090044 1387851.691840695 1387851.691840695 -4357493.057251182 0 0 0 0 0 112042149.6678245 1495316.208018281 1495316.208018281 -4148437.055088487 0 0 0 0 0 111803128.9565297 1592021.044247574 1592021.044247574 -3950413.730240711 0 0 0 0 0 111315836.161426 1667867.118510205 1667867.118510205 -3515702.269313043 0 0 0 0 0 111566729.6283323 1679546.815469522 1679546.815469522 -3759797.934491601 0 0 0 0 0 111144486.4336961 1552499.66513229 1552499.66513229 -3775917.793472158 0 0 0 0 0 110927546.0283143 1632882.761700027 1632882.761700027 -3595935.382649293 0 0 0 0 0 110714708.7220733 1706790.195101319 1706790.195101319 -3422922.401315904 0 0 0 0 0 110505406.2739985 1775317.630374735 1775317.630374735 -3255986.263963108 0 0 0 0 0 110319844.5994238 1842555.076090479 1842555.076090479 -3088894.281293433 0 0 0 0 0 109939350.1893562 1830826.37392777 1830826.37392777 -2931922.229006775 0 0 0 0 0 109842977.0579752 1808765.760060767 1808765.760060767 -2834581.00652684 0 0 0 0 0 109749594.3097489 1744650.546382266 1744650.546382266 -2985096.682029312 0 0 0 0 0 109512287.9250173 1768742.816446673 1768742.816446673 -2871134.896378956 0 0 0 0 0 109303486.7633082 1738637.125328735 1738637.125328735 -2834250.03977073 0 0 0 0 0 120978197.3712908 -3308955.991309979 -3308955.991309979 -10174442.21982172 0 0 0 0 0 16618736.35152137 -17725136.59347619 -17725136.59347619 17446994.01495216 0 0 0 0 0 19659105.20032545 -18024516.76449113 -18024516.76449113 8170344.545255904 0 0 0 0 0 37990080.24567598 -26606437.96652059 -26606437.96652059 11741166.61515505 0 0 0 0 0 55578877.49772383 -29603795.5479633 -29603795.5479633 966258.3402076332 0 0 0 0 0 48180105.44341926 -30078664.55586629 -30078664.55586629 8459183.994069094 0 0 0 0 0 66605106.7765355 -31823965.410159 -31823965.410159 -624926.5010329311 0 0 0 0 0 76185133.52937473 -32799647.09429508 -32799647.09429508 -2435584.766776421 0 0 0 0 0 84639675.46263191 -32916533.75346515 -32916533.75346515 -4206785.147442935 0 0 0 0 0 92024709.39216517 -32393693.36487449 -32393693.36487449 -5858921.625525289 0 0 0 0 0 98467675.98291226 -31288386.44596198 -31288386.44596198 -7236022.908635369 0 0 0 0 0 104105883.8783469 -30044658.83443752 -30044658.83443752 -8471433.816426156 0 0 0 0 0 108786079.5557676 -28420131.11193346 -28420131.11193346 -9612381.078474116 0 0 0 0 0 112767064.4770056 -26552634.82031998 -26552634.82031998 -10453898.57878336 0 0 0 0 0 111388661.9141412 -24949897.33322469 -24949897.33322469 -12052785.90857377 0 0 0 0 0 114987138.2534797 -24202715.26849745 -24202715.26849745 -13037332.50126629 0 0 0 0 0 117570069.2300914 -22415380.82864445 -22415380.82864445 -13329633.09787916 0 0 0 0 0 119713792.3797509 -20634918.60327653 -20634918.60327653 -13490660.64186635 0 0 0 0 0 121453363.1149341 -18881304.8459186 -18881304.8459186 -13536546.03792016 0 0 0 0 0 121534223.0453997 -17130899.65117509 -17130899.65117509 -14510097.90458806 0 0 0 0 0 119465471.5625709 -17583502.59051821 -17583502.59051821 -14016385.83112042 0 0 0 0 0 122622192.3109034 -15571991.11484483 -15571991.11484483 -14286881.67155907 0 0 0 0 0 123449086.5989643 -14083943.18154047 -14083943.18154047 -14008878.28482778 0 0 0 0 0 124081703.5713999 -12669544.11464453 -12669544.11464453 -13676859.19191585 0 0 0 0 0 124560226.4405641 -11324731.51260858 -11324731.51260858 -13285357.65769428 0 0 0 0 0 124860280.6544763 -10057257.12241152 -10057257.12241152 -12874011.24294703 0 0 0 0 0 125006409.5512559 -8882215.152746135 -8882215.152746135 -12447767.47006516 0 0 0 0 0 123304050.5231024 -8171784.321339589 -8171784.321339589 -12149669.1865474 0 0 0 0 0 123896215.3767516 -8129257.078381741 -8129257.078381741 -12641804.5802846 0 0 0 0 0 123882957.1515225 -7134985.819408091 -7134985.819408091 -12157882.68310142 0 0 0 0 0 123789797.49346 -6211968.346090444 -6211968.346090444 -11676311.73684379 0 0 0 0 0 123634165.94535 -5351550.026180248 -5351550.026180248 -11188873.18063789 0 0 0 0 0 123425548.4915076 -4551480.180228442 -4551480.180228442 -10701567.05094628 0 0 0 0 0 123164946.8373238 -3810385.473756169 -3810385.473756169 -10220229.52630492 0 0 0 0 0 121938275.0967488 -3441095.522053242 -3441095.522053242 -9757554.054922514 0 0 0 0 0 122036202.1096604 -3535360.923489932 -3535360.923489932 -10229045.35961873 0 0 0 0 0 121742383.1807667 -2912264.976831459 -2912264.976831459 -9762912.865743522 0 0 0 0 0 119931364.6929439 -3037319.61178336 -3037319.61178336 -9695389.648845112 0 0 0 0 0 119703917.4229807 -2492457.661888978 -2492457.661888978 -9241708.917913647 0 0 0 0 0 118791120.2650857 -2377811.587939353 -2377811.587939353 -9156168.219880709 0 0 0 0 0 119713037.8928219 -2589566.582517277 -2589566.582517277 -9627600.667058805 0 0 0 0 0 118551396.6243503 -1909514.41471243 -1909514.41471243 -8729127.618628778 0 0 0 0 0 118294483.4881382 -1476011.129344244 -1476011.129344244 -8315014.263218322 0 0 0 0 0 118022057.3435773 -1075362.903105888 -1075362.903105888 -7916139.881344019 0 0 0 0 0 117736987.8547338 -705404.8222268258 -705404.8222268258 -7530592.350498779 0 0 0 0 0 116935884.5794559 -717179.0218362714 -717179.0218362714 -7471640.665062382 0 0 0 0 0 117628925.0347435 -831196.8982227256 -831196.8982227256 -7899147.886721566 0 0 0 0 0 116659416.9922564 -398452.1308378986 -398452.1308378986 -7113779.579833508 0 0 0 0 0 116377964.9108904 -105694.4125519399 -105694.4125519399 -6769588.005890634 0 0 0 0 0 116087300.2300096 164607.0687452789 164607.0687452789 -6443809.712779671 0 0 0 0 0 115801053.6117736 418737.6669917232 418737.6669917232 -6116879.545222207 0 0 0 0 0 115515250.328695 654578.0303415589 654578.0303415589 -5801509.96265969 0 0 0 0 0 115343495.64762 517051.9593430806 517051.9593430806 -6146187.133104811 0 0 0 0 0 114584677.2002113 765093.6054059712 765093.6054059712 -5496942.551593612 0 0 0 0 0 115042126.5069245 728326.1894991737 728326.1894991737 -5848787.253753842 0 0 0 0 0 114312358.9126449 950729.5820608585 950729.5820608585 -5224316.065706927 0 0 0 0 0 114041360.4190558 1121007.127834099 1121007.127834099 -4962827.27058613 0 0 0 0 0 113769850.9533147 1275925.668628274 1275925.668628274 -4711441.02753198 0 0 0 0 0 113500243.6573792 1413660.384528247 1413660.384528247 -4474577.640457857 0 0 0 0 0 112964000.9302466 1281675.937011422 1281675.937011422 -4497778.795482405 0 0 0 0 0 113305237.0445583 1274527.998914051 1274527.998914051 -4793294.078106328 0 0 0 0 0 112713727.0603532 1402409.037564618 1402409.037564618 -4279079.480832185 0 0 0 0 0 112468146.439125 1513733.760869298 1513733.760869298 -4069259.194153888 0 0 0 0 0 112224568.5902353 1620158.793062509 1620158.793062509 -3862767.124282913 0 0 0 0 0 111986738.2473593 1717083.699967738 1717083.699967738 -3664736.750154717 0 0 0 0 0 111751723.2448634 1804706.206483994 1804706.206483994 -3476730.61369891 0 0 0 0 0 111335653.459873 1760549.617613747 1760549.617613747 -3574762.57730043 0 0 0 0 0 111520089.6862829 1884550.37657384 1884550.37657384 -3295720.765636209 0 0 0 0 0 111098595.4417891 1747284.304675064 1747284.304675064 -3338788.869203404 0 0 0 0 0 110885102.0952297 1820119.91305319 1820119.91305319 -3169134.466663542 0 0 0 0 0 110674883.2454352 1886827.309227854 1886827.309227854 -3008228.087503051 0 0 0 0 0 110469829.3043408 1945807.370996757 1945807.370996757 -2853629.917789508 0 0 0 0 0 110194532.064547 1994604.112870771 1994604.112870771 -2714779.289188355 0 0 0 0 0 110197417.9014052 1997768.256288916 1997768.256288916 -2764522.967753721 0 0 0 0 0 110077579.8396561 1951555.555378745 1951555.555378745 -2747257.761681559 0 0 0 0 0 109755507.6414111 1915688.407492836 1915688.407492836 -2606465.043144177 0 0 0 0 0 109587612.5245428 1910522.587175288 1910522.587175288 -2551384.634831564 0 0 0 0 0 120673910.941376 -2629988.631611973 -2629988.631611973 -9286494.450060401 0 0 0 0 0 18466787.42108245 -17584092.04538706 -17584092.04538706 17812173.3098205 0 0 0 0 0 31175206.50571887 -24518594.24778857 -24518594.24778857 19297378.54604359 0 0 0 0 0 32455702.79584669 -23919052.4046851 -23919052.4046851 9664519.721121494 0 0 0 0 0 58687136.27597976 -32469996.17881702 -32469996.17881702 5042636.777427643 0 0 0 0 0 48760936.33174719 -29162442.95720538 -29162442.95720538 7951603.109339195 0 0 0 0 0 68593046.68403468 -33694879.11288609 -33694879.11288609 2070960.829397281 0 0 0 0 0 77479583.55840208 -33969489.38022634 -33969489.38022634 -571429.0709685378 0 0 0 0 0 85364794.64217159 -33503614.57880557 -33503614.57880557 -2939018.624449603 0 0 0 0 0 92415071.84500042 -32621999.36773985 -32621999.36773985 -4888720.179054266 0 0 0 0 0 98490985.66589801 -31110527.76255448 -31110527.76255448 -6552364.93877478 0 0 0 0 0 103744052.5476236 -29404394.46130546 -29404394.46130546 -7992025.258043584 0 0 0 0 0 108273299.2913583 -27556677.28686877 -27556677.28686877 -9124745.76702971 0 0 0 0 0 112128033.3223611 -25588587.11053181 -25588587.11053181 -9990248.613246661 0 0 0 0 0 116034685.3582864 -24751067.78219322 -24751067.78219322 -11197011.43440516 0 0 0 0 0 114321234.6312922 -23125193.88157613 -23125193.88157613 -12530661.17133292 0 0 0 0 0 116835089.277505 -21261352.67523278 -21261352.67523278 -12788325.97908883 0 0 0 0 0 118943581.5100716 -19417395.2876313 -19417395.2876313 -12886902.62217687 0 0 0 0 0 120674658.8833358 -17631214.34040848 -17631214.34040848 -12863298.3230197 0 0 0 0 0 120823699.1908645 -15948830.02151066 -15948830.02151066 -13808936.55660329 0 0 0 0 0 122847084.1008581 -17181456.20908342 -17181456.20908342 -13480209.64996071 0 0 0 0 0 121918060.9171069 -14392649.04256423 -14392649.04256423 -13535823.47996077 0 0 0 0 0 122797220.9378066 -12901541.99422005 -12901541.99422005 -13177295.87147994 0 0 0 0 0 123424168.9821956 -11521124.90343555 -11521124.90343555 -12808515.10153309 0 0 0 0 0 123890675.8875772 -10205737.03037404 -10205737.03037404 -12393907.22702982 0 0 0 0 0 124233866.4963935 -8964718.439399963 -8964718.439399963 -11929364.40800676 0 0 0 0 0 124437408.6336394 -7814181.8741938 -7814181.8741938 -11452293.80280583 0 0 0 0 0 125036682.4645883 -7788880.483517407 -7788880.483517407 -12005141.03545011 0 0 0 0 0 123408148.5892519 -7143799.656278439 -7143799.656278439 -11658054.37987613 0 0 0 0 0 123407444.7460258 -6190296.654969127 -6190296.654969127 -11176768.72758272 0 0 0 0 0 123339740.2517193 -5304703.969651665 -5304703.969651665 -10687670.91912323 0 0 0 0 0 123208900.8984532 -4481283.986923315 -4481283.986923315 -10193954.24342544 0 0 0 0 0 123020820.9759325 -3717059.077822164 -3717059.077822164 -9701586.073459471 0 0 0 0 0 122786032.7335767 -3012105.88859872 -3012105.88859872 -9216533.937689923 0 0 0 0 0 122858033.6720272 -3128859.734048597 -3128859.734048597 -9748160.703956204 0 0 0 0 0 121702820.0127027 -2798747.087096673 -2798747.087096673 -9280495.035799738 0 0 0 0 0 121432072.0667848 -2207409.00710699 -2207409.00710699 -8816113.71074318 0 0 0 0 0 120695091.9157491 -2735802.864266651 -2735802.864266651 -9719026.49338772 0 0 0 0 0 120390148.6893275 -2205242.169314924 -2205242.169314924 -9272788.063960863 0 0 0 0 0 119423748.4147927 -2098172.088549674 -2098172.088549674 -9194870.811378108 0 0 0 0 0 119452932.8444797 -1988045.031658747 -1988045.031658747 -8800090.703873916 0 0 0 0 0 119118749.4950038 -1643654.306429195 -1643654.306429195 -8774089.093578754 0 0 0 0 0 118800822.1927172 -1223611.449805008 -1223611.449805008 -8365451.241902851 0 0 0 0 0 118476334.6813957 -835964.4045244579 -835964.4045244579 -7969844.068731123 0 0 0 0 0 118143782.5040201 -478326.4693340737 -478326.4693340737 -7587246.240125164 0 0 0 0 0 117316371.5943463 -497109.6203152617 -497109.6203152617 -7531037.467224898 0 0 0 0 0 117444718.6741458 -364673.0558013098 -364673.0558013098 -7157477.810021142 0 0 0 0 0 116995635.1575043 -192083.4705795553 -192083.4705795553 -7178306.255012133 0 0 0 0 0 116670737.0261919 88763.59983978856 88763.59983978856 -6836595.635729738 0 0 0 0 0 116361359.8993893 351339.3597097265 351339.3597097265 -6503519.634184618 0 0 0 0 0 116035912.2481723 596989.0337008833 596989.0337008833 -6176406.863880143 0 0 0 0 0 115709901.6672899 822329.6821075812 822329.6821075812 -5865636.521114784 0 0 0 0 0 115224797.8735292 869186.7193264439 869186.7193264439 -5501315.393743232 0 0 0 0 0 114746395.8388393 922462.4425972839 922462.4425972839 -5565130.798127769 0 0 0 0 0 114939255.9791129 1066886.419581 1066886.419581 -5215185.783610408 0 0 0 0 0 114454840.8390668 1099875.977400083 1099875.977400083 -5291505.282055906 0 0 0 0 0 114160118.4022247 1259555.287392567 1259555.287392567 -5030887.654926642 0 0 0 0 0 113866836.1856435 1403093.151017394 1403093.151017394 -4782026.107023772 0 0 0 0 0 113572079.4241776 1532768.865417115 1532768.865417115 -4546101.634927888 0 0 0 0 0 113037336.8141366 1400237.524552309 1400237.524552309 -4567182.549566771 0 0 0 0 0 113233944.0469991 1538765.497794024 1538765.497794024 -4250272.703792999 0 0 0 0 0 112775138.877253 1516300.70077884 1516300.70077884 -4348016.489554104 0 0 0 0 0 112516862.0603934 1625125.573531301 1625125.573531301 -4134307.494406788 0 0 0 0 0 112262763.9376744 1725297.070845653 1725297.070845653 -3925398.72290008 0 0 0 0 0 112012351.7090629 1816405.021552449 1816405.021552449 -3727480.398154909 0 0 0 0 0 111766228.6738754 1897844.730953681 1897844.730953681 -3538845.882760013 0 0 0 0 0 111291867.5889191 1957541.13601301 1957541.13601301 -3121044.784093405 0 0 0 0 0 111524789.9786574 1972707.062627715 1972707.062627715 -3356076.713962024 0 0 0 0 0 111108942.6192744 1835211.438382649 1835211.438382649 -3396092.811529539 0 0 0 0 0 110886293.8691866 1902764.429772669 1902764.429772669 -3225060.004293135 0 0 0 0 0 110667536.1187607 1963130.003247839 1963130.003247839 -3061878.991317432 0 0 0 0 0 110444207.7308141 2013858.664488586 2013858.664488586 -2909609.082932576 0 0 0 0 0 110209082.7503644 2061001.594087124 2061001.594087124 -2758682.211614138 0 0 0 0 0 109969042.5947248 2026871.350232734 2026871.350232734 -2696593.319956458 0 0 0 0 0 109777208.5160813 1982242.044025869 1982242.044025869 -2658884.392347809 0 0 0 0 0 109603018.1173873 1948097.484794822 1948097.484794822 -2663086.271739924 0 0 0 0 0 109399530.6617202 1935078.074790306 1935078.074790306 -2588377.83184031 0 0 0 0 0 121421599.1534312 -2337087.853702432 -2337087.853702432 -9306802.052105308 0 0 0 0 0 18415015.18022739 -20343303.02883665 -20343303.02883665 19665648.53588323 0 0 0 0 0 40826549.19262239 -29472453.31794415 -29472453.31794415 18275825.43528005 0 0 0 0 0 61943096.06866583 -32265595.71806452 -32265595.71806452 5661593.064226716 0 0 0 0 0 52885842.55946816 -32837036.51810648 -32837036.51810648 13119670.27128015 0 0 0 0 0 72984728.40924898 -33678853.82743565 -33678853.82743565 3114617.609075977 0 0 0 0 0 82486891.59188569 -34028022.77596313 -34028022.77596313 668531.0350901978 0 0 0 0 0 90743128.4204713 -33572766.77946403 -33572766.77946403 -1605300.128031159 0 0 0 0 0 97882984.81478904 -32468684.14496181 -32468684.14496181 -3519818.923355267 0 0 0 0 0 104124709.9425211 -31166269.05552938 -31166269.05552938 -5173931.79080649 0 0 0 0 0 109260385.5138244 -29419913.21590721 -29419913.21590721 -6683272.725873267 0 0 0 0 0 113566819.7187154 -27470874.5808211 -27470874.5808211 -7911963.654842547 0 0 0 0 0 117126738.117185 -25469905.69779354 -25469905.69779354 -8877890.137957113 0 0 0 0 0 115326241.0339286 -23555415.97982265 -23555415.97982265 -10630632.8288947 0 0 0 0 0 118723576.3812719 -22843760.62038773 -22843760.62038773 -11690528.91169457 0 0 0 0 0 120974311.4918756 -20953899.83431302 -20953899.83431302 -12008266.99918717 0 0 0 0 0 122786608.401857 -19096751.61619427 -19096751.61619427 -12185591.83696726 0 0 0 0 0 124223915.6477221 -17298897.21256508 -17298897.21256508 -12240273.3231077 0 0 0 0 0 123940622.8498514 -15547476.83943598 -15547476.83943598 -13335969.18381975 0 0 0 0 0 122073275.4301279 -15916431.31368532 -15916431.31368532 -12736450.50523533 0 0 0 0 0 124798475.9442252 -13975624.33152686 -13975624.33152686 -13096264.17913259 0 0 0 0 0 125387340.4731098 -12519225.93391931 -12519225.93391931 -12832077.04307012 0 0 0 0 0 125800234.3310931 -11139006.31949019 -11139006.31949019 -12495037.97832464 0 0 0 0 0 126087548.3480802 -9813264.37240597 -9813264.37240597 -12104743.72789808 0 0 0 0 0 126213824.0222194 -8588737.626826009 -8588737.626826009 -11694859.28492188 0 0 0 0 0 126199119.3219476 -7456160.229954064 -7456160.229954064 -11274477.77801964 0 0 0 0 0 124506666.1495745 -6756813.357163221 -6756813.357163221 -10975247.0697002 0 0 0 0 0 124961393.8120569 -6777740.772239718 -6777740.772239718 -11560040.28661485 0 0 0 0 0 124820900.7367117 -5834689.024303852 -5834689.024303852 -11091438.99585212 0 0 0 0 0 124611950.3472416 -4961136.60335636 -4961136.60335636 -10615987.88257796 0 0 0 0 0 124351584.2026351 -4152215.026315666 -4152215.026315666 -10137775.80251626 0 0 0 0 0 124048188.9855465 -3403716.817034238 -3403716.817034238 -9663498.324608129 0 0 0 0 0 123703328.4418312 -2712438.250792658 -2712438.250792658 -9193064.924295364 0 0 0 0 0 122516393.0586921 -2362713.123394802 -2362713.123394802 -8738882.396997096 0 0 0 0 0 122522249.2117677 -2502307.169799448 -2502307.169799448 -9285876.453813849 0 0 0 0 0 122161060.4790168 -1926065.792138914 -1926065.792138914 -8832877.563072268 0 0 0 0 0 120412581.8914775 -2085211.602151909 -2085211.602151909 -8832209.801068589 0 0 0 0 0 120126722.9585607 -1582749.201998452 -1582749.201998452 -8391414.116153946 0 0 0 0 0 119181450.7122082 -1522176.48327464 -1522176.48327464 -8371744.214005344 0 0 0 0 0 120066687.8181681 -1715070.341278011 -1715070.341278011 -8838768.5266148 0 0 0 0 0 118893252.7479568 -1092326.432579809 -1092326.432579809 -7957407.979396694 0 0 0 0 0 118592139.7628738 -697185.094493767 -697185.094493767 -7556431.981997184 0 0 0 0 0 118278054.4746732 -334245.2845968591 -334245.2845968591 -7174648.305416342 0 0 0 0 0 117954673.0640374 -115.3981197461344 -115.3981197461344 -6805449.136135012 0 0 0 0 0 117145245.7521081 -49682.53695147987 -49682.53695147987 -6799031.408767288 0 0 0 0 0 117801823.0268186 -149946.7939955685 -149946.7939955685 -7217782.362668855 0 0 0 0 0 116835991.8199123 235880.1502450732 235880.1502450732 -6457174.409149488 0 0 0 0 0 116526753.764946 496346.7031456911 496346.7031456911 -6130367.214904104 0 0 0 0 0 116199928.0150369 736480.1671103364 736480.1671103364 -5819091.190008274 0 0 0 0 0 115899554.5562397 972300.9431019569 972300.9431019569 -5492788.164414761 0 0 0 0 0 115596630.7858997 1183910.503652256 1183910.503652256 -5191002.040307027 0 0 0 0 0 115395134.9511039 1031554.973369677 1031554.973369677 -5565291.423010556 0 0 0 0 0 114648103.0040363 1243748.464418699 1243748.464418699 -4942982.498662075 0 0 0 0 0 115078198.4892043 1217331.817039494 1217331.817039494 -5285170.528091805 0 0 0 0 0 114355426.2343709 1403739.920793019 1403739.920793019 -4687662.742543559 0 0 0 0 0 114068259.0503137 1549967.378542403 1549967.378542403 -4440678.793978876 0 0 0 0 0 113781132.5881806 1682311.808284394 1682311.808284394 -4205115.674968305 0 0 0 0 0 113504018.3491956 1800462.568718961 1800462.568718961 -3980433.032957146 0 0 0 0 0 112972056.3860852 1653737.10262785 1653737.10262785 -4033460.094422285 0 0 0 0 0 113295236.4610923 1654160.573352441 1654160.573352441 -4318917.975034617 0 0 0 0 0 112711424.4220576 1759359.472219681 1759359.472219681 -3824023.709578947 0 0 0 0 0 112458907.0336183 1859083.245353054 1859083.245353054 -3619943.225651938 0 0 0 0 0 112209696.2012258 1950194.833120361 1950194.833120361 -3424004.488447495 0 0 0 0 0 111964651.0351074 2032155.903279518 2032155.903279518 -3237626.879259925 0 0 0 0 0 111721393.7199339 2104965.777956037 2104965.777956037 -3059402.59698063 0 0 0 0 0 111288651.3007266 2041782.95411874 2041782.95411874 -3179141.243803433 0 0 0 0 0 111483226.806923 2171756.217290004 2171756.217290004 -2887272.480226268 0 0 0 0 0 111068821.3456339 2024349.475653352 2024349.475653352 -2952467.594164199 0 0 0 0 0 110849795.8557909 2084293.641019437 2084293.641019437 -2790627.207057064 0 0 0 0 0 110634228.0421434 2137907.976151262 2137907.976151262 -2635590.725003244 0 0 0 0 0 110415160.4216384 2195222.375300219 2195222.375300219 -2489198.851153395 0 0 0 0 0 110299691.1531847 2206510.473532392 2206510.473532392 -2437220.606853544 0 0 0 0 0 110102815.4748883 2182112.513164409 2182112.513164409 -2402570.802128001 0 0 0 0 0 109921257.2784163 2136260.268015752 2136260.268015752 -2369670.440509296 0 0 0 0 0 109719076.1650747 2118252.388752622 2118252.388752622 -2293830.01476206 0 0 0 0 0 121133387.6316012 -1663176.966230077 -1663176.966230077 -8364526.017114251 0 0 0 0 0 25775373.57002381 -24214330.18068247 -24214330.18068247 25670943.5078619 0 0 0 0 0 40604526.40615598 -29423568.98222331 -29423568.98222331 18192740.21339844 0 0 0 0 0 64425945.48110545 -34558336.81376249 -34558336.81376249 8810929.988133973 0 0 0 0 0 56546075.61807679 -33595303.79841955 -33595303.79841955 14517098.91696373 0 0 0 0 0 74498251.96766192 -35092681.88867119 -35092681.88867119 5133324.901834851 0 0 0 0 0 83353908.6130573 -34790925.42080226 -34790925.42080226 1987673.3808563 0 0 0 0 0 91189904.26468423 -33876338.64568563 -33876338.64568563 -628750.6990578553 0 0 0 0 0 97911257.72601172 -32318335.94894447 -32318335.94894447 -2903091.239617712 0 0 0 0 0 103706022.6072808 -30493355.34564724 -30493355.34564724 -4816013.57055618 0 0 0 0 0 108646770.4508121 -28486132.13283595 -28486132.13283595 -6345319.726413756 0 0 0 0 0 112827230.0121426 -26369529.89340471 -26369529.89340471 -7540981.331246856 0 0 0 0 0 116274052.1078731 -24191372.04263546 -24191372.04263546 -8457699.909543587 0 0 0 0 0 119999305.7822698 -23455211.045245 -23455211.045245 -9670839.309501646 0 0 0 0 0 117944037.690032 -21590450.20009646 -21590450.20009646 -11116472.05461299 0 0 0 0 0 120146164.4393487 -19630012.65968712 -19630012.65968712 -11382012.890342 0 0 0 0 0 121937551.0766856 -17747759.34128424 -17747759.34128424 -11495045.78670403 0 0 0 0 0 123386653.7761081 -15940392.27127635 -15940392.27127635 -11467627.7484897 0 0 0 0 0 123185453.3659816 -14281525.43552909 -14281525.43552909 -12524086.86330828 0 0 0 0 0 125333769.5358142 -15572449.46013413 -15572449.46013413 -12187947.99835871 0 0 0 0 0 124044814.9662238 -12732324.93665983 -12732324.93665983 -12240986.65215808 0 0 0 0 0 124692936.7428656 -11277253.31817188 -11277253.31817188 -11904246.12493687 0 0 0 0 0 125138192.2240071 -9931495.977362473 -9931495.977362473 -11531779.60218213 0 0 0 0 0 125422844.6441151 -8657468.912968505 -8657468.912968505 -11101627.16241962 0 0 0 0 0 125596083.7106617 -7463000.019632902 -7463000.019632902 -10646440.29419899 0 0 0 0 0 125637576.5810314 -6370022.886863284 -6370022.886863284 -10187245.62553544 0 0 0 0 0 126089056.8313483 -6409653.334479074 -6409653.334479074 -10835777.75466801 0 0 0 0 0 124480031.6462968 -5781989.07107819 -5781989.07107819 -10493145.10033679 0 0 0 0 0 124353481.7702162 -4883613.205514818 -4883613.205514818 -10021864.02173593 0 0 0 0 0 124171238.8749035 -4051249.316913312 -4051249.316913312 -9548730.141990405 0 0 0 0 0 123939166.5137688 -3281890.729364568 -3281890.729364568 -9071532.853705185 0 0 0 0 0 123656881.6965582 -2572249.645518744 -2572249.645518744 -8598508.885506917 0 0 0 0 0 123338820.0331973 -1918966.650264562 -1918966.650264562 -8130507.221232426 0 0 0 0 0 123318418.7226633 -2081839.466336847 -2081839.466336847 -8737842.128201602 0 0 0 0 0 122205370.1014254 -1770849.374121671 -1770849.374121671 -8279891.470107743 0 0 0 0 0 121867168.4271463 -1228049.769026892 -1228049.769026892 -7834197.898528344 0 0 0 0 0 121079061.8673207 -1807007.218096861 -1807007.218096861 -8862288.663980499 0 0 0 0 0 120719654.6383281 -1318792.833810756 -1318792.833810756 -8428998.950101955 0 0 0 0 0 119728539.9654154 -1262962.269668558 -1262962.269668558 -8416964.328702848 0 0 0 0 0 119821818.8393379 -1119931.437241963 -1119931.437241963 -7964256.650586789 0 0 0 0 0 119379729.4261636 -846515.2654154175 -846515.2654154175 -8008003.760583865 0 0 0 0 0 119020247.9828059 -464444.8789597969 -464444.8789597969 -7613479.224602097 0 0 0 0 0 118663499.7171289 -113973.2719272089 -113973.2719272089 -7234464.537280442 0 0 0 0 0 118294812.0816824 206384.8776071976 206384.8776071976 -6865536.249604013 0 0 0 0 0 117458473.9310827 148794.079950458 148794.079950458 -6866607.648619766 0 0 0 0 0 117630935.6708159 307369.5513884083 307369.5513884083 -6446894.173601528 0 0 0 0 0 117108170.9503715 422883.9458235268 422883.9458235268 -6526235.722989652 0 0 0 0 0 116756691.2418124 671981.811485747 671981.811485747 -6203189.733639519 0 0 0 0 0 116432604.9333676 915628.8762332996 915628.8762332996 -5871398.261742908 0 0 0 0 0 116090452.8688987 1140882.56836216 1140882.56836216 -5552372.94484356 0 0 0 0 0 115750012.8791379 1343296.834362959 1343296.834362959 -5254740.837008866 0 0 0 0 0 115290487.3197184 1375511.61143308 1375511.61143308 -4901953.722030927 0 0 0 0 0 114761960.3380504 1384988.337637687 1384988.337637687 -5014394.242553427 0 0 0 0 0 114982602.786589 1545211.06688468 1545211.06688468 -4633402.987360679 0 0 0 0 0 114455750.9161934 1536435.921238583 1536435.921238583 -4758729.442655448 0 0 0 0 0 114151720.7126897 1674740.583738904 1674740.583738904 -4511123.400709912 0 0 0 0 0 113848712.2555005 1799314.223044521 1799314.223044521 -4275099.106970165 0 0 0 0 0 113547872.9851822 1912699.062979711 1912699.062979711 -4050880.75099251 0 0 0 0 0 113020515.1362807 1764633.584634899 1764633.584634899 -4100878.754846676 0 0 0 0 0 113225957.3435055 1908077.115897132 1908077.115897132 -3766778.892373116 0 0 0 0 0 112747956.4613304 1866301.09040008 1866301.09040008 -3888867.414755777 0 0 0 0 0 112481907.0441804 1960251.647346077 1960251.647346077 -3683334.905655551 0 0 0 0 0 112221077.446472 2044982.203153076 2044982.203153076 -3487311.262795169 0 0 0 0 0 111963265.621256 2120320.251340432 2120320.251340432 -3300231.265581575 0 0 0 0 0 111711714.9013829 2189457.827392181 2189457.827392181 -3119982.718255105 0 0 0 0 0 111250392.450876 2232918.421007599 2232918.421007599 -2720976.369917908 0 0 0 0 0 111466056.7308253 2252342.538413744 2252342.538413744 -2946196.354679612 0 0 0 0 0 111056825.0458147 2104116.356982205 2104116.356982205 -3009558.939093875 0 0 0 0 0 110829214.5930782 2159724.84715412 2159724.84715412 -2846827.452297706 0 0 0 0 0 110606230.1797043 2208945.765608513 2208945.765608513 -2690575.788312333 0 0 0 0 0 110402842.3613103 2258537.435188674 2258537.435188674 -2537637.439379259 0 0 0 0 0 110052334.6470851 2227579.623403471 2227579.623403471 -2375495.826385355 0 0 0 0 0 109889545.6519151 2185183.079671886 2185183.079671886 -2399603.083616115 0 0 0 0 0 109672290.8260292 2156960.816038849 2156960.816038849 -2395169.698068968 0 0 0 0 0 109489048.0521964 2144012.749813496 2144012.749813496 -2328265.739120572 0 0 0 0 0 121779396.3423621 -1396469.434008594 -1396469.434008594 -8391183.5674162 0 0 0 0 0 27713944.68817379 -28662946.20480049 -28662946.20480049 28426182.69746725 0 0 0 0 0 45082552.39038487 -33492457.30375949 -33492457.30375949 22575337.27175497 0 0 0 0 0 69124740.67276572 -35226732.09042528 -35226732.09042528 10383327.29517236 0 0 0 0 0 58897830.23858947 -35985354.19411556 -35985354.19411556 16844622.11231313 0 0 0 0 0 79836609.89184684 -35639200.58035772 -35639200.58035772 6782837.763602555 0 0 0 0 0 89107807.07065772 -35226681.18934248 -35226681.18934248 3676375.953349882 0 0 0 0 0 97141571.99470505 -34108202.65001615 -34108202.65001615 1050059.258798152 0 0 0 0 0 104068159.0417717 -32676268.7890993 -32676268.7890993 -1188623.612798413 0 0 0 0 0 109711888.2425405 -30763662.93688282 -30763662.93688282 -3200624.980081548 0 0 0 0 0 114395540.7838825 -28652568.10338833 -28652568.10338833 -4854602.24233478 0 0 0 0 0 118244164.8979817 -26458931.83321311 -26458931.83321311 -6186094.924690873 0 0 0 0 0 121353384.784702 -24232036.01370115 -24232036.01370115 -7235568.476386053 0 0 0 0 0 119137491.5888395 -22052817.16683517 -22052817.16683517 -9122305.870367341 0 0 0 0 0 122323544.1146082 -21396408.28925198 -21396408.28925198 -10214573.41977704 0 0 0 0 0 124207333.6460268 -19424788.37743817 -19424788.37743817 -10571016.54080679 0 0 0 0 0 125677466.2732731 -17498529.93672783 -17498529.93672783 -10769627.41909504 0 0 0 0 0 126808228.5489692 -15656944.71373152 -15656944.71373152 -10826225.79992102 0 0 0 0 0 126165778.9731198 -13930141.6935898 -13930141.6935898 -12043551.06439208 0 0 0 0 0 124526698.5027563 -14212877.75811212 -14212877.75811212 -11330714.92708342 0 0 0 0 0 126755177.6031563 -12391032.38567077 -12391032.38567077 -11826051.21400642 0 0 0 0 0 127132666.762052 -10939628.52848593 -10939628.52848593 -11557575.36334552 0 0 0 0 0 127353632.9333008 -9577910.486732727 -9577910.486732727 -11213256.82440696 0 0 0 0 0 127446189.8708069 -8308905.876841154 -8308905.876841154 -10825813.89347461 0 0 0 0 0 127398141.3899416 -7132171.56399385 -7132171.56399385 -10430842.82698811 0 0 0 0 0 127236985.7522125 -6054445.413918732 -6054445.413918732 -10018176.54018359 0 0 0 0 0 125566382.566678 -5367352.157274271 -5367352.157274271 -9722220.685292803 0 0 0 0 0 125883874.4421709 -5453417.375576114 -5453417.375576114 -10399756.381745 0 0 0 0 0 125626357.8505779 -4565818.129156198 -4565818.129156198 -9947115.441082995 0 0 0 0 0 125308156.900713 -3745429.866746099 -3745429.866746099 -9486227.90847588 0 0 0 0 0 124946215.7037547 -2989692.952910471 -2989692.952910471 -9024766.682127776 0 0 0 0 0 124557955.7514702 -2292499.002833994 -2292499.002833994 -8566423.799593162 0 0 0 0 0 124133294.0631884 -1654456.527267382 -1654456.527267382 -8115263.298563197 0 0 0 0 0 122992257.0938141 -1323163.325030304 -1323163.325030304 -7675380.110321148 0 0 0 0 0 122913700.1694314 -1504302.265454082 -1504302.265454082 -8291511.326942666 0 0 0 0 0 122490713.6287667 -975602.7870748754 -975602.7870748754 -7856294.009821627 0 0 0 0 0 120811939.9097799 -1163212.360577937 -1163212.360577937 -7926585.193408297 0 0 0 0 0 120471891.5060167 -704179.1430599774 -704179.1430599774 -7502894.510764575 0 0 0 0 0 119501372.440657 -694477.611201709 -694477.611201709 -7550957.432306397 0 0 0 0 0 120346960.6837711 -869762.1777528705 -869762.1777528705 -8008593.072821243 0 0 0 0 0 119168584.5977454 -304241.3924485904 -304241.3924485904 -7152944.017960924 0 0 0 0 0 118829493.0540952 51557.70915921773 51557.70915921773 -6770864.877809239 0 0 0 0 0 118470926.6495423 374527.5829268835 374527.5829268835 -6410424.397662584 0 0 0 0 0 118114653.3321114 673770.360618674 673770.360618674 -6058183.700136919 0 0 0 0 0 117293754.8695651 584525.9452679781 584525.9452679781 -6106971.710635442 0 0 0 0 0 117917363.6459769 498433.2190679827 498433.2190679827 -6514075.988145637 0 0 0 0 0 116960079.5285612 838818.1058939418 838818.1058939418 -5780131.877897444 0 0 0 0 0 116628268.9644208 1073182.107757595 1073182.107757595 -5472414.154435169 0 0 0 0 0 116281897.3337491 1293752.4825759 1293752.4825759 -5156852.577178517 0 0 0 0 0 115962968.0441444 1505068.342851876 1505068.342851876 -4849955.567798837 0 0 0 0 0 115639949.202675 1690597.948642664 1690597.948642664 -4563123.662995944 0 0 0 0 0 115410655.9898457 1520846.95810003 1520846.95810003 -4972935.751219124 0 0 0 0 0 114681771.5635994 1699445.568892784 1699445.568892784 -4378780.696872203 0 0 0 0 0 115083092.564808 1683328.642788954 1683328.642788954 -4703276.863220176 0 0 0 0 0 114370928.9090888 1832911.390487666 1832911.390487666 -4141670.63723625 0 0 0 0 0 114066198.5865096 1956035.448904705 1956035.448904705 -3910715.402476821 0 0 0 0 0 113766230.9978139 2066314.019587055 2066314.019587055 -3688813.561489603 0 0 0 0 0 113483465.4088948 2170362.047193766 2170362.047193766 -3475277.165746734 0 0 0 0 0 112954690.882346 2009068.818049813 2009068.818049813 -3559024.505797445 0 0 0 0 0 113259481.4190719 2015567.887499754 2015567.887499754 -3834070.284675425 0 0 0 0 0 112691194.8351689 2103234.475783752 2103234.475783752 -3356625.421605705 0 0 0 0 0 112430717.767968 2187279.015613243 2187279.015613243 -3163102.029194073 0 0 0 0 0 112173396.696545 2262299.562282108 2262299.562282108 -2979571.670099075 0 0 0 0 0 111920387.9982249 2329596.74374306 2329596.74374306 -2804165.788992179 0 0 0 0 0 111672681.125707 2390530.781817779 2390530.781817779 -2635316.627740335 0 0 0 0 0 111225524.4535835 2308924.968968484 2308924.968968484 -2778570.601373692 0 0 0 0 0 111430132.7818123 2445176.626770847 2445176.626770847 -2473069.307470723 0 0 0 0 0 111022058.3854593 2287581.682817568 2287581.682817568 -2561125.575090623 0 0 0 0 0 110797901.3248184 2336029.871304148 2336029.871304148 -2406593.780443764 0 0 0 0 0 110577808.1382539 2379151.383055296 2379151.383055296 -2257643.036877756 0 0 0 0 0 110324306.3885005 2419931.188917154 2419931.188917154 -2126488.752735273 0 0 0 0 0 110196847.0959488 2355692.02267445 2355692.02267445 -2136832.973317765 0 0 0 0 0 110236528.1758076 2362403.856592047 2362403.856592047 -2276653.076427056 0 0 0 0 0 109989051.4537176 2346112.397615473 2346112.397615473 -2093487.846632055 0 0 0 0 0 109778069.5584189 2318633.856783663 2318633.856783663 -2047726.720991024 0 0 0 0 0 121507548.2650623 -730819.4625861974 -730819.4625861974 -7401937.679762652 0 0 0 0 0 33226079.15163503 -31375846.84749701 -31375846.84749701 32025100.23761957 0 0 0 0 0 49498495.03687066 -35288216.0258491 -35288216.0258491 24909607.92627335 0 0 0 0 0 70702183.60871172 -36839094.53465242 -36839094.53465242 12038812.99841146 0 0 0 0 0 64404425.91734237 -37395138.62148005 -37395138.62148005 19128987.87224692 0 0 0 0 0 80778329.856703 -36562599.66263079 -36562599.66263079 7871652.083405457 0 0 0 0 0 89516015.225821 -35560093.89354175 -35560093.89354175 4362912.235232031 0 0 0 0 0 97098545.72931243 -33963622.09544028 -33963622.09544028 1409285.554309148 0 0 0 0 0 103547857.481886 -31936097.77384755 -31936097.77384755 -1066885.790050394 0 0 0 0 0 108966379.8879095 -29724281.70036162 -29724281.70036162 -3090487.223605869 0 0 0 0 0 113503759.3077407 -27401842.45787665 -27401842.45787665 -4693606.718048157 0 0 0 0 0 117251061.0537067 -25044921.80695526 -25044921.80695526 -5930853.288237473 0 0 0 0 0 120322649.3503291 -22709620.72297284 -22709620.72297284 -6854379.058162488 0 0 0 0 0 123832012.7112666 -22016503.22548698 -22016503.22548698 -8048763.318422024 0 0 0 0 0 121436565.5656892 -19941315.63410448 -19941315.63410448 -9584536.620045466 0 0 0 0 0 123282547.4286091 -17962248.97842843 -17962248.97842843 -9883517.395255689 0 0 0 0 0 124792993.5728822 -16032249.18532692 -16032249.18532692 -9967285.797559666 0 0 0 0 0 125956609.8337641 -14195952.33075645 -14195952.33075645 -9926821.402856981 0 0 0 0 0 125385680.620817 -12589864.11465241 -12589864.11465241 -11115898.18673427 0 0 0 0 0 127634231.2135779 -13926043.48136058 -13926043.48136058 -10779364.61994867 0 0 0 0 0 125995814.8814935 -11079161.48428106 -11079161.48428106 -10847815.69090633 0 0 0 0 0 126435632.9444207 -9666727.279516952 -9666727.279516952 -10503957.75678868 0 0 0 0 0 126705667.4380734 -8341026.443310857 -8341026.443310857 -10128202.23756224 0 0 0 0 0 126824828.0135459 -7104840.263629311 -7104840.263629311 -9701544.797384478 0 0 0 0 0 126804811.7302338 -5984223.163295719 -5984223.163295719 -9279461.190660903 0 0 0 0 0 126689240.0759645 -4955849.969550168 -4955849.969550168 -8844595.103632292 0 0 0 0 0 126984655.7130593 -5067577.193274816 -5067577.193274816 -9595823.402689105 0 0 0 0 0 125410168.9223182 -4452968.248426804 -4452968.248426804 -9262673.079789648 0 0 0 0 0 125168088.1590499 -3609858.068709319 -3609858.068709319 -8806449.634649256 0 0 0 0 0 124881023.9723619 -2833087.485400861 -2833087.485400861 -8350655.573072726 0 0 0 0 0 124554482.023289 -2119947.143986629 -2119947.143986629 -7895802.127321272 0 0 0 0 0 124184394.7535604 -1466537.969601066 -1466537.969601066 -7444270.925875893 0 0 0 0 0 123788385.0952505 -868385.8209459322 -868385.8209459322 -7001075.313989928 0 0 0 0 0 123679723.0776413 -1073924.679435789 -1073924.679435789 -7679043.213160496 0 0 0 0 0 122613506.0589256 -781336.9773250523 -781336.9773250523 -7237354.357139587 0 0 0 0 0 122213507.474958 -287502.4281017869 -287502.4281017869 -6814146.297365589 0 0 0 0 0 121381986.3679413 -910614.4931288833 -910614.4931288833 -7961895.537893939 0 0 0 0 0 120972968.8080202 -465386.6872320346 -465386.6872320346 -7545256.329180671 0 0 0 0 0 119964068.8963255 -457496.5259211843 -457496.5259211843 -7601387.535759263 0 0 0 0 0 120117551.2607427 -283457.1987336599 -283457.1987336599 -7093814.251882391 0 0 0 0 0 119576087.9194796 -79787.36359689616 -79787.36359689616 -7208281.730747457 0 0 0 0 0 119176890.7555959 259787.8439649833 259787.8439649833 -6836210.205304083 0 0 0 0 0 118785247.9864585 570938.7374273689 570938.7374273689 -6473394.786718551 0 0 0 0 0 118388317.6337223 858242.6487516016 858242.6487516016 -6121427.381294643 0 0 0 0 0 117545292.9701078 766384.8265732495 766384.8265732495 -6175445.512359448 0 0 0 0 0 117760718.4483279 947770.8377557651 947770.8377557651 -5717005.385266124 0 0 0 0 0 117174405.7082314 1011579.218053089 1011579.218053089 -5852818.73689509 0 0 0 0 0 116810009.3474306 1237046.583659322 1237046.583659322 -5539017.58784934 0 0 0 0 0 116456027.5875674 1461577.447222554 1461577.447222554 -5207893.19413837 0 0 0 0 0 116099100.3570177 1658211.577146402 1658211.577146402 -4916138.548031191 0 0 0 0 0 115743396.0381277 1830587.028360706 1830587.028360706 -4633042.797826244 0 0 0 0 0 115316546.7428209 1853575.88377581 1853575.88377581 -4296095.285435688 0 0 0 0 0 114759984.9286671 1825998.437317385 1825998.437317385 -4455448.649962538 0 0 0 0 0 114994792.5493377 1996139.802473332 1996139.802473332 -4045418.706402333 0 0 0 0 0 114433375.243712 1951692.826432354 1951692.826432354 -4213300.456857961 0 0 0 0 0 114114562.1100161 2067830.445837847 2067830.445837847 -3980645.696719781 0 0 0 0 0 113804828.5003157 2175994.531273261 2175994.531273261 -3756960.053602892 0 0 0 0 0 113498547.7879927 2272645.246310179 2272645.246310179 -3542846.997946499 0 0 0 0 0 112976671.8686741 2111592.306943357 2111592.306943357 -3623439.933546264 0 0 0 0 0 113201202.954146 2265737.808657698 2265737.808657698 -3270321.938563203 0 0 0 0 0 112698306.4628312 2199549.158910303 2199549.158910303 -3420368.238438132 0 0 0 0 0 112426000.2204626 2277837.154414061 2277837.154414061 -3226871.055078673 0 0 0 0 0 112158392.2200999 2346842.874898479 2346842.874898479 -3042127.536396879 0 0 0 0 0 111896301.7205271 2409212.038626311 2409212.038626311 -2865048.643012531 0 0 0 0 0 111640695.8575248 2465591.154466066 2465591.154466066 -2694327.867322067 0 0 0 0 0 111192496.5305694 2493945.309265745 2493945.309265745 -2317565.003711978 0 0 0 0 0 111391104.9192084 2515959.167068103 2515959.167068103 -2530598.148220141 0 0 0 0 0 110990076.0355578 2359662.165683519 2359662.165683519 -2617767.227216916 0 0 0 0 0 110760094.5433212 2405382.798534228 2405382.798534228 -2462769.757969937 0 0 0 0 0 110538493.329087 2448274.521653594 2448274.521653594 -2310907.333952436 0 0 0 0 0 110344002.3111302 2496812.667324987 2496812.667324987 -2154722.591097619 0 0 0 0 0 109929718.8633281 2366229.480356048 2366229.480356048 -2196769.768803388 0 0 0 0 0 110161420.170974 2498283.506564 2498283.506564 -1951831.095407172 0 0 0 0 0 109756121.325364 2358625.759386612 2358625.759386612 -2110827.462925169 0 0 0 0 0 109565455.8099769 2338999.601312937 2338999.601312937 -2074803.433812331 0 0 0 0 0 122053488.4852615 -492277.8985175684 -492277.8985175684 -7433250.120774345 0 0 0 0 0 35618363.55631377 -35113724.33031867 -35113724.33031867 33860726.03015515 0 0 0 0 0 52383537.39647822 -38269533.50900868 -38269533.50900868 26844193.7551452 0 0 0 0 0 76686933.76976779 -37965596.71957645 -37965596.71957645 14235107.88687488 0 0 0 0 0 66142227.60000169 -39323528.5878946 -39323528.5878946 20386288.79799951 0 0 0 0 0 87205933.68969908 -37525092.63384396 -37525092.63384396 10064460.76522742 0 0 0 0 0 96166310.70115536 -36338382.95940568 -36338382.95940568 6503968.754048554 0 0 0 0 0 103809426.7331014 -34609418.90239312 -34609418.90239312 3497456.734124522 0 0 0 0 0 110180265.2471578 -32548268.15260781 -32548268.15260781 932024.370334637 0 0 0 0 0 115277893.353378 -30191259.82766278 -30191259.82766278 -1264017.833878017 0 0 0 0 0 119431523.2315643 -27746165.51914821 -27746165.51914821 -3042672.642476289 0 0 0 0 0 122773137.5348091 -25282109.10467863 -25282109.10467863 -4450455.612731561 0 0 0 0 0 125419770.3656854 -22851848.20326725 -22851848.20326725 -5540304.064416068 0 0 0 0 0 122816628.7045015 -20440623.34033466 -20440623.34033466 -7512796.191213021 0 0 0 0 0 125733548.0260245 -19890941.61752809 -19890941.61752809 -8660877.883944672 0 0 0 0 0 127249859.7976039 -17802346.94790506 -17802346.94790506 -9023790.618389176 0 0 0 0 0 128407241.7432193 -15836288.67048081 -15836288.67048081 -9213291.167579606 0 0 0 0 0 129212992.6686568 -13993444.05986715 -13993444.05986715 -9287077.831717102 0 0 0 0 0 128186803.7564848 -12305418.25347495 -12305418.25347495 -10651732.29888863 0 0 0 0 0 126811314.3979596 -12486456.97857255 -12486456.97857255 -9802946.897027932 0 0 0 0 0 128542754.1898957 -10777267.20766673 -10777267.20766673 -10432996.38476731 0 0 0 0 0 128715110.9658838 -9354558.689216757 -9354558.689216757 -10156080.73024412 0 0 0 0 0 128760325.3785117 -8027332.23998938 -8027332.23998938 -9813742.985466497 0 0 0 0 0 128647385.8138541 -6822937.30236738 -6822937.30236738 -9456522.9504021 0 0 0 0 0 128427571.3239013 -5708782.001860899 -5708782.001860899 -9078127.032240523 0 0 0 0 0 128121654.5383132 -4687891.62096483 -4687891.62096483 -8683227.560376713 0 0 0 0 0 126485391.2900928 -4014375.474246 -4014375.474246 -8402837.898379425 0 0 0 0 0 126662578.764381 -4162336.098928599 -4162336.098928599 -9170603.544346714 0 0 0 0 0 126291958.6805998 -3335460.751132616 -3335460.751132616 -8736305.0130722 0 0 0 0 0 125874161.9530001 -2568151.342911219 -2568151.342911219 -8295784.156592942 0 0 0 0 0 125427310.8560425 -1865335.070373565 -1865335.070373565 -7855358.510665565 0 0 0 0 0 124958471.0833534 -1223803.758785696 -1223803.758785696 -7418219.071665416 0 0 0 0 0 124461995.7659753 -639210.8877527744 -639210.8877527744 -6991161.547530341 0 0 0 0 0 123371383.3638866 -325470.2660838491 -325470.2660838491 -6570911.842184547 0 0 0 0 0 123212531.352744 -546255.9565640353 -546255.9565640353 -7253544.074028909 0 0 0 0 0 122733947.8180704 -65760.43640573896 -65760.43640573896 -6839983.066348256 0 0 0 0 0 121131033.2960008 -276175.8931425462 -276175.8931425462 -6984025.554075281 0 0 0 0 0 120741311.2171471 138917.9485924104 138917.9485924104 -6581276.368952009 0 0 0 0 0 119752916.687079 100862.8612867009 100862.8612867009 -6699565.651599449 0 0 0 0 0 120555708.7423951 -57907.49283275302 -57907.49283275302 -7142205.548692078 0 0 0 0 0 119379528.1533719 449667.3422181625 449667.3422181625 -6322188.077518805 0 0 0 0 0 119002071.5285752 765766.6474767908 765766.6474767908 -5966234.809774134 0 0 0 0 0 118607343.1504861 1050377.717059652 1050377.717059652 -5625772.946450258 0 0 0 0 0 118217655.0361457 1313660.023368878 1313660.023368878 -5292604.696906793 0 0 0 0 0 117401981.7328283 1194810.202623989 1194810.202623989 -5392798.014701843 0 0 0 0 0 117988345.1702591 1121620.885368932 1121620.885368932 -5783430.096873933 0 0 0 0 0 117042963.2957864 1419505.493310394 1419505.493310394 -5081231.862858254 0 0 0 0 0 116687412.9280563 1633772.019331991 1633772.019331991 -4781261.758080918 0 0 0 0 0 116348440.0842586 1843856.022456434 1843856.022456434 -4466039.642594161 0 0 0 0 0 115995787.8113026 2015828.149871596 2015828.149871596 -4189902.961739549 0 0 0 0 0 115649678.6101652 2169133.293994182 2169133.293994182 -3928101.672801087 0 0 0 0 0 115394650.5149489 1984884.583076156 1984884.583076156 -4367427.595280255 0 0 0 0 0 114667254.2009078 2120369.66473134 2120369.66473134 -3816039.389283137 0 0 0 0 0 115051969.2814855 2117337.28536604 2117337.28536604 -4121178.752740844 0 0 0 0 0 114350921.7005072 2236429.054702413 2236429.054702413 -3591137.433529809 0 0 0 0 0 114039079.6796272 2340659.193895834 2340659.193895834 -3371959.210420481 0 0 0 0 0 113735581.5231875 2437039.835990721 2437039.835990721 -3161746.534642711 0 0 0 0 0 113442458.0833862 2525988.537227546 2525988.537227546 -2958976.015935583 0 0 0 0 0 112922524.2851776 2352544.005704817 2352544.005704817 -3071355.527611561 0 0 0 0 0 113202488.8889893 2361563.192225214 2361563.192225214 -3335137.129515551 0 0 0 0 0 112649404.9774469 2429375.742324123 2429375.742324123 -2881878.674433592 0 0 0 0 0 112381446.2823384 2497629.289945743 2497629.289945743 -2702507.592115777 0 0 0 0 0 112117363.9815843 2557958.37275102 2557958.37275102 -2530675.14355925 0 0 0 0 0 111859092.4205506 2611791.260424832 2611791.260424832 -2365640.340799525 0 0 0 0 0 111606794.7679352 2659858.432794526 2659858.432794526 -2207583.323062049 0 0 0 0 0 111147266.838788 2560565.576720883 2560565.576720883 -2373677.587177037 0 0 0 0 0 111360162.4349038 2702163.295038173 2702163.295038173 -2056546.934990535 0 0 0 0 0 110959771.0963563 2537327.672159073 2537327.672159073 -2168653.868517627 0 0 0 0 0 110732093.2040771 2576013.35199872 2576013.35199872 -2026498.270894926 0 0 0 0 0 110505736.9297442 2611776.899747337 2611776.899747337 -1888309.699205423 0 0 0 0 0 110286727.2765847 2638813.28447243 2638813.28447243 -1747186.342275656 0 0 0 0 0 110054290.3185078 2543339.704519661 2543339.704519661 -1816071.271389376 0 0 0 0 0 110125850.8959104 2531922.207666735 2531922.207666735 -1974409.460391168 0 0 0 0 0 109860434.2260286 2515858.654450022 2515858.654450022 -1788392.598830053 0 0 0 0 0 121798220.2012234 162418.3857152336 162418.3857152336 -6404484.461653323 0 0 0 0 0 42553066.88482802 -38382429.18355002 -38382429.18355002 38125334.19788914 0 0 0 0 0 58860339.94200956 -40690445.70470472 -40690445.70470472 30013032.33725467 0 0 0 0 0 77639098.94232799 -39049554.74621142 -39049554.74621142 14895650.02445181 0 0 0 0 0 73160587.18378392 -41320611.48071776 -41320611.48071776 23424797.82292586 0 0 0 0 0 87543658.36704992 -37891263.57159895 -37891263.57159895 10331550.70519499 0 0 0 0 0 96001009.42015313 -36119487.29668052 -36119487.29668052 6489242.992259253 0 0 0 0 0 103198846.9260946 -33891383.03163622 -33891383.03163622 3291820.932021262 0 0 0 0 0 109246931.4149889 -31373502.22166581 -31373502.22166581 690618.0076644957 0 0 0 0 0 114205368.6205684 -28788056.85632504 -28788056.85632504 -1393545.90922155 0 0 0 0 0 118270763.5684793 -26175981.86804614 -26175981.86804614 -3026236.459360498 0 0 0 0 0 121564102.8018419 -23605662.22902382 -23605662.22902382 -4275209.094938111 0 0 0 0 0 124207035.3379062 -21117224.64298884 -21117224.64298884 -5196227.047364079 0 0 0 0 0 127461869.7610459 -20506000.26176065 -20506000.26176065 -6366954.766101801 0 0 0 0 0 124763191.0090761 -18250305.92111496 -18250305.92111496 -7967585.131611921 0 0 0 0 0 126254110.950126 -16220573.53269001 -16220573.53269001 -8259165.134421159 0 0 0 0 0 127450716.5429605 -14265121.93156036 -14265121.93156036 -8336672.66631133 0 0 0 0 0 128314577.3516365 -12436277.47177353 -12436277.47177353 -8303092.205653638 0 0 0 0 0 127410336.0603291 -10892310.06707489 -10892310.06707489 -9600130.763685402 0 0 0 0 0 129739347.0633177 -12266957.52920364 -12266957.52920364 -9254391.526162196 0 0 0 0 0 127793408.2419587 -9421343.843047475 -9421343.843047475 -9337065.18986723 0 0 0 0 0 128025300.3377078 -8034161.857428011 -8034161.857428011 -8999919.774938123 0 0 0 0 0 128084993.1785243 -6769466.587771839 -6769466.587771839 -8638520.883358607 0 0 0 0 0 128020193.3656954 -5609332.370843915 -5609332.370843915 -8251233.039050464 0 0 0 0 0 127844497.9141799 -4550218.738905543 -4550218.738905543 -7850164.92718265 0 0 0 0 0 127585801.8520658 -3584301.331694451 -3584301.331694451 -7438313.536613227 0 0 0 0 0 127738760.1714971 -3760977.920752989 -3760977.920752989 -8282724.549830556 0 0 0 0 0 126205896.6375511 -3154254.476038022 -3154254.476038022 -7964656.511185506 0 0 0 0 0 125854203.8720353 -2374448.949587069 -2374448.949587069 -7535821.423865024 0 0 0 0 0 125468120.1681771 -1659997.138182217 -1659997.138182217 -7103010.576004228 0 0 0 0 0 125052099.8700105 -1005303.38220979 -1005303.38220979 -6673407.656884139 0 0 0 0 0 124604276.1448921 -407697.1471118802 -407697.1471118802 -6248298.162286933 0 0 0 0 0 124136832.5686498 134967.8921395473 134967.8921395473 -5833276.058164392 0 0 0 0 0 123945055.4113207 -110796.8024216447 -110796.8024216447 -6578328.586716937 0 0 0 0 0 122929888.6198056 164929.8085302173 164929.8085302173 -6159041.314965822 0 0 0 0 0 122473350.5640247 609642.9160608629 609642.9160608629 -5761393.306368615 0 0 0 0 0 121606077.5297874 -51159.36081850026 -51159.36081850026 -7023102.481531329 0 0 0 0 0 121152208.1342882 350669.2579869294 350669.2579869294 -6626816.506772858 0 0 0 0 0 120131045.8005342 312966.204387902 312966.204387902 -6754576.610389668 0 0 0 0 0 120342270.8923095 517091.5206322853 517091.5206322853 -6193600.44009273 0 0 0 0 0 119701784.763358 646330.5879017651 646330.5879017651 -6385446.664443968 0 0 0 0 0 119272225.531793 947233.7105968784 947233.7105968784 -6034893.783913367 0 0 0 0 0 118846935.2902721 1224097.780145116 1224097.780145116 -5691783.343859269 0 0 0 0 0 118430172.7464362 1483388.854245524 1483388.854245524 -5354145.927336145 0 0 0 0 0 117591748.4160935 1359331.663035788 1359331.663035788 -5462868.500798878 0 0 0 0 0 117839143.9176609 1556777.821922365 1556777.821922365 -4966713.809025587 0 0 0 0 0 117205612.5620901 1580544.252052808 1580544.252052808 -5150022.457160017 0 0 0 0 0 116836041.6113098 1794358.502820967 1794358.502820967 -4832095.186324673 0 0 0 0 0 116444122.1028714 1979364.543051561 1979364.543051561 -4533305.677533228 0 0 0 0 0 116071975.2918393 2144196.530827287 2144196.530827287 -4258446.720667196 0 0 0 0 0 115701240.4024955 2289591.672967918 2289591.672967918 -3998521.513354955 0 0 0 0 0 115310426.5770592 2302451.003454115 2302451.003454115 -3678756.669608464 0 0 0 0 0 114712768.1172523 2232410.848935239 2232410.848935239 -3889861.805397041 0 0 0 0 0 114975006.8749495 2420302.851029682 2420302.851029682 -3460113.216497981 0 0 0 0 0 114378615.339889 2340980.486623916 2340980.486623916 -3660481.78743907 0 0 0 0 0 114051414.4596378 2441711.7161503 2441711.7161503 -3439752.763595016 0 0 0 0 0 113735396.7065903 2533463.266949828 2533463.266949828 -3227338.088438009 0 0 0 0 0 113425147.151584 2615655.228809798 2615655.228809798 -3024050.637247097 0 0 0 0 0 112911972.7355031 2442542.610427927 2442542.610427927 -3135014.981587585 0 0 0 0 0 113150615.5052571 2605217.432255102 2605217.432255102 -2764151.470138621 0 0 0 0 0 112628010.1468253 2513926.363639859 2513926.363639859 -2945435.604275315 0 0 0 0 0 112349553.4451723 2575979.483445549 2575979.483445549 -2764668.11476854 0 0 0 0 0 112077348.2018623 2631692.518669371 2631692.518669371 -2591097.230725454 0 0 0 0 0 111812042.9587375 2681491.592775716 2681491.592775716 -2424476.288535086 0 0 0 0 0 111553193.980161 2725160.979891141 2725160.979891141 -2264912.943055642 0 0 0 0 0 111119047.1735747 2739163.999951854 2739163.999951854 -1912273.211595751 0 0 0 0 0 111300778.409493 2763227.04692862 2763227.04692862 -2112306.597124738 0 0 0 0 0 110909231.9557632 2600002.731195698 2600002.731195698 -2223335.541288982 0 0 0 0 0 110677049.618296 2634594.404220932 2634594.404220932 -2079471.103580051 0 0 0 0 0 110455751.1254482 2667457.09544884 2667457.09544884 -1938142.380429877 0 0 0 0 0 110266884.9659688 2704909.965164748 2704909.965164748 -1784932.527425517 0 0 0 0 0 109851508.6467886 2554252.629025928 2554252.629025928 -1857693.344057626 0 0 0 0 0 110067114.8015037 2683649.19069229 2683649.19069229 -1599906.222384312 0 0 0 0 0 109632483.3701683 2532564.005595166 2532564.005595166 -1814597.36463407 0 0 0 0 0 122246236.9073805 371273.5287779839 371273.5287779839 -6438657.620344124 0 0 0 0 0 44388865.74547235 -41573817.04838844 -41573817.04838844 38439298.02547256 0 0 0 0 0 60543966.73552332 -42924448.39254157 -42924448.39254157 30325516.02366538 0 0 0 0 0 85142999.44497184 -40776897.89606669 -40776897.89606669 17864406.46526666 0 0 0 0 0 73876801.58020331 -42451975.50399555 -42451975.50399555 23079751.10447429 0 0 0 0 0 95113938.62016384 -39293812.95470477 -39293812.95470477 13086466.29882931 0 0 0 0 0 103625169.1862006 -37275416.18210924 -37275416.18210924 9106103.781662181 0 0 0 0 0 110647857.541268 -34894266.31361374 -34894266.31361374 5763445.748236205 0 0 0 0 0 116247912.7585525 -32197286.91594627 -32197286.91594627 2925154.57950806 0 0 0 0 0 120749096.4270664 -29430970.6165317 -29430970.6165317 609620.0314797313 0 0 0 0 0 124322643.0517602 -26671855.80133487 -26671855.80133487 -1244887.89322407 0 0 0 0 0 127118072.4631239 -23967711.35509031 -23967711.35509031 -2700979.123748003 0 0 0 0 0 129253690.8194371 -21370838.55196143 -21370838.55196143 -3817786.626066078 0 0 0 0 0 126275874.7514255 -18740718.9833232 -18740718.9833232 -5851605.967656008 0 0 0 0 0 128956024.8468488 -18292193.87546063 -18292193.87546063 -6996139.261626989 0 0 0 0 0 130091995.455291 -16137463.03827541 -16137463.03827541 -7371543.863110068 0 0 0 0 0 130900266.802865 -14150484.76145904 -14150484.76145904 -7570579.203060073 0 0 0 0 0 131385146.2476568 -12316084.07909645 -12316084.07909645 -7659679.029548535 0 0 0 0 0 130031388.4582799 -10668033.5729131 -10668033.5729131 -9137399.237537123 0 0 0 0 0 128882117.3393489 -10754440.88536638 -10754440.88536638 -8191045.942144741 0 0 0 0 0 130162338.7057821 -9164280.595401775 -9164280.595401775 -8917517.0993453 0 0 0 0 0 130121660.8759865 -7793243.920043508 -7793243.920043508 -8658096.146668313 0 0 0 0 0 129949289.6087528 -6530720.558466418 -6530720.558466418 -8347788.505839354 0 0 0 0 0 129664488.5352331 -5377949.828378502 -5377949.828378502 -8014535.5561457 0 0 0 0 0 129292866.4499698 -4324946.467586807 -4324946.467586807 -7657156.044107819 0 0 0 0 0 128852774.3305196 -3365312.101766198 -3365312.101766198 -7284217.225468813 0 0 0 0 0 127257060.8402728 -2704054.611047157 -2704054.611047157 -7024905.757559182 0 0 0 0 0 127301467.8589737 -2914267.078925015 -2914267.078925015 -7879268.24667702 0 0 0 0 0 126829471.7319166 -2140336.811197397 -2140336.811197397 -7468991.405290413 0 0 0 0 0 126323083.4308792 -1432622.198865266 -1432622.198865266 -7052737.525308726 0 0 0 0 0 125797261.3202054 -789204.2555003469 -789204.2555003469 -6637158.446635938 0 0 0 0 0 125253967.8721644 -203666.5407035684 -203666.5407035684 -6226730.327276309 0 0 0 0 0 124693882.1340557 327493.6375756369 327493.6375756369 -5826314.826358807 0 0 0 0 0 123656632.9233542 624982.5465270822 624982.5465270822 -5433111.592838595 0 0 0 0 0 123421559.4615533 366783.9150715805 366783.9150715805 -6178361.086237119 0 0 0 0 0 122893107.0308925 799760.9503500517 799760.9503500517 -5788877.826256953 0 0 0 0 0 121371748.3760724 571459.0721249062 571459.0721249062 -6010011.203130251 0 0 0 0 0 120937188.1040649 942487.3744917482 942487.3744917482 -5630602.430844859 0 0 0 0 0 119938285.8050054 859293.7013173434 859293.7013173434 -5820192.58947181 0 0 0 0 0 120693419.1916148 715380.9062780547 715380.9062780547 -6245486.279534447 0 0 0 0 0 119527951.533044 1166403.638894031 1166403.638894031 -5468495.766158987 0 0 0 0 0 119113205.8780359 1443714.090216232 1443714.090216232 -5137436.799904227 0 0 0 0 0 118694328.3250199 1696418.280799087 1696418.280799087 -4816175.02298116 0 0 0 0 0 118281836.2013123 1929989.248749364 1929989.248749364 -4500064.942585655 0 0 0 0 0 117460103.0687369 1775855.488087426 1775855.488087426 -4662501.493700366 0 0 0 0 0 118009140.0053686 1715243.896999158 1715243.896999158 -5035644.987702996 0 0 0 0 0 117083349.4949863 1982994.795251556 1982994.795251556 -4363503.672019884 0 0 0 0 0 116706392.621743 2174602.420213227 2174602.420213227 -4063782.625527912 0 0 0 0 0 116347959.6690713 2344785.926442149 2344785.926442149 -3781796.247130679 0 0 0 0 0 115980208.0271568 2489501.729350467 2489501.729350467 -3526372.730297389 0 0 0 0 0 115623926.1063429 2618943.488130209 2618943.488130209 -3284826.92112894 0 0 0 0 0 115333146.7740938 2415399.032093958 2415399.032093958 -3755784.360269011 0 0 0 0 0 114635496.7098538 2523145.983806633 2523145.983806633 -3242272.946945519 0 0 0 0 0 114982627.9994458 2518831.971239572 2518831.971239572 -3534071.154510705 0 0 0 0 0 114306058.7728242 2619250.133179212 2619250.133179212 -3028322.258609921 0 0 0 0 0 113991924.983985 2710228.109623092 2710228.109623092 -2821390.851802135 0 0 0 0 0 113680876.4999106 2790969.795722242 2790969.795722242 -2622834.233675774 0 0 0 0 0 113375798.6495049 2861741.522936099 2861741.522936099 -2433947.425248814 0 0 0 0 0 112864990.85308 2674742.489877929 2674742.489877929 -2579235.550396146 0 0 0 0 0 113122198.2828065 2688923.729274569 2688923.729274569 -2827821.35048732 0 0 0 0 0 112585670.3721801 2735715.224791484 2735715.224791484 -2404677.599168527 0 0 0 0 0 112310735.5337591 2788847.232517654 2788847.232517654 -2237639.125327514 0 0 0 0 0 112042120.977483 2835765.932862449 2835765.932862449 -2077243.922692592 0 0 0 0 0 111780264.3060472 2876962.857844343 2876962.857844343 -1923825.262580354 0 0 0 0 0 111524489.4532993 2912397.273313561 2912397.273313561 -1777696.617284996 0 0 0 0 0 111054728.4358169 2796247.491486467 2796247.491486467 -1966446.970624954 0 0 0 0 0 111274751.9732178 2942622.446601735 2942622.446601735 -1638528.975543251 0 0 0 0 0 110883581.6957111 2771261.534666815 2771261.534666815 -1774500.315006571 0 0 0 0 0 110653648.0602711 2798874.570300753 2798874.570300753 -1643605.341702392 0 0 0 0 0 110434851.330198 2820418.328421119 2820418.328421119 -1520659.491144476 0 0 0 0 0 110195204.0784854 2832865.039556777 2832865.039556777 -1419800.367514933 0 0 0 0 0 109927535.5504202 2720147.181885582 2720147.181885582 -1496340.730229449 0 0 0 0 0 110097707.7077656 2761973.46367476 2761973.46367476 -1609636.3962019 0 0 0 0 0 122008678.369336 1012850.800331399 1012850.800331399 -5378225.354323836 0 0 0 0 0 52823539.8112324 -45444555.12036065 -45444555.12036065 43212462.62172029 0 0 0 0 0 69023336.24359594 -45989395.35741627 -45989395.35741627 34407058.08362599 0 0 0 0 0 85139213.97345495 -41009423.41705221 -41009423.41705221 17171414.32384286 0 0 0 0 0 82867479.61595042 -45140276.96868008 -45140276.96868008 27087085.7070061 0 0 0 0 0 94747538.80325793 -39022426.95876365 -39022426.95876365 12369257.52313758 0 0 0 0 0 102821158.9739314 -36423855.09637154 -36423855.09637154 8321497.155123997 0 0 0 0 0 109493751.8803975 -33548896.62413664 -33548896.62413664 5024115.847267649 0 0 0 0 0 114944205.8776006 -30611716.95254559 -30611716.95254559 2367650.839139554 0 0 0 0 0 119365709.733761 -27672718.23175216 -27672718.23175216 270716.9913644743 0 0 0 0 0 122911256.0303264 -24799553.65249287 -24799553.65249287 -1354381.275730781 0 0 0 0 0 125714105.8538469 -22043548.54077034 -22043548.54077034 -2582967.541446508 0 0 0 0 0 127888713.4047562 -19433805.49643557 -19433805.49643557 -3481691.932046514 0 0 0 0 0 130820724.4264835 -18916922.52595044 -18916922.52595044 -4659328.431822564 0 0 0 0 0 127861333.6281428 -16521585.47500035 -16521585.47500035 -6286267.197430413 0 0 0 0 0 129036597.4640853 -14430107.44596193 -14430107.44596193 -6531869.538719911 0 0 0 0 0 129882595.8980724 -12477727.32071205 -12477727.32071205 -6625282.690999702 0 0 0 0 0 130428464.1214186 -10689016.39835564 -10689016.39835564 -6612042.563260982 0 0 0 0 0 129229095.5340494 -9206849.082690101 -9206849.082690101 -8002656.76236676 0 0 0 0 0 131617729.631803 -10613619.20024208 -10613619.20024208 -7643136.733103664 0 0 0 0 0 129395421.6970888 -7766453.462809436 -7766453.462809436 -7738244.476965849 0 0 0 0 0 129410917.0405917 -6449110.375982314 -6449110.375982314 -7429583.830860283 0 0 0 0 0 129280880.6825542 -5248479.006341287 -5248479.006341287 -7094368.111628886 0 0 0 0 0 129045735.9379033 -4156306.617459136 -4156306.617459136 -6736706.814779595 0 0 0 0 0 128722250.3185324 -3164081.125543899 -3164081.125543899 -6363670.836645816 0 0 0 0 0 128329175.9331029 -2265573.865017024 -2265573.865017024 -5982534.14974598 0 0 0 0 0 128359762.6864764 -2494660.357712409 -2494660.357712409 -6906825.236462417 0 0 0 0 0 126863321.0407393 -1908340.334898638 -1908340.334898638 -6612732.911683561 0 0 0 0 0 126409975.001174 -1193261.990970384 -1193261.990970384 -6214978.671413628 0 0 0 0 0 125935705.5301563 -537633.1762729816 -537633.1762729816 -5811994.592725371 0 0 0 0 0 125437366.3771805 57866.28749468031 57866.28749468031 -5413227.991876496 0 0 0 0 0 124917539.5556224 597794.0841021147 597794.0841021147 -5020717.300816627 0 0 0 0 0 124386182.3209004 1085345.407512074 1085345.407512074 -4637721.132592555 0 0 0 0 0 124120439.0539322 803029.7713574452 803029.7713574452 -5442704.01167559 0 0 0 0 0 123158040.9628116 1064540.73283249 1064540.73283249 -5049867.126553553 0 0 0 0 0 122651780.2927107 1460799.92663894 1460799.92663894 -4681935.421932787 0 0 0 0 0 121754339.5312331 767711.1802251089 767711.1802251089 -6051658.396550753 0 0 0 0 0 121260949.590184 1126739.130341813 1126739.130341813 -5678342.20730452 0 0 0 0 0 120229083.8976833 1044358.57205658 1044358.57205658 -5881279.100574912 0 0 0 0 0 120498546.2975135 1278529.705301232 1278529.705301232 -5266672.055886605 0 0 0 0 0 119769421.9687953 1340301.46790116 1340301.46790116 -5535366.363459189 0 0 0 0 0 119314643.0687518 1605071.785377644 1605071.785377644 -5207086.270955578 0 0 0 0 0 118866975.7627108 1851277.28361 1851277.28361 -4880095.511882255 0 0 0 0 0 118423449.8573943 2075288.163137949 2075288.163137949 -4565020.491361173 0 0 0 0 0 117601598.5737924 1927521.122007628 1927521.122007628 -4726555.604253449 0 0 0 0 0 117877729.7249543 2139674.800335902 2139674.800335902 -4200164.374350077 0 0 0 0 0 117196706.5060333 2123203.357626697 2123203.357626697 -4423413.903348794 0 0 0 0 0 116802377.0469183 2307108.645723026 2307108.645723026 -4120647.928026669 0 0 0 0 0 116395147.0582228 2463141.676823705 2463141.676823705 -3850061.178285367 0 0 0 0 0 116008504.7852348 2600074.850308969 2600074.850308969 -3594696.997595856 0 0 0 0 0 115624765.2898168 2718869.661281277 2718869.661281277 -3355119.004173647 0 0 0 0 0 115281604.0789275 2730479.91600373 2730479.91600373 -3059526.503290202 0 0 0 0 0 114636474.2605273 2619143.39925672 2619143.39925672 -3311792.701590361 0 0 0 0 0 114917478.6454776 2816443.833623859 2816443.833623859 -2862241.362131517 0 0 0 0 0 114298997.9443896 2714246.50786092 2714246.50786092 -3094606.259597353 0 0 0 0 0 113967656.3224485 2798417.059102466 2798417.059102466 -2887137.325073048 0 0 0 0 0 113644276.6769434 2872790.27516836 2872790.27516836 -2687184.104604107 0 0 0 0 0 113329403.7222293 2938246.210671557 2938246.210671557 -2497008.96963831 0 0 0 0 0 112826378.406353 2752892.818462575 2752892.818462575 -2642402.01728222 0 0 0 0 0 113077714.9092345 2923458.985224583 2923458.985224583 -2254416.684592765 0 0 0 0 0 112537147.401272 2807744.371767532 2807744.371767532 -2466342.543475471 0 0 0 0 0 112254591.0417055 2856332.610593799 2856332.610593799 -2297529.058614021 0 0 0 0 0 111979593.1008289 2899262.912953469 2899262.912953469 -2135444.615085421 0 0 0 0 0 111711446.6296238 2936176.988293127 2936176.988293127 -1980614.297392776 0 0 0 0 0 111450275.7120479 2967496.823848825 2967496.823848825 -1832949.856595222 0 0 0 0 0 111031150.9580179 2968110.908796364 2968110.908796364 -1506405.362006922 0 0 0 0 0 111195926.9026133 2993738.074909771 2993738.074909771 -1692113.852451631 0 0 0 0 0 110815130.7483451 2824707.135285947 2824707.135285947 -1827179.13881612 0 0 0 0 0 110583652.836299 2849216.251762207 2849216.251762207 -1694711.002046462 0 0 0 0 0 110360875.3006357 2866855.997381315 2866855.997381315 -1571906.22541795 0 0 0 0 0 110131138.8594519 2867546.558463701 2867546.558463701 -1460812.795703296 0 0 0 0 0 109704474.2344193 2725068.040723159 2725068.040723159 -1498977.118924031 0 0 0 0 0 109897638.9309037 2832706.422442128 2832706.422442128 -1356220.496636164 0 0 0 0 0 122361206.4371341 1190287.799241079 1190287.799241079 -5414325.344050196 0 0 0 0 0 54305496.89882713 -48016267.98930559 -48016267.98930559 42136273.32949728 0 0 0 0 0 69670583.47541259 -47334071.1603983 -47334071.1603983 33020822.46727518 0 0 0 0 0 94019645.45006214 -43200294.75280543 -43200294.75280543 20776893.74540266 0 0 0 0 0 82658227.97596915 -45429831.64385904 -45429831.64385904 25372958.75429702 0 0 0 0 0 103460746.5252216 -40754262.9771087 -40754262.9771087 15595290.6858406 0 0 0 0 0 111289258.6105888 -37923193.09786316 -37923193.09786316 11360984.25168412 0 0 0 0 0 117408219.7346615 -34814751.06510251 -34814751.06510251 7775583.574258257 0 0 0 0 0 122252212.9749754 -31619113.32890473 -31619113.32890473 4799587.661792624 0 0 0 0 0 126072060.1037514 -28471480.98863191 -28471480.98863191 2416854.4347187 0 0 0 0 0 129016275.824457 -25423678.59551132 -25423678.59551132 527805.437007099 0 0 0 0 0 131226289.2533182 -22517829.28798553 -22517829.28798553 -943450.7509646487 0 0 0 0 0 132829406.668211 -19785886.50488384 -19785886.50488384 -2061697.389728153 0 0 0 0 0 129531994.1553252 -16991580.29329021 -16991580.29329021 -4110899.798897699 0 0 0 0 0 131938873.2130683 -16600641.5473798 -16600641.5473798 -5259669.247798656 0 0 0 0 0 132696784.5193874 -14446636.53018804 -14446636.53018804 -5635173.067548679 0 0 0 0 0 133131449.1374807 -12466396.08693053 -12466396.08693053 -5860560.252553997 0 0 0 0 0 133306254.7374075 -10640939.25173868 -10640939.25173868 -5959914.588623906 0 0 0 0 0 131669798.4156213 -9034520.381717317 -9034520.381717317 -7527744.262349712 0 0 0 0 0 130734563.6769426 -9043730.071900263 -9043730.071900263 -6505750.756445741 0 0 0 0 0 131563404.1006991 -7588923.774526564 -7588923.774526564 -7331149.685372265 0 0 0 0 0 131313093.9010959 -6273136.573605521 -6273136.573605521 -7094682.867155735 0 0 0 0 0 130953628.0164609 -5073024.424105406 -5073024.424105406 -6813930.802362168 0 0 0 0 0 130508425.1436511 -3981568.209422768 -3981568.209422768 -6505957.530518577 0 0 0 0 0 129995724.7406014 -2992240.621207301 -2992240.621207301 -6176086.765571014 0 0 0 0 0 129431347.9807499 -2098690.150632578 -2098690.150632578 -5834212.116418831 0 0 0 0 0 127876758.0087834 -1457526.792021343 -1457526.792021343 -5600504.48590655 0 0 0 0 0 127814934.3777515 -1712160.523271283 -1712160.523271283 -6532105.413638392 0 0 0 0 0 127251482.5364201 -998334.2995237306 -998334.2995237306 -6150426.169153277 0 0 0 0 0 126656288.5318167 -354880.0386169496 -354880.0386169496 -5764166.837377521 0 0 0 0 0 126053915.6933334 231363.7492375578 231363.7492375578 -5379830.808353689 0 0 0 0 0 125448608.8119233 762186.1902607483 762186.1902607483 -5000596.028095711 0 0 0 0 0 124827578.8294097 1236797.019053619 1236797.019053619 -4632704.277735644 0 0 0 0 0 123846748.3929278 1521732.176993153 1521732.176993153 -4270080.46846152 0 0 0 0 0 123546109.135386 1231636.965820482 1231636.965820482 -5069194.753413063 0 0 0 0 0 122972683.4204769 1616163.524655337 1616163.524655337 -4710640.330623999 0 0 0 0 0 121536818.0492509 1376404.522405931 1376404.522405931 -5010909.553633702 0 0 0 0 0 121061947.3002571 1704326.329354901 1704326.329354901 -4659001.201021311 0 0 0 0 0 120061287.2535374 1581708.702806874 1581708.702806874 -4919187.886950557 0 0 0 0 0 120768076.0209863 1451274.305916161 1451274.305916161 -5319776.208217039 0 0 0 0 0 119618116.9329807 1850532.434386613 1850532.434386613 -4594324.51116327 0 0 0 0 0 119167314.54791 2087823.673573888 2087823.673573888 -4290047.354629925 0 0 0 0 0 118728620.2812126 2310328.285690347 2310328.285690347 -3986281.790166407 0 0 0 0 0 118295987.1803698 2511603.645948572 2511603.645948572 -3695248.335471595 0 0 0 0 0 117473993.4957744 2333383.020607599 2333383.020607599 -3912574.841486582 0 0 0 0 0 117984656.1716021 2276696.000524334 2276696.000524334 -4266793.726594297 0 0 0 0 0 117077576.3729768 2511864.805349997 2511864.805349997 -3625331.819021179 0 0 0 0 0 116682449.9759672 2673297.703211435 2673297.703211435 -3348718.353672196 0 0 0 0 0 116309446.4098933 2814916.040032315 2814916.040032315 -3090092.287081949 0 0 0 0 0 115930092.9552269 2934499.377397511 2934499.377397511 -2851999.754787726 0 0 0 0 0 115563662.8681985 3039397.177604913 3039397.177604913 -2629759.067069617 0 0 0 0 0 115241747.3219053 2816917.898053333 2816917.898053333 -3138159.795682139 0 0 0 0 0 114573395.6106116 2904301.607269356 2904301.607269356 -2656601.001385041 0 0 0 0 0 114888312.2335769 2907227.310711682 2907227.310711682 -2933771.232944099 0 0 0 0 0 114241366.9827802 2987006.378495175 2987006.378495175 -2454051.460576687 0 0 0 0 0 113915759.5437393 3058685.266666451 3058685.266666451 -2262099.75941469 0 0 0 0 0 113597284.8118626 3121034.44036951 3121034.44036951 -2079636.154443444 0 0 0 0 0 113286009.1917836 3174240.767690013 3174240.767690013 -1906723.730209805 0 0 0 0 0 112786678.8439153 2976705.506745035 2976705.506745035 -2085480.94516738 0 0 0 0 0 113021416.9652617 2994360.153935522 2994360.153935522 -2316786.484888354 0 0 0 0 0 112500548.1620215 3022192.809982056 3022192.809982056 -1924262.664513912 0 0 0 0 0 112221546.3066129 3061731.890144899 3061731.890144899 -1769338.330127968 0 0 0 0 0 111949882.7726189 3095874.976317803 3095874.976317803 -1621311.681409355 0 0 0 0 0 111685004.8322343 3124367.433223346 3124367.433223346 -1480492.415302108 0 0 0 0 0 111426614.0419213 3147628.299161591 3147628.299161591 -1346631.832518905 0 0 0 0 0 110947769.7396343 3014989.817730744 3014989.817730744 -1558194.632403378 0 0 0 0 0 111174704.5311183 3166166.01895258 3166166.01895258 -1219246.035008061 0 0 0 0 0 110793896.1522031 2988866.425551303 2988866.425551303 -1381687.142472639 0 0 0 0 0 110565660.5226017 3003362.756886274 3003362.756886274 -1265575.940528554 0 0 0 0 0 110348594.119707 3014525.380873406 3014525.380873406 -1158663.922497389 0 0 0 0 0 110131955.3955624 2994912.662362098 2994912.662362098 -1162956.951214718 0 0 0 0 0 109981939.1743716 2904980.174886222 2904980.174886222 -1225252.157348984 0 0 0 0 0 122140939.9848379 1816153.853768584 1816153.853768584 -4329726.294333288 0 0 0 0 0 64225412.52983434 -52331228.55196052 -52331228.55196052 47338877.53444792 0 0 0 0 0 80045822.91749065 -51038985.15768223 -51038985.15768223 37958835.57984643 0 0 0 0 0 93392192.00670499 -42853308.85557416 -42853308.85557416 19137182.05678773 0 0 0 0 0 92947979.89228673 -48508927.04315607 -48508927.04315607 29922911.80191744 0 0 0 0 0 102394499.9597522 -39779387.55463266 -39779387.55463266 14040389.24857588 0 0 0 0 0 109826523.8239852 -36387626.85189737 -36387626.85189737 9913631.226901172 0 0 0 0 0 115773977.7473813 -32973911.0814607 -32973911.0814607 6597402.335274643 0 0 0 0 0 120571368.5548158 -29617124.7000466 -29617124.7000466 3957449.809891574 0 0 0 0 0 124387522.6660355 -26366436.43865516 -26366436.43865516 1897189.462229287 0 0 0 0 0 127369699.4437148 -23271842.99052896 -23271842.99052896 321699.1344917297 0 0 0 0 0 129644875.57537 -20367260.68609351 -20367260.68609351 -858813.23888204 0 0 0 0 0 131331770.3716886 -17669170.79557746 -17669170.79557746 -1717655.135147118 0 0 0 0 0 133934837.9643274 -17242453.1152464 -17242453.1152464 -2888139.237465047 0 0 0 0 0 130730160.8944097 -14723364.26097466 -14723364.26097466 -4524128.934984001 0 0 0 0 0 131546198.3600933 -12628132.77006848 -12628132.77006848 -4763562.731987993 0 0 0 0 0 132050900.346902 -10709153.69292801 -10709153.69292801 -4867967.451393195 0 0 0 0 0 132303630.1762818 -8958408.17968666 -8958408.17968666 -4859892.759144899 0 0 0 0 0 130840923.8766488 -7536876.27558836 -7536876.27558836 -6324539.921783251 0 0 0 0 0 133272723.6940715 -8969246.97964355 -8969246.97964355 -5951739.058429437 0 0 0 0 0 130783389.3902619 -6160803.270757564 -6160803.270757564 -6085666.966937555 0 0 0 0 0 130593133.9552083 -4913849.102725879 -4913849.102725879 -5807150.030591341 0 0 0 0 0 130290680.5550954 -3782364.471242435 -3782364.471242435 -5499147.95985988 0 0 0 0 0 129901057.5306749 -2759064.284390264 -2759064.284390264 -5170924.933182474 0 0 0 0 0 129442285.7979425 -1838023.779653742 -1838023.779653742 -4829263.22181918 0 0 0 0 0 128928494.5985599 -1008725.33893266 -1008725.33893266 -4486657.572204554 0 0 0 0 0 128830008.8994825 -1293556.369711364 -1293556.369711364 -5484809.688645786 0 0 0 0 0 127382972.5444746 -727815.7253582726 -727815.7253582726 -5224930.291402833 0 0 0 0 0 126838692.4720503 -69684.8485262794 -69684.8485262794 -4856579.090988323 0 0 0 0 0 126286504.924473 527439.491176429 527439.491176429 -4488450.544075119 0 0 0 0 0 125714288.2444798 1062310.775003195 1062310.775003195 -4125878.436742286 0 0 0 0 0 125128141.6302674 1545245.253192401 1545245.253192401 -3768792.111607043 0 0 0 0 0 124540693.6740817 1977456.078859032 1977456.078859032 -3421183.36979582 0 0 0 0 0 124208696.6166348 1664351.074277129 1664351.074277129 -4277663.676575871 0 0 0 0 0 123300575.1381858 1912509.74984481 1912509.74984481 -3918662.033858933 0 0 0 0 0 122748824.4396964 2259515.721935292 2259515.721935292 -3585055.596738268 0 0 0 0 0 121830059.6332896 1542199.037191919 1542199.037191919 -5053319.293291518 0 0 0 0 0 121301853.2234282 1858701.63184368 1858701.63184368 -4706486.118893256 0 0 0 0 0 120273417.6206435 1740697.234796036 1740697.234796036 -4981630.575587505 0 0 0 0 0 120587526.8032539 1998713.97823462 1998713.97823462 -4322128.420066954 0 0 0 0 0 119781326.7397058 1995052.852531863 1995052.852531863 -4663256.901489008 0 0 0 0 0 119308103.0569691 2229355.590529978 2229355.590529978 -4354117.487810751 0 0 0 0 0 118837383.7602456 2442164.608677848 2442164.608677848 -4050041.897726256 0 0 0 0 0 118374073.1680706 2633494.640095178 2633494.640095178 -3759402.253256715 0 0 0 0 0 117567511.2651244 2463440.963776996 2463440.963776996 -3971784.658606182 0 0 0 0 0 117871964.306845 2691756.051013692 2691756.051013692 -3417644.256929883 0 0 0 0 0 117146224.8226539 2633290.873185753 2633290.873185753 -3684601.742888912 0 0 0 0 0 116729771.4458124 2784954.015784242 2784954.015784242 -3406908.912365782 0 0 0 0 0 116314853.9111546 2916396.95200941 2916396.95200941 -3157060.678821162 0 0 0 0 0 115918076.2040081 3030923.622319662 3030923.622319662 -2920155.708071184 0 0 0 0 0 115528072.7506584 3127320.749061307 3127320.749061307 -2699986.950845707 0 0 0 0 0 115208498.6022071 3126934.462738448 3126934.462738448 -2434989.618328335 0 0 0 0 0 114540776.5434238 2991552.318301168 2991552.318301168 -2723624.596562456 0 0 0 0 0 114839687.2584303 3198275.653455494 3198275.653455494 -2247754.656981397 0 0 0 0 0 114195759.3720859 3066448.939894661 3066448.939894661 -2518951.590190942 0 0 0 0 0 113858968.1209655 3132124.812016158 3132124.812016158 -2325580.361967647 0 0 0 0 0 113530451.3761054 3188910.037972088 3188910.037972088 -2141844.485995227 0 0 0 0 0 113210940.8832406 3237275.484376843 3237275.484376843 -1967917.858350254 0 0 0 0 0 112720808.5174115 3041672.448351642 3041672.448351642 -2146325.240009421 0 0 0 0 0 112983339.1790147 3219616.854374423 3219616.854374423 -1744128.06219898 0 0 0 0 0 112427810.2495127 3082843.032060544 3082843.032060544 -1983368.159894749 0 0 0 0 0 112142969.8264967 3118639.576206423 3118639.576206423 -1826801.352410446 0 0 0 0 0 111865715.3538318 3148591.969687662 3148591.969687662 -1677271.145836186 0 0 0 0 0 111595747.5622069 3173073.845657938 3173073.845657938 -1534976.527412755 0 0 0 0 0 111333242.1548642 3192641.529626796 3192641.529626796 -1399561.374783491 0 0 0 0 0 110929051.7473657 3180173.32025318 3180173.32025318 -1097071.884741487 0 0 0 0 0 111077990.29611 3207773.346693348 3207773.346693348 -1270678.325558757 0 0 0 0 0 110703954.0790448 3030634.150786866 3030634.150786866 -1431739.781033358 0 0 0 0 0 110458319.742037 3036928.15439982 3036928.15439982 -1314485.181099393 0 0 0 0 0 110209672.7028404 3032785.184975862 3032785.184975862 -1199427.587852134 0 0 0 0 0 109995590.8250335 2991302.201989948 2991302.201989948 -1147889.486556013 0 0 0 0 0 109764936.0096059 2925807.23262844 2925807.23262844 -1182173.538374619 0 0 0 0 0 122402302.419498 1960912.190770179 1960912.190770179 -4365490.466156776 0 0 0 0 0 64884277.88483958 -53998295.08002605 -53998295.08002605 44717446.06517171 0 0 0 0 0 79799213.40821975 -51560305.59289023 -51560305.59289023 35109159.69305225 0 0 0 0 0 103603068.8910303 -45439888.45224351 -45439888.45224351 23305547.80531797 0 0 0 0 0 91900867.85625735 -48010324.77257279 -48010324.77257279 26950522.4853525 0 0 0 0 0 112184020.9015415 -41885665.80658442 -41885665.80658442 17787209.02010642 0 0 0 0 0 118825767.1355827 -38165854.48820067 -38165854.48820067 13274265.51863898 0 0 0 0 0 124012726.4393601 -34421284.97375053 -34421284.97375053 9550523.096023632 0 0 0 0 0 128078439.3746661 -30781429.57419594 -30781429.57419594 6543202.027902661 0 0 0 0 0 131170133.6796258 -27293323.31174783 -27293323.31174783 4148382.6501063 0 0 0 0 0 133441321.5327577 -24002774.51110277 -24002774.51110277 2269270.24628491 0 0 0 0 0 135045568.4800797 -20937260.73176784 -20937260.73176784 819281.9790419579 0 0 0 0 0 136108904.8176593 -18109130.74616509 -18109130.74616509 -276803.2873033724 0 0 0 0 0 132531946.0775849 -15184648.01072571 -15184648.01072571 -2317903.181586153 0 0 0 0 0 134633906.1610134 -14893948.60571159 -14893948.60571159 -3475167.489185717 0 0 0 0 0 134994276.7937075 -12742733.26957202 -12742733.26957202 -3864744.16358463 0 0 0 0 0 135087788.448222 -10775376.94006244 -10775376.94006244 -4100624.913876344 0 0 0 0 0 134966286.7561699 -8983588.583157344 -8983588.583157344 -4207305.696484028 0 0 0 0 0 133075009.7617755 -7442800.916729365 -7442800.916729365 -5853335.051893077 0 0 0 0 0 132350861.995705 -7364767.082962138 -7364767.082962138 -4762388.278316258 0 0 0 0 0 132741164.5097939 -6056968.501816081 -6056968.501816081 -5688382.218798365 0 0 0 0 0 132299581.1324563 -4800656.480436894 -4800656.480436894 -5476280.442580556 0 0 0 0 0 131773537.2416735 -3665264.354571588 -3665264.354571588 -5224175.540267395 0 0 0 0 0 131182086.211657 -2640932.524554749 -2640932.524554749 -4944833.880750164 0 0 0 0 0 130538676.1001693 -1720440.209379962 -1720440.209379962 -4647164.7944906 0 0 0 0 0 129863247.5786911 -896688.0497127833 -896688.0497127833 -4341523.8000691 0 0 0 0 0 128369767.5941697 -266303.9186505834 -266303.9186505834 -4142227.597757066 0 0 0 0 0 128192032.9999198 -576381.9184879849 -576381.9184879849 -5143571.301424939 0 0 0 0 0 127539162.4957285 74048.75404746785 74048.75404746785 -4790874.150796508 0 0 0 0 0 126873566.6502454 664581.5019794028 664581.5019794028 -4442005.459049955 0 0 0 0 0 126205901.6273378 1192269.634127902 1192269.634127902 -4093533.009128948 0 0 0 0 0 125542472.3704051 1666507.961258304 1666507.961258304 -3749312.447717731 0 0 0 0 0 124873201.4483626 2091511.427121468 2091511.427121468 -3414712.059858716 0 0 0 0 0 123950921.1834223 2363470.915182082 2363470.915182082 -3087766.978134391 0 0 0 0 0 123588875.2722326 2042534.79611182 2042534.79611182 -3938055.96485316 0 0 0 0 0 122977067.7109936 2379760.260551099 2379760.260551099 -3612132.622706741 0 0 0 0 0 121629124.8400913 2134928.638915893 2134928.638915893 -3992024.969320321 0 0 0 0 0 121118841.7579814 2420112.421887387 2420112.421887387 -3668867.498708327 0 0 0 0 0 120116664.1830848 2260732.05811408 2260732.05811408 -4001174.017918786 0 0 0 0 0 120776314.5652121 2141789.658554438 2141789.658554438 -4374870.493139665 0 0 0 0 0 119644389.1985694 2489864.884809805 2489864.884809805 -3709223.383096798 0 0 0 0 0 119171572.4348398 2697292.188985882 2697292.188985882 -3425129.413361441 0 0 0 0 0 118711707.5189121 2886573.965361559 2886573.965361559 -3146020.518952334 0 0 0 0 0 118259142.3941996 3055404.257393285 3055404.257393285 -2880192.806139625 0 0 0 0 0 117439799.8963125 2852704.640604765 2852704.640604765 -3148495.572103076 0 0 0 0 0 117918889.484529 2804704.52089177 2804704.52089177 -3482289.162615605 0 0 0 0 0 117026832.770304 3002918.918100066 3002918.918100066 -2883688.455583208 0 0 0 0 0 116623029.4392129 3138033.945549954 3138033.945549954 -2629250.793848476 0 0 0 0 0 116234651.5984704 3254323.627128656 3254323.627128656 -2398033.208131802 0 0 0 0 0 115846136.1637953 3351658.438687241 3351658.438687241 -2184734.91187287 0 0 0 0 0 115464071.6991691 3430525.386311865 3430525.386311865 -1986559.62895274 0 0 0 0 0 115132727.9127583 3197475.826242755 3197475.826242755 -2508717.338874325 0 0 0 0 0 114487175.2251323 3267194.403694906 3267194.403694906 -2058027.387631663 0 0 0 0 0 114774666.9005667 3269073.535482653 3269073.535482653 -2313145.56063483 0 0 0 0 0 114146418.2075322 3329171.462478184 3329171.462478184 -1874645.450480232 0 0 0 0 0 113814392.5741501 3382541.015040384 3382541.015040384 -1700264.799623856 0 0 0 0 0 113491492.3957259 3427835.525112056 3427835.525112056 -1535143.053244716 0 0 0 0 0 113177074.7257091 3465069.75858299 3465069.75858299 -1379473.598186718 0 0 0 0 0 112686537.8586713 3257547.137224492 3257547.137224492 -1589460.028222375 0 0 0 0 0 112899900.6693394 3277101.198292053 3277101.198292053 -1803823.754666589 0 0 0 0 0 112397066.2383347 3289508.48480696 3289508.48480696 -1441067.667777329 0 0 0 0 0 112115629.4750425 3316299.910734506 3316299.910734506 -1299359.138468585 0 0 0 0 0 111841321.7242025 3337567.818273528 3337567.818273528 -1164757.365005843 0 0 0 0 0 111574241.1819757 3353802.81647464 3353802.81647464 -1037141.398115209 0 0 0 0 0 111314197.7943032 3365541.574069903 3365541.574069903 -916362.9385788713 0 0 0 0 0 110829782.1857114 3219436.621536903 3219436.621536903 -1147516.358821433 0 0 0 0 0 111060780.8755523 3373393.021164586 3373393.021164586 -802361.9615015971 0 0 0 0 0 110690260.1675638 3189715.126369307 3189715.126369307 -977749.8276016831 0 0 0 0 0 110454444.4542067 3196748.468080772 3196748.468080772 -866168.5332495999 0 0 0 0 0 110258630.4603999 3176978.883584447 3176978.883584447 -865286.1033089141 0 0 0 0 0 110027405.1081378 3098460.016602048 3098460.016602048 -857655.6820413447 0 0 0 0 0 122198555.6672645 2569095.520460607 2569095.520460607 -3265793.216865051 0 0 0 0 0 76584873.00981805 -58767470.08105235 -58767470.08105235 50442451.74026024 0 0 0 0 0 91740088.35056461 -55611799.57440709 -55611799.57440709 40587637.8066004 0 0 0 0 0 102024798.2970741 -44173368.76471308 -44173368.76471308 20398799.05197824 0 0 0 0 0 103623356.7865474 -51580749.53122428 -51580749.53122428 32220899.8023941 0 0 0 0 0 110262067.0191337 -40039274.60815492 -40039274.60815492 15367990.41245195 0 0 0 0 0 116763670.3469736 -36004041.88781691 -36004041.88781691 11283215.79704432 0 0 0 0 0 121948981.2391566 -32117736.12536152 -32117736.12536152 8017146.954739156 0 0 0 0 0 126050695.6505271 -28387467.70495294 -28387467.70495294 5464307.039628672 0 0 0 0 0 129216553.6708737 -24867838.26092326 -24867838.26092326 3498574.025166529 0 0 0 0 0 131592022.2630319 -21597346.24288789 -21597346.24288789 2009423.472147684 0 0 0 0 0 133314535.9332605 -18588236.83283606 -18588236.83283606 898807.9856315561 0 0 0 0 0 134504191.5536657 -15841782.40357552 -15841782.40357552 93353.90587039279 0 0 0 0 0 136736165.0161535 -15520245.69143255 -15520245.69143255 -1085090.466409866 0 0 0 0 0 133327317.8917166 -12911268.69479547 -12911268.69479547 -2711679.236919157 0 0 0 0 0 133787984.3579121 -10838403.32462492 -10838403.32462492 -2943663.058554515 0 0 0 0 0 133975686.0701821 -8959889.099469015 -8959889.099469015 -3046469.850491176 0 0 0 0 0 133948261.4376708 -7261754.858368875 -7261754.858368875 -3044648.405462123 0 0 0 0 0 132226236.7387003 -5919432.678990296 -5919432.678990296 -4597613.031108211 0 0 0 0 0 134674086.6257818 -7359593.195411355 -7359593.195411355 -4210679.228031484 0 0 0 0 0 131962076.6538551 -4612892.396388101 -4612892.396388101 -4383736.200388893 0 0 0 0 0 131587122.4061235 -3435534.584828239 -3435534.584828239 -4133698.438036362 0 0 0 0 0 131122644.1661711 -2376653.802909522 -2376653.802909522 -3857317.098978345 0 0 0 0 0 130590659.5663589 -1427003.747306343 -1427003.747306343 -3563200.583351501 0 0 0 0 0 130009037.5524133 -576771.6887186965 -576771.6887186965 -3259644.263483107 0 0 0 0 0 129381054.5074712 179013.8240644871 179013.8240644871 -2956376.135928345 0 0 0 0 0 129157010.6580768 -160228.7255872563 -160228.7255872563 -4030575.187875035 0 0 0 0 0 127774315.5528994 398162.4593542329 398162.4593542329 -3808172.171720678 0 0 0 0 0 127152763.9549525 993442.7065889183 993442.7065889183 -3470155.90161226 0 0 0 0 0 126522384.2249313 1526221.732265108 1526221.732265108 -3141176.995944947 0 0 0 0 0 125887131.4951623 2003804.921589657 2003804.921589657 -2815319.753294288 0 0 0 0 0 125243480.2175555 2430745.806113606 2430745.806113606 -2495523.736362198 0 0 0 0 0 124609402.9714742 2813364.06995176 2813364.06995176 -2185870.688645522 0 0 0 0 0 124208361.1275563 2465947.428946282 2465947.428946282 -3095082.9905144 0 0 0 0 0 123359352.0546689 2703103.348441036 2703103.348441036 -2774741.129224293 0 0 0 0 0 122769662.3135678 3003553.919012154 3003553.919012154 -2476700.901700989 0 0 0 0 0 121837248.8574875 2269573.620678523 2269573.620678523 -4033651.022932233 0 0 0 0 0 121280086.6816307 2545406.967560821 2545406.967560821 -3715346.498551818 0 0 0 0 0 120252975.8911534 2392122.140282789 2392122.140282789 -4063579.127298324 0 0 0 0 0 120614568.9792249 2675220.393408963 2675220.393408963 -3361448.581519203 0 0 0 0 0 119744661.1025431 2612816.737609912 2612816.737609912 -3774486.347836443 0 0 0 0 0 119248817.4494704 2812540.802888202 2812540.802888202 -3486287.670335404 0 0 0 0 0 118759479.2155139 2993326.732774946 2993326.732774946 -3207143.808428952 0 0 0 0 0 118280294.8536007 3153737.039733502 3153737.039733502 -2941782.306468168 0 0 0 0 0 117484969.0440236 2963212.378064741 2963212.378064741 -3207113.221304695 0 0 0 0 0 117817290.3932663 3206028.386337067 3206028.386337067 -2627454.061949112 0 0 0 0 0 117059416.9031162 3108047.171627298 3108047.171627298 -2940627.29297689 0 0 0 0 0 116630686.3035166 3232892.273023858 3232892.273023858 -2686978.82029772 0 0 0 0 0 116210645.6309671 3336202.160234126 3336202.160234126 -2459358.623277405 0 0 0 0 0 115796280.6541809 3420941.89220018 3420941.89220018 -2246201.943397265 0 0 0 0 0 115386262.8954994 3489863.051924549 3489863.051924549 -2049301.798313502 0 0 0 0 0 115094682.6052513 3488433.740168819 3488433.740168819 -1813114.527130246 0 0 0 0 0 114419202.4042431 3335793.409372056 3335793.409372056 -2120829.091555233 0 0 0 0 0 114728071.7707914 3547936.898131397 3547936.898131397 -1634191.991292376 0 0 0 0 0 114069062.8892595 3392823.361657648 3392823.361657648 -1936392.525088968 0 0 0 0 0 113728479.9024262 3441270.350129465 3441270.350129465 -1760713.006681581 0 0 0 0 0 113396383.7259473 3481253.081019323 3481253.081019323 -1594484.664414955 0 0 0 0 0 113073414.0989158 3513380.155373926 3513380.155373926 -1437563.702453866 0 0 0 0 0 112596831.4149185 3310599.956027984 3310599.956027984 -1647390.365220582 0 0 0 0 0 112868662.6722267 3494479.622844802 3494479.622844802 -1232423.659078756 0 0 0 0 0 112302087.9069071 3338967.720715533 3338967.720715533 -1497387.318189051 0 0 0 0 0 112015482.5315553 3361720.700880546 3361720.700880546 -1354176.571992796 0 0 0 0 0 111736767.1663608 3379215.856882379 3379215.856882379 -1218062.019902913 0 0 0 0 0 111465928.4969964 3391840.226369103 3391840.226369103 -1088895.777224875 0 0 0 0 0 111202926.5897416 3400007.931003383 3400007.931003383 -966420.7524803242 0 0 0 0 0 110814645.0602152 3378008.555850537 3378008.555850537 -694687.2551911093 0 0 0 0 0 110947508.2458812 3404287.826759535 3404287.826759535 -850453.8164627583 0 0 0 0 0 110591026.0620871 3229412.262603554 3229412.262603554 -1028508.562946318 0 0 0 0 0 110379301.4396035 3239966.350771316 3239966.350771316 -912791.4931883117 0 0 0 0 0 110029428.3890057 3169624.006886526 3169624.006886526 -799135.9330963665 0 0 0 0 0 109817238.1266621 3110624.807006196 3110624.807006196 -852338.0081076976 0 0 0 0 0 122373526.2943219 2680146.729203008 2680146.729203008 -3299323.801063498 0 0 0 0 0 76520395.04084596 -59682884.09322551 -59682884.09322551 46394863.31714321 0 0 0 0 0 90559628.80183373 -55229315.08573268 -55229315.08573268 36528289.99741171 0 0 0 0 0 113622071.8082822 -47103565.95410038 -47103565.95410038 25151514.82799283 0 0 0 0 0 101758674.1363745 -50383404.52253981 -50383404.52253981 27884037.41877031 0 0 0 0 0 120670280.583832 -42484338.48182186 -42484338.48182186 19520857.18285201 0 0 0 0 0 126120897.2234856 -37974335.20773492 -37974335.20773492 14859045.03860014 0 0 0 0 0 130436760.961637 -33709054.16131377 -33709054.16131377 11127601.38394906 0 0 0 0 0 133659483.0255896 -29664429.11764268 -29664429.11764268 8151027.524080331 0 0 0 0 0 135968769.7364246 -25891067.16888096 -25891067.16888096 5808034.493443323 0 0 0 0 0 137539970.1907988 -22413559.03526884 -22413559.03526884 3985914.269393874 0 0 0 0 0 138531992.1283951 -19238998.69983815 -19238998.69983815 2588184.846336306 0 0 0 0 0 139058686.7391123 -16358904.06659648 -16358904.06659648 1533544.250351635 0 0 0 0 0 135258586.1582617 -13347662.33850555 -13347662.33850555 -471536.2349269525 0 0 0 0 0 137012091.4632813 -13164442.53049363 -13164442.53049363 -1660073.001168849 0 0 0 0 0 137005589.0099823 -11027956.84438277 -11027956.84438277 -2047939.833563776 0 0 0 0 0 136778042.9849968 -9096892.303376917 -9096892.303376917 -2284887.595897314 0 0 0 0 0 136376108.7324956 -7356423.469284675 -7356423.469284675 -2399873.272743033 0 0 0 0 0 134245920.2452122 -5893416.219402742 -5893416.219402742 -4132584.254399602 0 0 0 0 0 133745286.7470162 -5731541.711868648 -5731541.711868648 -2963117.399829843 0 0 0 0 0 133710651.3606113 -4572408.396579321 -4572408.396579321 -3993370.156734973 0 0 0 0 0 133093579.4477979 -3384882.9491137 -3384882.9491137 -3808143.443818702 0 0 0 0 0 132414316.9149726 -2319276.660241143 -2319276.660241143 -3587101.885135763 0 0 0 0 0 131688929.393017 -1366116.41727369 -1366116.41727369 -3341320.123763627 0 0 0 0 0 130928120.0050018 -517376.948340688 -517376.948340688 -3081389.015016811 0 0 0 0 0 130154123.7424394 239011.8392499266 239011.8392499266 -2813150.010953995 0 0 0 0 0 128726008.7175442 856090.0116591449 856090.0116591449 -2655085.104136761 0 0 0 0 0 128442785.2295458 500491.799781713 500491.799781713 -3721401.901953067 0 0 0 0 0 127713056.4824667 1093594.278791061 1093594.278791061 -3405691.749100753 0 0 0 0 0 126984175.3104267 1620108.462301889 1620108.462301889 -3094918.895453459 0 0 0 0 0 126262725.4732802 2092214.38630504 2092214.38630504 -2782870.804082996 0 0 0 0 0 125553456.0959171 2514403.71545652 2514403.71545652 -2474318.545089033 0 0 0 0 0 124842003.5388378 2884983.987272352 2884983.987272352 -2177275.407869641 0 0 0 0 0 123974492.3346109 3146213.309424139 3146213.309424139 -1896028.835582919 0 0 0 0 0 123554166.8869204 2797057.022330901 2797057.022330901 -2791828.839715147 0 0 0 0 0 122911126.3877593 3088845.626006736 3088845.626006736 -2500739.021035704 0 0 0 0 0 121652160.0261004 2844478.420806141 2844478.420806141 -2960658.583180904 0 0 0 0 0 121111385.4261854 3088098.77347643 3088098.77347643 -2670855.111733919 0 0 0 0 0 120118902.9515551 2898670.55776995 2898670.55776995 -3074899.257663814 0 0 0 0 0 120732958.1132501 2791162.324528871 2791162.324528871 -3411834.60242993 0 0 0 0 0 119617959.4295642 3091236.472402213 3091236.472402213 -2811278.504261494 0 0 0 0 0 119124477.4143432 3265150.192015622 3265150.192015622 -2550848.817745095 0 0 0 0 0 118646259.1585168 3422457.494856844 3422457.494856844 -2298530.626392454 0 0 0 0 0 118177996.5503287 3560877.69846482 3560877.69846482 -2059000.361866009 0 0 0 0 0 117375271.4030051 3339994.574453162 3339994.574453162 -2383195.740016239 0 0 0 0 0 117811848.8793557 3295546.477089151 3295546.477089151 -2689011.35437654 0 0 0 0 0 116940280.1651742 3459715.84450591 3459715.84450591 -2146619.636053047 0 0 0 0 0 116523728.8736938 3564309.528483993 3564309.528483993 -1923811.461878977 0 0 0 0 0 116116308.2313269 3650430.107339687 3650430.107339687 -1719625.787992433 0 0 0 0 0 115717721.7939155 3723999.158134081 3723999.158134081 -1525563.409256462 0 0 0 0 0 115337846.6619769 3779569.14885504 3779569.14885504 -1350003.138288449 0 0 0 0 0 115010933.9802732 3552611.010734141 3552611.010734141 -1879258.188459865 0 0 0 0 0 114371910.4178226 3600590.667580318 3600590.667580318 -1460661.386369705 0 0 0 0 0 114636951.9592674 3605671.033782339 3605671.033782339 -1695503.352610364 0 0 0 0 0 114026714.2411681 3645050.244316484 3645050.244316484 -1295312.938396325 0 0 0 0 0 113690548.7638352 3681515.81721512 3681515.81721512 -1138596.751404495 0 0 0 0 0 113364136.3513253 3710517.577396953 3710517.577396953 -990789.0436038706 0 0 0 0 0 113046144.8821394 3732524.265626414 3732524.265626414 -851618.3159624037 0 0 0 0 0 112568272.1237975 3518307.665830475 3518307.665830475 -1091919.689937391 0 0 0 0 0 112760459.7909798 3539351.615247784 3539351.615247784 -1289067.643300043 0 0 0 0 0 112276851.6197653 3537455.182582058 3537455.182582058 -957488.9291186708 0 0 0 0 0 111993276.503018 3551394.420980237 3551394.420980237 -829865.5391776718 0 0 0 0 0 111717385.9427779 3560431.90711538 3560431.90711538 -709072.7811691251 0 0 0 0 0 111449153.4336378 3564998.510460035 3564998.510460035 -595071.8558389158 0 0 0 0 0 111188281.1799553 3565607.868165452 3565607.868165452 -487812.7345602199 0 0 0 0 0 110698682.9709384 3405239.389721293 3405239.389721293 -740882.8239276615 0 0 0 0 0 110934491.3753442 3562811.120314082 3562811.120314082 -387552.89472651 0 0 0 0 0 110577689.6236594 3374889.318193066 3374889.318193066 -586507.2212045873 0 0 0 0 0 110283703.9812446 3362614.244848289 3362614.244848289 -514944.9352006346 0 0 0 0 0 110105365.7824652 3291499.123569491 3291499.123569491 -557109.7884690483 0 0 0 0 0 110265529.3231684 3354722.825063337 3354722.825063337 -583366.8133731759 0 0 0 0 0 122185729.5249577 3268983.041408592 3268983.041408592 -2192160.110711457 0 0 0 0 0 89956870.18256831 -64699643.19507329 -64699643.19507329 52501835.21439711 0 0 0 0 0 104579371.941613 -59536470.71645343 -59536470.71645343 42425693.12047396 0 0 0 0 0 111036344.509312 -44712447.47007559 -44712447.47007559 21408506.24009072 0 0 0 0 0 115941441.0012449 -54597255.04686722 -54597255.04686722 34321136.05023045 0 0 0 0 0 118001388.9480287 -39865455.84441677 -39865455.84441677 16344630.47768841 0 0 0 0 0 123573966.9066706 -35307177.46218089 -35307177.46218089 12388268.12635048 0 0 0 0 0 127974673.2892469 -30961984.39763429 -30961984.39763429 9298058.519729782 0 0 0 0 0 131324684.0219017 -26905490.94363564 -26905490.94363564 6920259.526095677 0 0 0 0 0 133786622.7766756 -23179497.46107958 -23179497.46107958 5093859.220831908 0 0 0 0 0 135526202.5662908 -19791354.33243429 -19791354.33243429 3718691.237548373 0 0 0 0 0 136683171.1233203 -16727020.87379761 -16727020.87379761 2691630.233098743 0 0 0 0 0 137372407.7927574 -13969487.1279885 -13969487.1279885 1945385.863329246 0 0 0 0 0 139219021.8921224 -13760182.24944643 -13760182.24944643 754973.044563608 0 0 0 0 0 135656323.0357616 -11093418.84068614 -11093418.84068614 -845339.0677704409 0 0 0 0 0 135767550.5215602 -9063368.107415777 -9063368.107415777 -1069251.05039431 0 0 0 0 0 135649209.9210131 -7243213.668979474 -7243213.668979474 -1172850.4438259 0 0 0 0 0 135353615.2875954 -5612148.27978237 -5612148.27978237 -1182816.367163206 0 0 0 0 0 133399471.9489312 -4356968.958089511 -4356968.958089511 -2822261.280838344 0 0 0 0 0 135839128.4945485 -5795468.077133922 -5795468.077133922 -2419195.770272642 0 0 0 0 0 132940813.9589473 -3125185.273584829 -3125185.273584829 -2637332.874169677 0 0 0 0 0 132394147.9772092 -2023834.449504319 -2023834.449504319 -2420622.074068422 0 0 0 0 0 131781020.4741826 -1040650.658206586 -1040650.658206586 -2180409.168935138 0 0 0 0 0 131118533.2897763 -165814.3129043243 -165814.3129043243 -1926371.960624606 0 0 0 0 0 130422979.2968237 610150.0835537681 610150.0835537681 -1666829.386308774 0 0 0 0 0 129693697.1789243 1297427.222245425 1297427.222245425 -1407076.377724237 0 0 0 0 0 129361992.7508799 909828.8912295817 909828.8912295817 -2541876.380208983 0 0 0 0 0 128041201.5636006 1453888.263451834 1453888.263451834 -2355994.128355026 0 0 0 0 0 127351834.0109348 1989076.028498443 1989076.028498443 -2064426.114788978 0 0 0 0 0 126653562.1834162 2460151.539051669 2460151.539051669 -1780880.944581493 0 0 0 0 0 125959703.7368452 2880058.709626011 2880058.709626011 -1498876.200374319 0 0 0 0 0 125263241.517637 3251069.691372841 3251069.691372841 -1223543.342114554 0 0 0 0 0 124579357.1160626 3575055.813113399 3575055.813113399 -963664.7021430434 0 0 0 0 0 124140656.8957418 3208627.312792485 3208627.312792485 -1898642.591483688 0 0 0 0 0 123342525.8171724 3436571.490492318 3436571.490492318 -1622698.078025471 0 0 0 0 0 122718299.9435201 3690689.712988051 3690689.712988051 -1363181.225790933 0 0 0 0 0 121779099.3654847 2946536.103204446 2946536.103204446 -2999638.024839124 0 0 0 0 0 121196913.6537931 3181536.238102492 3181536.238102492 -2714116.45850482 0 0 0 0 0 120183050.0927766 3000007.160571608 3000007.160571608 -3134235.292971874 0 0 0 0 0 120576588.2750768 3301848.135326859 3301848.135326859 -2398531.510554761 0 0 0 0 0 119653876.1945986 3184460.798777568 3184460.798777568 -2869929.467274106 0 0 0 0 0 119141178.3642953 3354303.908313256 3354303.908313256 -2607399.92085845 0 0 0 0 0 118637319.8991478 3504263.655563033 3504263.655563033 -2356202.714395396 0 0 0 0 0 118145564.6749189 3635052.731671146 3635052.731671146 -2117038.880496767 0 0 0 0 0 117362201.1059286 3424357.540395351 3424357.540395351 -2440449.814460924 0 0 0 0 0 117721933.9359659 3682092.561965804 3682092.561965804 -1832014.355281697 0 0 0 0 0 116922125.6820508 3538052.282864954 3538052.282864954 -2201746.12128189 0 0 0 0 0 116485196.4085037 3633624.56906958 3633624.56906958 -1979662.285459536 0 0 0 0 0 116062445.2410519 3712568.485150145 3712568.485150145 -1775411.445980774 0 0 0 0 0 115646934.4225539 3779710.316732298 3779710.316732298 -1581773.707526925 0 0 0 0 0 115231696.6434661 3831460.811727968 3831460.811727968 -1412293.372216259 0 0 0 0 0 114957248.9133988 3826567.291743948 3826567.291743948 -1185422.414731908 0 0 0 0 0 114274331.9883992 3653559.482871946 3653559.482871946 -1519984.014411242 0 0 0 0 0 114592131.0704002 3871556.285316608 3871556.285316608 -1020868.105031948 0 0 0 0 0 113920964.9043926 3693628.767683288 3693628.767683288 -1353610.515249112 0 0 0 0 0 113577782.7368563 3725759.307743055 3725759.307743055 -1195708.485294319 0 0 0 0 0 113244184.2396586 3750442.486109664 3750442.486109664 -1046729.322070289 0 0 0 0 0 112919624.4843676 3768322.310657866 3768322.310657866 -906343.1383258847 0 0 0 0 0 112456304.6186077 3559914.257174429 3559914.257174429 -1146962.547718909 0 0 0 0 0 112735619.9748577 3748418.068191269 3748418.068191269 -719976.6924014004 0 0 0 0 0 112160610.2273959 3575180.529881857 3575180.529881857 -1010914.948133089 0 0 0 0 0 111873063.728481 3585406.742887513 3585406.742887513 -881718.1563792904 0 0 0 0 0 111593849.2123515 3590983.858889719 3590983.858889719 -759370.3408641519 0 0 0 0 0 111322827.4608228 3592162.97221981 3592162.97221981 -643743.7553280892 0 0 0 0 0 111059760.4370643 3589249.71433409 3589249.71433409 -534607.027482008 0 0 0 0 0 110688681.7436726 3557501.332325603 3557501.332325603 -292511.510134594 0 0 0 0 0 110804558.2856513 3582720.331622275 3582720.331622275 -432137.9322126295 0 0 0 0 0 110455821.8841895 3405697.414032031 3405697.414032031 -636772.6655751012 0 0 0 0 0 110262641.0816402 3410890.167526991 3410890.167526991 -547863.1995601124 0 0 0 0 0 109852826.7852757 3296521.234953063 3296521.234953063 -537504.3379137744 0 0 0 0 0 110042983.0591339 3357154.968796974 3357154.968796974 -487657.2329229308 0 0 0 0 0 122279722.97716 3345930.014026136 3345930.014026136 -2221901.210459918 0 0 0 0 0 89082609.14909396 -64805152.59339532 -64805152.59339532 47328196.629481 0 0 0 0 0 102154761.3092611 -58079715.96960826 -58079715.96960826 36704788.84385414 0 0 0 0 0 123377422.1334895 -48313619.20173031 -48313619.20173031 26989375.39100188 0 0 0 0 0 112448915.0282728 -50654973.0358427 -50654973.0358427 27955696.47992889 0 0 0 0 0 128722973.0454592 -42438079.4604287 -42438079.4604287 20655775.74245635 0 0 0 0 0 133270023.9454301 -37373124.57599795 -37373124.57599795 16109916.01860517 0 0 0 0 0 136600893.7273086 -32627259.58260698 -32627259.58260698 12491740.74648277 0 0 0 0 0 138888366.4975732 -28249516.66293826 -28249516.66293826 9641765.228068488 0 0 0 0 0 140388833.9241274 -24269320.52600126 -24269320.52600126 7412804.195329818 0 0 0 0 0 141257463.913913 -20673169.40923348 -20673169.40923348 5688189.442492998 0 0 0 0 0 141652580.8975686 -17446156.63329552 -17446156.63329552 4368261.430112704 0 0 0 0 0 141655781.3469015 -14557841.16371067 -14557841.16371067 3369014.475870301 0 0 0 0 0 137686931.13158 -11496684.20141378 -11496684.20141378 1418523.431289686 0 0 0 0 0 139086645.7989615 -11422161.28357009 -11422161.28357009 197013.9778380274 0 0 0 0 0 138728423.2329436 -9325158.373305136 -9325158.373305136 -184853.3238985743 0 0 0 0 0 138198496.6188388 -7448809.969259956 -7448809.969259956 -423514.6916098434 0 0 0 0 0 137534845.2793795 -5776671.087794852 -5776671.087794852 -549515.1475163159 0 0 0 0 0 135197474.7679897 -4397922.791857865 -4397922.791857865 -2364642.694297544 0 0 0 0 0 134913248.8990514 -4156832.773940288 -4156832.773940288 -1123237.683923288 0 0 0 0 0 134476915.0657545 -3149416.071959575 -3149416.071959575 -2253672.742698652 0 0 0 0 0 133700599.084308 -2035547.340666785 -2035547.340666785 -2099960.799511305 0 0 0 0 0 132882106.6508103 -1044308.20978976 -1044308.20978976 -1914295.742856342 0 0 0 0 0 132036847.1853894 -164516.4573546579 -164516.4573546579 -1707347.458945253 0 0 0 0 0 131171594.6784306 611409.9354632364 611409.9354632364 -1489297.042038236 0 0 0 0 0 130308909.5373116 1299573.781977745 1299573.781977745 -1261887.173656501 0 0 0 0 0 128951008.465606 1903599.659179336 1903599.659179336 -1147453.045145954 0 0 0 0 0 128572721.6807821 1509812.234040873 1509812.234040873 -2267641.435947702 0 0 0 0 0 127775819.0860835 2036528.976155845 2036528.976155845 -1997715.52688172 0 0 0 0 0 126989537.3263448 2504416.9318969 2504416.9318969 -1730784.375892803 0 0 0 0 0 126220068.6112342 2920090.168217909 2920090.168217909 -1462578.728066661 0 0 0 0 0 125464701.6409697 3285975.061926411 3285975.061926411 -1198369.579964544 0 0 0 0 0 124718471.5556569 3604313.682043998 3604313.682043998 -950090.5042166074 0 0 0 0 0 123905791.3166048 3856708.575979905 3856708.575979905 -717333.9591526925 0 0 0 0 0 123453942.6619694 3491440.759898657 3491440.759898657 -1633507.225903206 0 0 0 0 0 122783933.6193707 3739078.861976289 3739078.861976289 -1380285.209318044 0 0 0 0 0 121610559.0765355 3501855.829707471 3501855.829707471 -1921327.375765296 0 0 0 0 0 121044067.0181053 3704938.777924951 3704938.777924951 -1669950.562425507 0 0 0 0 0 120055720.3081224 3486110.151217364 3486110.151217364 -2147719.213803301 0 0 0 0 0 120623721.3890498 3384490.002196454 3384490.002196454 -2445963.597308185 0 0 0 0 0 119536378.1317765 3645897.440272278 3645897.440272278 -1907697.521047047 0 0 0 0 0 119029759.9587611 3790950.158774244 3790950.158774244 -1672316.885156362 0 0 0 0 0 118536097.4977242 3917451.654117584 3917451.654117584 -1447577.41749289 0 0 0 0 0 118054618.2277766 4026805.494860277 4026805.494860277 -1235755.683589744 0 0 0 0 0 117271245.7412492 3789268.013615091 3789268.013615091 -1615303.830000916 0 0 0 0 0 117665233.0991264 3748400.823581182 3748400.823581182 -1890080.614477405 0 0 0 0 0 116826807.4226215 3879245.037792603 3879245.037792603 -1409818.180211603 0 0 0 0 0 116397569.060901 3953824.576725462 3953824.576725462 -1217439.182693024 0 0 0 0 0 115975575.8187516 4014337.822404065 4014337.822404065 -1035145.880747353 0 0 0 0 0 115567481.0275803 4065059.337655685 4065059.337655685 -861578.9617392952 0 0 0 0 0 115191573.6405919 4110410.107206996 4110410.107206996 -705203.9779116481 0 0 0 0 0 114851372.8867321 3875818.39746821 3875818.39746821 -1244207.648578627 0 0 0 0 0 114233840.5067032 3907572.73398293 3907572.73398293 -864803.7285492994 0 0 0 0 0 114474251.8247335 3914596.605650196 3914596.605650196 -1078295.050099098 0 0 0 0 0 113885300.3269849 3935441.802090641 3935441.802090641 -717763.862774033 0 0 0 0 0 113546333.6287636 3955918.894091878 3955918.894091878 -579400.7426925073 0 0 0 0 0 113216750.1207861 3969818.256345483 3969818.256345483 -449015.8531654312 0 0 0 0 0 112896824.2160456 3977730.230061891 3977730.230061891 -326088.6357064547 0 0 0 0 0 112433796.4652495 3759256.42252966 3759256.42252966 -594698.9358018865 0 0 0 0 0 112605492.1218897 3780627.201043592 3780627.201043592 -773038.7016681003 0 0 0 0 0 112140549.2304317 3765380.615372689 3765380.615372689 -475219.1860514548 0 0 0 0 0 111855763.1988961 3766993.078442696 3766993.078442696 -362180.0688551899 0 0 0 0 0 111579232.0722448 3764385.556064148 3764385.556064148 -255338.3033024415 0 0 0 0 0 111310576.1838719 3757782.16985243 3757782.16985243 -154654.5195704375 0 0 0 0 0 111049867.7271106 3747641.600144811 3747641.600144811 -59776.34853511737 0 0 0 0 0 110550135.5469599 3572972.861543162 3572972.861543162 -336513.8694624239 0 0 0 0 0 110794439.6274638 3735467.719107202 3735467.719107202 27757.5966684575 0 0 0 0 0 110465168.4023912 3548888.041048927 3548888.041048927 -207601.5063204388 0 0 0 0 0 110310119.4688028 3521382.87751695 3521382.87751695 -164219.1115855461 0 0 0 0 0 110107570.8511383 3475596.781889535 3475596.781889535 -234293.6387623221 0 0 0 0 0 122105909.7465589 3912993.837821779 3912993.837821779 -1116982.347472308 0 0 0 0 0 103973689.1196302 -70170829.95637521 -70170829.95637521 53426015.99984444 0 0 0 0 0 117239529.5547703 -63005890.79871449 -63005890.79871449 42973476.54537074 0 0 0 0 0 119510898.2881447 -44824808.05516735 -44824808.05516735 21426613.40529415 0 0 0 0 0 125087378.397008 -54315756.21793458 -54315756.21793458 33756345.31797006 0 0 0 0 0 125556003.6320907 -39330759.88649581 -39330759.88649581 16908473.31107572 0 0 0 0 0 130265108.6501243 -34191250.55050731 -34191250.55050731 13315139.19370638 0 0 0 0 0 133788018.6996396 -29452026.73715045 -29452026.73715045 10519911.00372856 0 0 0 0 0 136310962.3651733 -25177098.96753947 -25177098.96753947 8375121.148899185 0 0 0 0 0 138040525.8109555 -21323859.04361837 -21323859.04361837 6713800.780989055 0 0 0 0 0 139129176.0009678 -17878322.14807371 -17878322.14807371 5461352.487447254 0 0 0 0 0 139712064.3428679 -14805164.9447599 -14805164.9447599 4517997.86072958 0 0 0 0 0 139911477.9865827 -12074599.62290587 -12074599.62290587 3831693.937200054 0 0 0 0 0 141365649.429284 -11979629.14835562 -11979629.14835562 2625723.380329625 0 0 0 0 0 137700274.0104801 -9288551.043302508 -9288551.043302508 1065566.493582161 0 0 0 0 0 137476408.5616904 -7322596.084582217 -7322596.084582217 849231.3924399213 0 0 0 0 0 137067437.4156251 -5574850.08646355 -5574850.08646355 739404.522012545 0 0 0 0 0 136516521.1208178 -4024937.236652672 -4024937.236652672 710617.4570894074 0 0 0 0 0 134360139.1966232 -2860951.500672505 -2860951.500672505 -1011155.21108243 0 0 0 0 0 136770911.3236184 -4289382.463595425 -4289382.463595425 -589101.535793451 0 0 0 0 0 133721095.2222715 -1709674.151473276 -1709674.151473276 -860248.6380813743 0 0 0 0 0 133017023.5080589 -688330.9306070692 -688330.9306070692 -681322.1258030589 0 0 0 0 0 132268091.3878288 216334.7409502538 216334.7409502538 -483092.5467225253 0 0 0 0 0 131486696.0924581 1014675.573582983 1014675.573582983 -274129.4842345015 0 0 0 0 0 130688406.1348326 1717425.966165614 1717425.966165614 -61717.47746663552 0 0 0 0 0 129870472.1043874 2334132.539924532 2334132.539924532 151534.4301551434 0 0 0 0 0 129441460.0436011 1906845.000836281 1906845.000836281 -1032507.42965514 0 0 0 0 0 128194512.5729143 2440053.641047555 2440053.641047555 -895082.4975388937 0 0 0 0 0 127435906.8973841 2909113.745944124 2909113.745944124 -654553.013778921 0 0 0 0 0 126683133.0261203 3320942.956100077 3320942.956100077 -413853.0920220869 0 0 0 0 0 125938788.8538995 3683898.037898569 3683898.037898569 -179132.4937086329 0 0 0 0 0 125201653.091871 3999523.669725202 3999523.669725202 44556.3191261915 0 0 0 0 0 124478918.8762424 4270699.461489518 4270699.461489518 256642.557562989 0 0 0 0 0 123989404.2981891 3880190.012018875 3880190.012018875 -713305.5001992593 0 0 0 0 0 123243046.6475715 4100981.626040365 4100981.626040365 -484326.3388867196 0 0 0 0 0 122592728.0016107 4312120.411189129 4312120.411189129 -262935.4650764567 0 0 0 0 0 121661061.5933951 3571470.635273933 3571470.635273933 -1956731.381682635 0 0 0 0 0 121060023.1567351 3765513.032529918 3765513.032529918 -1709061.410731503 0 0 0 0 0 120061147.440135 3559845.800053611 3559845.800053611 -2200040.689268337 0 0 0 0 0 120485909.0716179 3878159.975793866 3878159.975793866 -1434932.957657941 0 0 0 0 0 119517082.3317177 3715704.090721121 3715704.090721121 -1960298.968683022 0 0 0 0 0 118989661.6518613 3853989.356145213 3853989.356145213 -1724742.444538593 0 0 0 0 0 118473890.2075202 3974143.199894833 3974143.199894833 -1500928.038209739 0 0 0 0 0 117971717.9117869 4076472.428917925 4076472.428917925 -1289306.265898602 0 0 0 0 0 117201544.5029133 3846450.509055313 3846450.509055313 -1670410.791971052 0 0 0 0 0 117586665.1468019 4120002.404436931 4120002.404436931 -1035531.410885122 0 0 0 0 0 116747697.8516045 3930495.941013582 3930495.941013582 -1463942.714550073 0 0 0 0 0 116305354.3733579 4001228.351920113 4001228.351920113 -1272121.11566668 0 0 0 0 0 115882496.6775335 4062800.240795107 4062800.240795107 -1089530.356993644 0 0 0 0 0 115463745.4136478 4110595.150933047 4110595.150933047 -917806.9357433973 0 0 0 0 0 115057758.270005 4145374.61874413 4145374.61874413 -761049.2799865342 0 0 0 0 0 114808663.7629962 4144273.773917403 4144273.773917403 -551975.6244391073 0 0 0 0 0 114108256.4777975 3945622.777743187 3945622.777743187 -920681.9656910842 0 0 0 0 0 114436222.7585471 4170129.725660441 4170129.725660441 -407329.1595073096 0 0 0 0 0 113752926.0972022 3969049.079013271 3969049.079013271 -772274.0638431349 0 0 0 0 0 113408251.0790733 3985440.264984599 3985440.264984599 -632490.1453142161 0 0 0 0 0 113073552.6662859 3995502.045514389 3995502.045514389 -500704.6186940882 0 0 0 0 0 112748829.4647296 4000070.590927365 4000070.590927365 -376618.1342587057 0 0 0 0 0 112300568.2598029 3787925.820913043 3787925.820913043 -646047.3054530678 0 0 0 0 0 112585177.4789704 3980233.476448922 3980233.476448922 -210647.5636472398 0 0 0 0 0 112004488.9637969 3790877.993419193 3790877.993419193 -525072.4003719402 0 0 0 0 0 111717144.0828874 3789530.466866876 3789530.466866876 -410633.7228068264 0 0 0 0 0 111438362.8337921 3784085.025671906 3784085.025671906 -302391.6978415507 0 0 0 0 0 111168053.9831379 3774782.029942504 3774782.029942504 -200259.889081363 0 0 0 0 0 110905938.8158401 3761969.549008521 3761969.549008521 -103869.1961961168 0 0 0 0 0 110550355.553872 3721175.598757266 3721175.598757266 106652.3285416893 0 0 0 0 0 110654839.071091 3746916.513389744 3746916.513389744 -13386.16880308692 0 0 0 0 0 110305175.9318997 3561198.253835512 3561198.253835512 -249799.3372875962 0 0 0 0 0 110093320.4674658 3527522.851748005 3527522.851748005 -187344.9573859361 0 0 0 0 0 109885076.3895736 3460687.332708392 3460687.332708392 -192762.2448597717 0 0 0 0 0 122129183.4414125 3954194.481215389 3954194.481215389 -1139425.996791473 0 0 0 0 0 101883928.2408007 -69073871.00853069 -69073871.00853069 47279542.38190976 0 0 0 0 0 116450421.2513755 -62627487.75917472 -62627487.75917472 38758807.25352165 0 0 0 0 0 131568437.8182108 -47444838.93372806 -47444838.93372806 26088715.03498968 0 0 0 0 0 122407983.3810511 -49524049.01464062 -49524049.01464062 27020795.38871592 0 0 0 0 0 126103130.2565861 -55701751.38306992 -55701751.38306992 32738919.61309635 0 0 0 0 0 136656630.3837531 -41756156.61426639 -41756156.61426639 21209622.32980596 0 0 0 0 0 140112951.1543421 -36238056.03874338 -36238056.03874338 17059770.74422146 0 0 0 0 0 142323326.2909259 -31139723.38878965 -31139723.38878965 13707147.02494461 0 0 0 0 0 143670340.2186513 -26550976.39998405 -26550976.39998405 11067111.52654772 0 0 0 0 0 144379926.6484565 -22459142.89433168 -22459142.89433168 9000724.521769293 0 0 0 0 0 144562708.0813058 -18822468.95933805 -18822468.95933805 7401792.901612896 0 0 0 0 0 144370624.9605449 -15586787.92616022 -15586787.92616022 6162688.695664368 0 0 0 0 0 143876755.3843141 -12725604.6115569 -12725604.6115569 5221981.377135897 0 0 0 0 0 139799708.3699599 -9656030.495338304 -9656030.495338304 3343112.504837524 0 0 0 0 0 140849278.2510359 -9686553.25268857 -9686553.25268857 2088453.38735469 0 0 0 0 0 140162597.8405227 -7652524.610446798 -7652524.610446798 1715388.356964924 0 0 0 0 0 139349682.2698554 -5850789.304079107 -5850789.304079107 1472547.110142528 0 0 0 0 0 138444256.8226273 -4258831.915939418 -4258831.915939418 1330394.572217899 0 0 0 0 0 135933662.9787975 -2968959.125596659 -2968959.125596659 -561624.6682239993 0 0 0 0 0 135855000.8326928 -2653942.39089166 -2653942.39089166 743312.8983662773 0 0 0 0 0 135045628.4644294 -1798649.005691754 -1798649.005691754 -482956.1793948702 0 0 0 0 0 134126688.9151833 -762683.880153264 -762683.880153264 -365027.3385207166 0 0 0 0 0 133184107.5645777 150983.6477378264 150983.6477378264 -219552.0731792909 0 0 0 0 0 132232270.2213946 955716.6518967421 955716.6518967421 -55814.49575402533 0 0 0 0 0 131280710.7589855 1662128.643741348 1662128.643741348 117486.5374698023 0 0 0 0 0 130338754.3595415 2280921.368255184 2280921.368255184 299610.4047994555 0 0 0 0 0 129053548.1087816 2875176.096772392 2875176.096772392 361581.9798275612 0 0 0 0 0 128584208.399932 2439507.590778142 2439507.590778142 -802877.6722503073 0 0 0 0 0 127733707.3267391 2906280.177870063 2906280.177870063 -582409.9109532627 0 0 0 0 0 126900357.1464825 3317492.11093296 3317492.11093296 -359521.5835626006 0 0 0 0 0 126088087.6798604 3676059.964243574 3676059.964243574 -138021.4659507703 0 0 0 0 0 125291995.2133595 3986908.644796821 3986908.644796821 74694.00638219739 0 0 0 0 0 124518022.7399433 4256718.858514532 4256718.858514532 275494.1253773831 0 0 0 0 0 123773373.4871495 4504551.88405337 4504551.88405337 458343.0460286362 0 0 0 0 0 123279120.2052081 4119054.208220878 4119054.208220878 -487983.7260678224 0 0 0 0 0 122587753.3660512 4325131.627135368 4325131.627135368 -272955.3527072586 0 0 0 0 0 121508062.6590857 4104711.744372841 4104711.744372841 -885380.6199253903 0 0 0 0 0 120914739.3499424 4265342.463407208 4265342.463407208 -673261.7661182835 0 0 0 0 0 119940855.1180189 4027352.297735354 4027352.297735354 -1214412.929339879 0 0 0 0 0 120468491.6314755 3932036.622767205 3932036.622767205 -1477143.353604708 0 0 0 0 0 119409813.4887882 4159190.540969791 4159190.540969791 -998681.8031975827 0 0 0 0 0 118889545.8710895 4273330.103801727 4273330.103801727 -792586.2558982357 0 0 0 0 0 118384852.0977221 4371454.999786934 4371454.999786934 -594624.4429855865 0 0 0 0 0 117891958.1679067 4451703.794254397 4451703.794254397 -414434.9738846924 0 0 0 0 0 117126215.8938613 4198130.764846741 4198130.764846741 -845007.2019930597 0 0 0 0 0 117484867.658276 4163273.661212138 4163273.661212138 -1089297.485365157 0 0 0 0 0 116678320.8733663 4262653.487621642 4262653.487621642 -666838.2149408162 0 0 0 0 0 116245679.7202118 4316633.672190334 4316633.672190334 -500911.9935604907 0 0 0 0 0 115819579.070989 4359343.642234164 4359343.642234164 -340495.8404238685 0 0 0 0 0 115412627.7433941 4390890.250140635 4390890.250140635 -193477.8400868201 0 0 0 0 0 115017517.548256 4415043.040527127 4415043.040527127 -54152.17804385997 0 0 0 0 0 114668056.1054833 4174515.328072039 4174515.328072039 -606139.9221320109 0 0 0 0 0 114074494.5270068 4188643.499503563 4188643.499503563 -271177.3803492441 0 0 0 0 0 114289405.40773 4196226.705961288 4196226.705961288 -460161.6007833187 0 0 0 0 0 113723545.2382434 4200239.476481042 4200239.476481042 -143438.6445057286 0 0 0 0 0 113382667.9749513 4205649.071367383 4205649.071367383 -23089.54858945062 0 0 0 0 0 113051892.7062811 4205503.941579002 4205503.941579002 90119.92085162902 0 0 0 0 0 112731586.5452897 4200400.69204489 4200400.69204489 195859.3438580318 0 0 0 0 0 112282522.8957879 3978395.232057512 3978395.232057512 -100738.9723238472 0 0 0 0 0 112434935.5503115 3999598.335927174 3999598.335927174 -259658.8099923671 0 0 0 0 0 111989097.8694864 3972723.293951381 3972723.293951381 3498.758774678213 0 0 0 0 0 111704285.6999456 3963072.287772876 3963072.287772876 101936.6789918217 0 0 0 0 0 111427921.9913819 3949691.035672806 3949691.035672806 194508.5061453382 0 0 0 0 0 111159582.3808529 3932870.170905021 3932870.170905021 282343.1462956885 0 0 0 0 0 110900134.9975795 3913196.975639549 3913196.975639549 365416.7005293377 0 0 0 0 0 110409082.7441927 3730564.297126388 3730564.297126388 66218.01199720603 0 0 0 0 0 110648315.4046176 3890244.381666466 3890244.381666466 444321.023263959 0 0 0 0 0 110359719.6789292 3702810.134552128 3702810.134552128 170725.5958222871 0 0 0 0 0 110179908.7787358 3651468.016330488 3651468.016330488 121521.445083354 0 0 0 0 0 121957799.3689834 4493242.38580571 4493242.38580571 -53881.81806579937 0 0 0 0 0 118795874.1566652 -74515537.01335952 -74515537.01335952 53436726.28646587 0 0 0 0 0 130214352.2498745 -66744248.57798005 -66744248.57798005 43239880.45847444 0 0 0 0 0 128129825.9971645 -43962343.39131775 -43962343.39131775 21940649.5475259 0 0 0 0 0 135708091.6325612 -52542845.01224029 -52542845.01224029 31400203.5477419 0 0 0 0 0 126871535.1011423 -56262291.0633847 -56262291.0633847 32763973.49629816 0 0 0 0 0 133085093.2581295 -38084684.12015422 -38084684.12015422 17543584.17471644 0 0 0 0 0 136740453.3736572 -32556868.54966765 -32556868.54966765 14280650.22357624 0 0 0 0 0 139251392.3626334 -27611027.33538096 -27611027.33538096 11762295.31297611 0 0 0 0 0 140919058.7223662 -23242103.37135329 -23242103.37135329 9858504.341824749 0 0 0 0 0 141918016.5994734 -19319471.30611068 -19319471.30611068 8364149.181303044 0 0 0 0 0 142345401.1689257 -15879469.67567627 -15879469.67567627 7222221.610743527 0 0 0 0 0 142372277.8658178 -12849734.10681878 -12849734.10681878 6371348.003664332 0 0 0 0 0 142102751.7417567 -10184907.78114831 -10184907.78114831 5745660.139005779 0 0 0 0 0 143165627.6164088 -10203403.6333087 -10203403.6333087 4519647.80687157 0 0 0 0 0 139445473.2462375 -7519162.282372574 -7519162.282372574 3009112.804726249 0 0 0 0 0 138905638.9828314 -5633672.369397989 -5633672.369397989 2795120.242559107 0 0 0 0 0 138224364.9165444 -3973631.153817126 -3973631.153817126 2673157.195708583 0 0 0 0 0 137437929.6618263 -2514733.095633853 -2514733.095633853 2621282.474376423 0 0 0 0 0 135111174.0946569 -1443462.697807122 -1443462.697807122 821762.8975914058 0 0 0 0 0 137473753.3846289 -2854535.883395635 -2854535.883395635 1266631.365576618 0 0 0 0 0 134307549.6230046 -376971.435322185 -376971.435322185 933582.6033509328 0 0 0 0 0 133460363.1960673 561186.3335583914 561186.3335583914 1069515.994492672 0 0 0 0 0 132588592.9272141 1385400.444858997 1385400.444858997 1220748.668592851 0 0 0 0 0 131701635.5593063 2106615.728991849 2106615.728991849 1380526.166479226 0 0 0 0 0 130810028.0836915 2735502.946444861 2735502.946444861 1542592.177071768 0 0 0 0 0 129915223.1290034 3281268.891962821 3281268.891962821 1705345.176943908 0 0 0 0 0 129406226.7912235 2822005.439730179 2822005.439730179 481903.2115729483 0 0 0 0 0 128227747.0770599 3342869.980509491 3342869.980509491 560371.1275991384 0 0 0 0 0 127411010.2384543 3748706.493512024 3748706.493512024 756144.3956455744 0 0 0 0 0 126613442.6823784 4105495.792465514 4105495.792465514 949673.9442667245 0 0 0 0 0 125828563.9783058 4413447.276190946 4413447.276190946 1137624.468226594 0 0 0 0 0 125059697.4196096 4676851.531399105 4676851.531399105 1314153.807911217 0 0 0 0 0 124310754.1369002 4902654.042036912 4902654.042036912 1481913.947706238 0 0 0 0 0 123766187.7341732 4488089.937058263 4488089.937058263 467820.7660878708 0 0 0 0 0 123084119.6851016 4705024.596796492 4705024.596796492 649638.0880028395 0 0 0 0 0 122412337.9650262 4875600.781299133 4875600.781299133 830784.6057945535 0 0 0 0 0 121486756.0649071 4137684.000790045 4137684.000790045 -913642.5066578194 0 0 0 0 0 120867427.1556367 4294452.406791993 4294452.406791993 -704891.6790346318 0 0 0 0 0 119892996.7076309 4075328.254628222 4075328.254628222 -1259279.467941807 0 0 0 0 0 120339732.8896877 4404762.759014871 4404762.759014871 -473299.4497967918 0 0 0 0 0 119337205.7972543 4201640.452386198 4201640.452386198 -1044982.844278165 0 0 0 0 0 118797980.8588369 4310191.19140487 4310191.19140487 -839423.2578255486 0 0 0 0 0 118271315.2349012 4402754.5318529 4402754.5318529 -643019.8809878497 0 0 0 0 0 117764227.4820089 4477735.392897356 4477735.392897356 -462675.599445775 0 0 0 0 0 117012423.5133031 4236445.933480098 4236445.933480098 -898262.6093865526 0 0 0 0 0 117412960.1942246 4518458.628466645 4518458.628466645 -241132.0083342892 0 0 0 0 0 116553601.9402501 4296829.292480512 4296829.292480512 -719875.1115584014 0 0 0 0 0 116108329.8757601 4344783.888637649 4344783.888637649 -552876.1301868887 0 0 0 0 0 115677982.9088299 4384065.635498119 4384065.635498119 -391145.6979363477 0 0 0 0 0 115259869.4431886 4412258.607746425 4412258.607746425 -244516.8754052227 0 0 0 0 0 114855425.7820122 4432009.966499162 4432009.966499162 -104431.6444756835 0 0 0 0 0 114632160.35086 4431274.774826184 4431274.774826184 77937.18804249704 0 0 0 0 0 113922217.361883 4210753.316752587 4210753.316752587 -322596.2286447397 0 0 0 0 0 114257780.3378161 4440274.329920205 4440274.329920205 201740.4037494283 0 0 0 0 0 113566419.7000661 4218634.376594923 4218634.376594923 -193474.5289291632 0 0 0 0 0 113221751.2312108 4220739.306748119 4220739.306748119 -71783.73370854912 0 0 0 0 0 112887957.0604102 4217685.248762998 4217685.248762998 42657.00870823796 0 0 0 0 0 112564173.5216316 4209394.072592251 4209394.072592251 149939.4212274708 0 0 0 0 0 112130696.447958 3995037.589132953 3995037.589132953 -148354.0060675326 0 0 0 0 0 112419794.2696478 4190446.79545529 4190446.79545529 294977.5485226923 0 0 0 0 0 111835226.1430525 3986444.118509147 3986444.118509147 -42607.75942950427 0 0 0 0 0 111548917.8046402 3974206.239266752 3974206.239266752 57251.11774040884 0 0 0 0 0 111271701.2645825 3958605.025665934 3958605.025665934 151169.8518384074 0 0 0 0 0 111003674.4836684 3940388.710444215 3940388.710444215 240010.8571789544 0 0 0 0 0 110746076.5900747 3920145.246151265 3920145.246151265 324043.0019517282 0 0 0 0 0 110388856.2772798 3857498.071338053 3857498.071338053 493716.786856631 0 0 0 0 0 110508207.4674269 3903699.60712922 3903699.60712922 402559.3971330351 0 0 0 0 0 110154764.8794206 3699818.529950092 3699818.529950092 145825.5826833363 0 0 0 0 0 109907714.4784667 3632893.878385749 3632893.878385749 161147.6902747825 0 0 0 0 0 121915251.6849424 4501229.786625703 4501229.786625703 -69482.33714583304 0 0 0 0 0 116274602.1003157 -73048272.62266195 -73048272.62266195 46339186.87922442 0 0 0 0 0 127556232.1297233 -65058397.9066571 -65058397.9066571 37913793.34781171 0 0 0 0 0 140600412.0747378 -47049335.7254438 -47049335.7254438 26980945.36126841 0 0 0 0 0 132378099.7892777 -49336978.01148398 -49336978.01148398 26604390.07837034 0 0 0 0 0 138216989.4265698 -58653208.20168644 -58653208.20168644 35849756.81715681 0 0 0 0 0 144350732.8424436 -40618399.46771014 -40618399.46771014 21956866.10289444 0 0 0 0 0 146390435.8702699 -34635888.16103636 -34635888.16103636 18000275.50507545 0 0 0 0 0 147488416.0418458 -29321095.52192655 -29321095.52192655 14893335.87763157 0 0 0 0 0 147950101.0328935 -24626087.50272707 -24626087.50272707 12471996.113807 0 0 0 0 0 147886348.9453178 -20514546.62168269 -20514546.62168269 10606005.90312799 0 0 0 0 0 147407930.7601335 -16872438.23104222 -16872438.23104222 9108290.058336344 0 0 0 0 0 146662165.4391433 -13682129.39620775 -13682129.39620775 7962762.889602754 0 0 0 0 0 145713170.7875174 -10890554.33820111 -10890554.33820111 7088285.216301495 0 0 0 0 0 141587471.3159342 -7848308.478946123 -7848308.478946123 5291970.952563069 0 0 0 0 0 142292900.5349993 -7982726.714572775 -7982726.714572775 4004818.29637946 0 0 0 0 0 141303606.5907378 -6030691.054019868 -6030691.054019868 3638165.110526195 0 0 0 0 0 140233238.9112672 -4317664.383567241 -4317664.383567241 3387186.780605154 0 0 0 0 0 139110544.3660246 -2816042.265522861 -2816042.265522861 3225887.066749376 0 0 0 0 0 136460641.4802193 -1617963.585684252 -1617963.585684252 1262987.78230768 0 0 0 0 0 136575101.524427 -1234901.103799195 -1234901.103799195 2622503.646573272 0 0 0 0 0 135422630.5226928 -531287.2143348788 -531287.2143348788 1305097.578117242 0 0 0 0 0 134375574.350691 422875.2222185488 422875.2222185488 1382375.796668914 0 0 0 0 0 133326692.4966329 1258860.191861966 1258860.191861966 1483199.154477617 0 0 0 0 0 132283025.1387601 1988366.150824741 1988366.150824741 1599872.022810112 0 0 0 0 0 131256474.4696107 2623722.837503827 2623722.837503827 1725298.469976193 0 0 0 0 0 130248563.8315483 3174820.495942926 3174820.495942926 1857486.417187831 0 0 0 0 0 129030509.7483879 3754575.35914219 3754575.35914219 1861720.376008375 0 0 0 0 0 128489467.6972786 3290449.447432124 3290449.447432124 658694.2415843029 0 0 0 0 0 127596354.7447098 3700701.610045388 3700701.610045388 833156.6591944279 0 0 0 0 0 126724653.0864361 4055636.124003227 4055636.124003227 1010221.07424341 0 0 0 0 0 125878357.8289747 4362726.525695026 4362726.525695026 1183995.519129489 0 0 0 0 0 125056690.4782658 4625326.979048216 4625326.979048216 1348448.341372238 0 0 0 0 0 124261399.5675486 4849189.43811122 4849189.43811122 1506444.119325544 0 0 0 0 0 123581492.7103259 5093560.793849471 5093560.793849471 1639825.467496331 0 0 0 0 0 123037124.2691546 4685688.567854582 4685688.567854582 651553.9048933109 0 0 0 0 0 122330883.6852951 4853522.87050187 4853522.87050187 826332.7521306032 0 0 0 0 0 121343545.2847929 4647679.958028714 4647679.958028714 139190.8922783043 0 0 0 0 0 120738168.337854 4775858.504860297 4775858.504860297 317618.7601927108 0 0 0 0 0 119780703.9282401 4523365.554427821 4523365.554427821 -278661.1384701108 0 0 0 0 0 120264688.3296029 4428373.984738044 4428373.984738044 -507503.5451247597 0 0 0 0 0 119236970.8229107 4625608.354102856 4625608.354102856 -93448.77090681081 0 0 0 0 0 118707660.8901088 4712833.185342883 4712833.185342883 87780.13190979647 0 0 0 0 0 118195538.7264123 4783040.60856866 4783040.60856866 250995.8963743106 0 0 0 0 0 117693724.3599172 4836821.649502255 4836821.649502255 401651.3737166681 0 0 0 0 0 116947965.5417416 4572883.601083468 4572883.601083468 -78864.3022130942 0 0 0 0 0 117271481.5951981 4540110.955126658 4540110.955126658 -289665.9852728035 0 0 0 0 0 116496675.8901068 4615277.132144685 4615277.132144685 73147.71168178199 0 0 0 0 0 116057799.7279507 4647347.108471395 4647347.108471395 216130.9756822274 0 0 0 0 0 115633243.0182526 4670409.163960014 4670409.163960014 349875.962601932 0 0 0 0 0 115221094.3815796 4684115.346047902 4684115.346047902 474828.6481327752 0 0 0 0 0 114821485.3143131 4690005.07909254 4690005.07909254 592040.1720345317 0 0 0 0 0 114463975.3790902 4444336.98926875 4444336.98926875 28858.90863544472 0 0 0 0 0 113894793.2389295 4442773.628733352 4442773.628733352 317582.2005478856 0 0 0 0 0 114085027.2974242 4449750.820897133 4449750.820897133 154024.1036646958 0 0 0 0 0 113542697.7244369 4439395.953274786 4439395.953274786 425985.5980314676 0 0 0 0 0 113201382.3504325 4430872.800019213 4430872.800019213 527915.5661340958 0 0 0 0 0 112870513.0410936 4417546.477903026 4417546.477903026 623282.7337930046 0 0 0 0 0 112550308.8475176 4399795.654024528 4399795.654024528 711482.0970978742 0 0 0 0 0 112117250.1320053 4176973.472515033 4176973.472515033 388974.8041470893 0 0 0 0 0 112251159.0720974 4196899.573558096 4196899.573558096 250402.4961718813 0 0 0 0 0 111824156.3229413 4159961.803675405 4159961.803675405 477771.076171195 0 0 0 0 0 111540219.5228642 4139725.338419337 4139725.338419337 560841.1772301145 0 0 0 0 0 111264904.2703666 4116531.143415376 4116531.143415376 638584.0103154597 0 0 0 0 0 110998575.6415121 4090828.193131614 4090828.193131614 711920.2376253858 0 0 0 0 0 110742351.5614702 4063217.466339237 4063217.466339237 772851.9498504391 0 0 0 0 0 110351041.548784 3905818.04584388 3905818.04584388 458301.2675195485 0 0 0 0 0 110526994.5139971 4023138.912953981 4023138.912953981 795027.018325288 0 0 0 0 0 110210041.1256233 3834309.370960951 3834309.370960951 494050.7763542322 0 0 0 0 0 121760127.0502965 5019237.63844452 5019237.63844452 1001571.091676596 0 0 0 0 0 133988378.3036432 -78375286.48786384 -78375286.48786384 52329074.57241051 0 0 0 0 0 143245920.2466177 -69292661.49732809 -69292661.49732809 43148523.57299823 0 0 0 0 0 136411160.8500523 -42877206.48891404 -42877206.48891404 21833492.79602185 0 0 0 0 0 145234653.8597914 -52368533.98549902 -52368533.98549902 31181701.90081022 0 0 0 0 0 136141943.0020692 -57312181.39228369 -57312181.39228369 33246407.07328971 0 0 0 0 0 140273916.4386774 -36313775.72322638 -36313775.72322638 18143207.06459963 0 0 0 0 0 142735102.1496691 -30570087.89687708 -30570087.89687708 15246420.7714223 0 0 0 0 0 144266824.7233063 -25538271.2795729 -25538271.2795729 13054544.90612529 0 0 0 0 0 145100210.7505592 -21096751.93909005 -21096751.93909005 11338443.60686145 0 0 0 0 0 145312643.0743109 -17217999.69069108 -17217999.69069108 10009025.00413208 0 0 0 0 0 145133468.0909891 -13837508.02445942 -13837508.02445942 9001608.93591792 0 0 0 0 0 144647517.096098 -10891811.24735741 -10891811.24735741 8246030.033204584 0 0 0 0 0 143934923.441022 -8327212.081403639 -8327212.081403639 7678308.41577123 0 0 0 0 0 144619954.5000337 -8454794.400772458 -8454794.400772458 6429084.821335584 0 0 0 0 0 140889008.8720407 -5802690.544379811 -5802690.544379811 4971732.651001854 0 0 0 0 0 140054958.5082134 -4014601.976277624 -4014601.976277624 4754155.067187441 0 0 0 0 0 139123437.6647516 -2453874.680555485 -2453874.680555485 4614507.109768286 0 0 0 0 0 138123164.3540177 -1094045.367890702 -1094045.367890702 4534677.576750332 0 0 0 0 0 135658523.4188069 -114520.0111700766 -114520.0111700766 2662839.710087585 0 0 0 0 0 137956080.2380754 -1502354.112851284 -1502354.112851284 3134364.547288106 0 0 0 0 0 134707114.8849492 864230.051720805 864230.051720805 2731284.750591075 0 0 0 0 0 133734107.419798 1718039.025629 1718039.025629 2819466.738412046 0 0 0 0 0 132753632.8592487 2461339.649700501 2461339.649700501 2920140.762586731 0 0 0 0 0 131775193.3470456 3105481.710857306 3105481.710857306 3027483.739846076 0 0 0 0 0 130802200.8083511 3660426.751337518 3660426.751337518 3135087.331735314 0 0 0 0 0 129844123.012752 4139054.133676689 4139054.133676689 3242272.808081129 0 0 0 0 0 129261394.1951635 3650623.656404674 3650623.656404674 1988597.3570207 0 0 0 0 0 128153201.7536925 4160466.195923299 4160466.195923299 2010842.212099829 0 0 0 0 0 127293029.2984674 4511736.773143988 4511736.773143988 2157600.027364459 0 0 0 0 0 126453960.7359079 4812970.987201994 4812970.987201994 2302659.697095353 0 0 0 0 0 125636610.5097818 5069662.578504736 5069662.578504736 2439547.618277841 0 0 0 0 0 124841315.8940707 5286048.68797389 5286048.68797389 2568606.0766341 0 0 0 0 0 124069432.6994075 5467395.973758362 5467395.973758362 2689919.146044549 0 0 0 0 0 123492000.2745008 5038488.397736367 5038488.397736367 1655852.235762521 0 0 0 0 0 122872096.3537846 5253579.358962844 5253579.358962844 1787892.301440581 0 0 0 0 0 122183884.3778283 5386225.421348713 5386225.421348713 1925779.4983942 0 0 0 0 0 121259718.1958093 4648782.472600503 4648782.472600503 118644.2139097649 0 0 0 0 0 120627258.9229021 4772720.02777165 4772720.02777165 293732.9223223153 0 0 0 0 0 119679768.5233137 4544023.858701065 4544023.858701065 -316838.2613982005 0 0 0 0 0 120147359.4122959 4882730.465692936 4882730.465692936 488733.4593053325 0 0 0 0 0 119115499.7315311 4640955.573986432 4640955.573986432 -132937.9382456273 0 0 0 0 0 118567434.7518938 4724081.488313541 4724081.488313541 46333.61957098794 0 0 0 0 0 118035868.7155421 4788515.089659248 4788515.089659248 209535.0976632272 0 0 0 0 0 117524874.1616827 4838811.960826705 4838811.960826705 359814.5069832964 0 0 0 0 0 116794793.4140087 4589770.728127539 4589770.728127539 -126971.1767208751 0 0 0 0 0 117210640.5282533 4880432.039533929 4880432.039533929 548391.48967213 0 0 0 0 0 116333412.302276 4627954.42445044 4627954.42445044 25493.18168909569 0 0 0 0 0 115886763.9168411 4656237.326935153 4656237.326935153 169195.4841483545 0 0 0 0 0 115454163.0906347 4674862.81264565 4674862.81264565 304022.357321195 0 0 0 0 0 115036027.8924785 4685439.43618933 4685439.43618933 429708.312898258 0 0 0 0 0 114631881.1534684 4688518.730688603 4688518.730688603 547731.8080689664 0 0 0 0 0 114434489.3716467 4689262.646109419 4689262.646109419 701958.5305695375 0 0 0 0 0 113718149.9457142 4448936.031582199 4448936.031582199 271231.9848206575 0 0 0 0 0 114059543.8350148 4682425.590431594 4682425.590431594 804516.3733724174 0 0 0 0 0 113363165.8267729 4442564.584273135 4442564.584273135 380965.8122147541 0 0 0 0 0 113019528.6941541 4431352.652607447 4431352.652607447 484133.1900658546 0 0 0 0 0 112687439.3376862 4415746.796776298 4415746.796776298 580855.6447082649 0 0 0 0 0 112365764.8100359 4395654.69021353 4395654.69021353 670393.9957649771 0 0 0 0 0 111947818.1225595 4180855.140389998 4180855.140389998 345884.5035581611 0 0 0 0 0 112239566.4393962 4378538.380549881 4378538.380549881 794265.7527587779 0 0 0 0 0 111654038.722227 4161654.781069039 4161654.781069039 435951.5041817198 0 0 0 0 0 111369679.9644321 4139240.390273562 4139240.390273562 520480.9703138618 0 0 0 0 0 111094686.6586686 4114155.208102021 4114155.208102021 599612.8036787666 0 0 0 0 0 110829438.0508305 4087282.376344278 4087282.376344278 674123.1026641568 0 0 0 0 0 110585523.3452896 4059467.919886214 4059467.919886214 739311.1702364568 0 0 0 0 0 110179573.2576844 3946500.8257708 3946500.8257708 789686.7863434039 0 0 0 0 0 110342770.1474042 4029057.774999954 4029057.774999954 774985.2156666599 0 0 0 0 0 109932071.8850331 3802290.040650018 3802290.040650018 561990.1666075583 0 0 0 0 0 121648531.9260285 4994759.699893579 4994759.699893579 991215.8214835678 0 0 0 0 0 130562189.905757 -76207659.99210565 -76207659.99210565 44954108.74991286 0 0 0 0 0 137734122.9253902 -64832041.39856096 -64832041.39856096 38457242.93607947 0 0 0 0 0 149790370.7128769 -46026810.31684697 -46026810.31684697 27081741.6584232 0 0 0 0 0 141001003.6239229 -49073798.3011471 -49073798.3011471 26056522.84558402 0 0 0 0 0 145617097.0474551 -61225728.13458779 -61225728.13458779 35163499.92233054 0 0 0 0 0 151296991.0969013 -38895929.83779688 -38895929.83779688 22532472.2315931 0 0 0 0 0 151985769.0328816 -32647182.01352429 -32647182.01352429 18865014.68056564 0 0 0 0 0 152103651.0208708 -27227569.14976374 -27227569.14976374 16063508.122055 0 0 0 0 0 151662190.8313659 -22530568.35616877 -22530568.35616877 13883601.55533166 0 0 0 0 0 150841016.7973226 -18437276.87389339 -18437276.87389339 12164757.93314179 0 0 0 0 0 149774327.4294931 -14859537.83929099 -14859537.83929099 10806219.25537727 0 0 0 0 0 148531529.0262097 -11766091.86938669 -11766091.86938669 9768377.853368599 0 0 0 0 0 147168607.4767453 -9084072.188626591 -9084072.188626591 8965263.89137567 0 0 0 0 0 143044329.2691848 -6096681.388584704 -6096681.388584704 7254057.692419236 0 0 0 0 0 143421893.0531713 -6329576.306456443 -6329576.306456443 5935301.942481159 0 0 0 0 0 142156574.8046349 -4477127.069550309 -4477127.069550309 5570903.950698534 0 0 0 0 0 140856659.0016651 -2863904.028927435 -2863904.028927435 5307447.681372427 0 0 0 0 0 139541776.9818325 -1461487.834312335 -1461487.834312335 5123337.828445684 0 0 0 0 0 136786974.6843596 -354982.8435953473 -354982.8435953473 3095985.980404289 0 0 0 0 0 137078865.3182178 89251.77497204547 89251.77497204547 4499650.275522992 0 0 0 0 0 135618803.7516798 645824.0301508845 645824.0301508845 3097479.118745699 0 0 0 0 0 134463244.3799747 1517549.063711112 1517549.063711112 3129692.325784256 0 0 0 0 0 133322381.84136 2274034.29141571 2274034.29141571 3183121.63813936 0 0 0 0 0 132199993.6087103 2928262.920557978 2928262.920557978 3249645.67084432 0 0 0 0 0 131108655.1494297 3492495.872350439 3492495.872350439 3322881.798515914 0 0 0 0 0 130048565.3561638 3977936.37340906 3977936.37340906 3401144.202664976 0 0 0 0 0 128903673.7970661 4548393.179600795 4548393.179600795 3344440.633289688 0 0 0 0 0 128300501.9526083 4060611.781815132 4060611.781815132 2114819.445889612 0 0 0 0 0 127369283.7634032 4413738.478086035 4413738.478086035 2243197.457625801 0 0 0 0 0 126468046.6298507 4717577.13615628 4717577.13615628 2370893.508049477 0 0 0 0 0 125598602.2943511 4975258.254469206 4975258.254469206 2494577.693488382 0 0 0 0 0 124758362.4759375 5192438.902043412 5192438.902043412 2612323.838810649 0 0 0 0 0 123945941.5468161 5373551.898917329 5373551.898917329 2724105.347920953 0 0 0 0 0 123321303.2263979 5617161.895690847 5617161.895690847 2803223.695958508 0 0 0 0 0 122748626.0567651 5196771.295379459 5196771.295379459 1796976.354113675 0 0 0 0 0 122030835.8105318 5327230.455562737 5327230.455562737 1929273.945414625 0 0 0 0 0 121129182.7768382 5138684.721395507 5138684.721395507 1158946.664795159 0 0 0 0 0 120512395.1424509 5235416.923903125 5235416.923903125 1305311.045545018 0 0 0 0 0 119578937.8097485 4973408.578264005 4973408.578264005 651632.9292166476 0 0 0 0 0 120016720.2973565 4878281.047539079 4878281.047539079 460525.0853479157 0 0 0 0 0 119024881.1790746 5048625.377861542 5048625.377861542 812256.984421596 0 0 0 0 0 118489401.192323 5108698.977840433 5108698.977840433 957263.2944776539 0 0 0 0 0 117969815.1317492 5151549.16440124 5151549.16440124 1086156.439275272 0 0 0 0 0 117463283.7249008 5181909.160071146 5181909.160071146 1211666.132154445 0 0 0 0 0 116740437.9428946 4911285.587252251 4911285.587252251 681608.0039595459 0 0 0 0 0 117028903.8074942 4878543.893487783 4878543.893487783 506192.9313045078 0 0 0 0 0 116284661.0893574 4932453.167918762 4932453.167918762 807289.6850683816 0 0 0 0 0 115843988.0703254 4944318.355294539 4944318.355294539 924706.0250455678 0 0 0 0 0 115416810.5396221 4948118.298404754 4948118.298404754 1033799.190112126 0 0 0 0 0 115003581.2878165 4944426.726071131 4944426.726071131 1135222.033122659 0 0 0 0 0 114603837.7329755 4934073.047126362 4934073.047126362 1229703.687007238 0 0 0 0 0 114241071.4359815 4684912.307418705 4684912.307418705 658702.3619133127 0 0 0 0 0 113696448.2735902 4670127.406765607 4670127.406765607 899980.811237517 0 0 0 0 0 113863307.4248131 4675391.656071818 4675391.656071818 762424.4989269616 0 0 0 0 0 113344630.6138945 4652952.616150579 4652952.616150579 989239.0639011852 0 0 0 0 0 113004381.1498193 4631544.640906944 4631544.640906944 1072393.734407957 0 0 0 0 0 112674887.7741038 4606051.400394504 4606051.400394504 1148935.847365706 0 0 0 0 0 112355866.4452452 4576929.551917917 4576929.551917917 1219927.677012662 0 0 0 0 0 111938367.8865191 4354124.911744405 4354124.911744405 872581.36079761 0 0 0 0 0 112054631.0851148 4372064.370308799 4372064.370308799 754674.3591183003 0 0 0 0 0 111646827.1332771 4326798.280849232 4326798.280849232 945754.3988027248 0 0 0 0 0 111364540.2363733 4296708.826266961 4296708.826266961 1013476.763728585 0 0 0 0 0 111091450.6855738 4264413.749986847 4264413.749986847 1075223.903905212 0 0 0 0 0 110831911.2163379 4228135.470851409 4228135.470851409 1131774.464698833 0 0 0 0 0 110585015.8774581 4192216.664321361 4192216.664321361 1163528.745822136 0 0 0 0 0 110207738.595547 4000824.10745973 4000824.10745973 829574.1027975536 0 0 0 0 0 110378813.2134245 4110566.578836301 4110566.578836301 979603.337835785 0 0 0 0 0 121515717.5575825 5494278.826506819 5494278.826506819 2055191.262751101 0 0 0 0 0 149707728.1210154 -80991073.06096357 -80991073.06096357 50924296.26995366 0 0 0 0 0 144524170.285282 -64980585.71773407 -64980585.71773407 38527927.95781778 0 0 0 0 0 144789939.3267455 -40915237.61665938 -40915237.61665938 21802689.27020806 0 0 0 0 0 155699898.5723625 -52281398.01372119 -52281398.01372119 31637841.13580404 0 0 0 0 0 153142144.6437006 -62194161.90726652 -62194161.90726652 35495465.28729659 0 0 0 0 0 146896856.6977167 -34145447.28033385 -34145447.28033385 18663863.31724828 0 0 0 0 0 148182374.0215116 -28305820.63027301 -28305820.63027301 16207999.59215933 0 0 0 0 0 148718807.1290303 -23245675.5008265 -23245675.5008265 14307790.84483 0 0 0 0 0 148721848.9370998 -18852870.26702664 -18852870.26702664 12840294.39192343 0 0 0 0 0 148260697.4491557 -15056020.22988723 -15056020.22988723 11690340.61632092 0 0 0 0 0 147495418.3636116 -11790165.84066705 -11790165.84066705 10812034.61190869 0 0 0 0 0 146531614.7125542 -8962419.968804585 -8962419.968804585 10138853.87095062 0 0 0 0 0 145409563.6715205 -6520972.731903674 -6520972.731903674 9617372.327445222 0 0 0 0 0 145724659.0059437 -6760471.143971027 -6760471.143971027 8345974.410851916 0 0 0 0 0 142029342.0915645 -4159274.92027616 -4159274.92027616 6939330.936542194 0 0 0 0 0 140928265.3978812 -2481220.822114499 -2481220.822114499 6711596.3458471 0 0 0 0 0 139770884.1121695 -1029124.80000596 -1029124.80000596 6549447.380696012 0 0 0 0 0 138580602.9452098 226051.3845524625 226051.3845524625 6436795.435008638 0 0 0 0 0 136008971.8856654 1116685.739827721 1116685.739827721 4496563.182633335 0 0 0 0 0 138227046.8441559 -243742.1644968031 -243742.1644968031 5000136.408144334 0 0 0 0 0 134927019.4551264 2005660.430090164 2005660.430090164 4515929.609658236 0 0 0 0 0 133842523.6989974 2774000.270345304 2774000.270345304 4552499.746383399 0 0 0 0 0 132767763.4143426 3436651.930361925 3436651.930361925 4599143.523499067 0 0 0 0 0 131713053.4597203 4006202.863425089 4006202.863425089 4648869.000316328 0 0 0 0 0 130675120.3109346 4491165.700510944 4491165.700510944 4700259.08518331 0 0 0 0 0 129660429.4037019 4903886.516802135 4903886.516802135 4750966.533243556 0 0 0 0 0 129015807.0086448 4391834.906533878 4391834.906533878 3479566.868413894 0 0 0 0 0 127982404.7225293 4897043.071179213 4897043.071179213 3441575.35611774 0 0 0 0 0 127083686.4321288 5192035.803804048 5192035.803804048 3539378.552384849 0 0 0 0 0 126214880.6402481 5441823.119497359 5441823.119497359 3633625.357173584 0 0 0 0 0 125369742.0294105 5649121.596441261 5649121.596441261 3718359.589468315 0 0 0 0 0 124553075.4339417 5821477.83807788 5821477.83807788 3799225.614604077 0 0 0 0 0 123764984.5907577 5962226.847765936 5962226.847765936 3874860.435386546 0 0 0 0 0 123162923.5502291 5523268.244639418 5523268.244639418 2829110.897125921 0 0 0 0 0 122597018.5232417 5738614.811205398 5738614.811205398 2907794.963421013 0 0 0 0 0 121896277.2102176 5835191.824923573 5835191.824923573 3003857.377473693 0 0 0 0 0 120985883.5588033 5110043.071846816 5110043.071846816 1144578.255893893 0 0 0 0 0 120347295.9103087 5204061.80427891 5204061.80427891 1287146.526833852 0 0 0 0 0 119426016.9295419 4964810.792830715 4964810.792830715 620911.7591907791 0 0 0 0 0 119914985.1138778 5314433.517268977 5314433.517268977 1443919.923577054 0 0 0 0 0 118855646.7752316 5037574.71120258 5037574.71120258 777971.1113631042 0 0 0 0 0 118304036.0184758 5092472.363195836 5092472.363195836 924195.5581426236 0 0 0 0 0 117769642.7020925 5131203.346415702 5131203.346415702 1053280.821024826 0 0 0 0 0 117257446.5891776 5160493.604588076 5160493.604588076 1175954.864509933 0 0 0 0 0 116551342.7816417 4906072.008053327 4906072.008053327 640014.810216291 0 0 0 0 0 116977347.4912355 5202677.688222775 5202677.688222775 1327050.813977326 0 0 0 0 0 116088835.6233671 4923803.934513321 4923803.934513321 766383.7992083851 0 0 0 0 0 115641633.0332959 4932722.785341099 4932722.785341099 884140.4994129377 0 0 0 0 0 115209725.6362238 4933563.350040721 4933563.350040721 994235.0398042444 0 0 0 0 0 114792731.8018255 4927374.124119367 4927374.124119367 1096495.627844669 0 0 0 0 0 114390307.5781263 4914876.186771701 4914876.186771701 1191690.848803554 0 0 0 0 0 114217258.999317 4918010.573806613 4918010.573806613 1317527.927755718 0 0 0 0 0 113498042.5527742 4660538.442954622 4660538.442954622 859167.6330162709 0 0 0 0 0 113843176.2397937 4896764.685856338 4896764.685856338 1398941.998507859 0 0 0 0 0 113145076.6842576 4641169.338002309 4641169.338002309 949536.4785714413 0 0 0 0 0 112803703.6745597 4617647.899752241 4617647.899752241 1033972.894077472 0 0 0 0 0 112474106.1639705 4590142.345114211 4590142.345114211 1112020.625026622 0 0 0 0 0 112155368.870567 4559348.345274105 4559348.345274105 1184262.090807797 0 0 0 0 0 111753464.3292501 4345774.887252951 4345774.887252951 834049.9719395523 0 0 0 0 0 112046704.9979757 4544870.189234027 4544870.189234027 1286651.087055018 0 0 0 0 0 111461919.0889915 4316611.371405614 4316611.371405614 908513.3297001943 0 0 0 0 0 111179819.1730232 4284504.179411362 4284504.179411362 977673.4196226026 0 0 0 0 0 110906011.6170263 4249138.595562364 4249138.595562364 1041342.492569739 0 0 0 0 0 110631409.1921353 4209394.132345156 4209394.132345156 1099143.3796644 0 0 0 0 0 110386456.6049389 4171587.254031722 4171587.254031722 1156177.089145877 0 0 0 0 0 109954312.4942636 3972361.541980023 3972361.541980023 996790.4379788965 0 0 0 0 0 110190433.1283056 4084471.76456595 4084471.76456595 1156190.334848413 0 0 0 0 0 121338770.5728438 5433664.567341874 5433664.567341874 2054071.505621005 0 0 0 0 0 144348014.6941362 -77570852.85253964 -77570852.85253964 42458979.88709047 0 0 0 0 0 158604372.2880024 -69269675.61760019 -69269675.61760019 41158464.41711997 0 0 0 0 0 157192570.7243206 -43789255.84396355 -43789255.84396355 26714715.8214917 0 0 0 0 0 149794591.9459922 -46253338.54726785 -46253338.54726785 25271093.51020334 0 0 0 0 0 148030803.9867013 -54893091.10273696 -54893091.10273696 29113197.47701468 0 0 0 0 0 157355284.1348277 -36557880.33716287 -36557880.33716287 22792737.6407569 0 0 0 0 0 156911098.150976 -30308940.52510121 -30308940.52510121 19650928.03420699 0 0 0 0 0 156012049.7358803 -24918518.06187324 -24918518.06187324 17183625.31805599 0 0 0 0 0 154774160.2940339 -20275064.65816001 -20275064.65816001 15254550.20836042 0 0 0 0 0 153284026.1356437 -16285013.08907428 -16285013.08907428 13734595.32168388 0 0 0 0 0 151672607.4854495 -12837325.80213929 -12837325.80213929 12522057.47208377 0 0 0 0 0 149978969.2121654 -9875383.471169366 -9875383.471169366 11582963.48652104 0 0 0 0 0 148243677.2133978 -7326865.553977477 -7326865.553977477 10842340.22994744 0 0 0 0 0 144175534.4146267 -4416471.913040048 -4416471.913040048 9211997.473307636 0 0 0 0 0 144236492.1603988 -4747031.962751902 -4747031.962751902 7866690.26851172 0 0 0 0 0 142729985.5355046 -3006354.077202721 -3006354.077202721 7499179.097120359 0 0 0 0 0 141230629.4720861 -1502604.716247426 -1502604.716247426 7219902.69028198 0 0 0 0 0 139752047.3805698 -204938.3643477023 -204938.3643477023 7009030.054153163 0 0 0 0 0 136923615.3318476 811306.8597055209 811306.8597055209 4922686.413159954 0 0 0 0 0 137376388.4787113 1309388.414413328 1309388.414413328 6360362.570823828 0 0 0 0 0 135643700.6185395 1723713.663096262 1723713.663096262 4878705.953711695 0 0 0 0 0 134392247.9522379 2510816.233893353 2510816.233893353 4862392.572049245 0 0 0 0 0 133175433.5336207 3189788.715994419 3189788.715994419 4863738.464809995 0 0 0 0 0 131990031.724571 3770635.772755453 3770635.772755453 4876459.9182484 0 0 0 0 0 130847069.1368507 4267348.931857713 4267348.931857713 4894682.608524281 0 0 0 0 0 129745309.3276504 4689420.974499868 4689420.974499868 4917811.257445539 0 0 0 0 0 128676491.3393901 5253448.367760485 5253448.367760485 4800786.558817293 0 0 0 0 0 128019974.4710028 4745652.192714128 4745652.192714128 3555647.380925792 0 0 0 0 0 127061626.3516456 5047123.227850487 5047123.227850487 3632604.173732434 0 0 0 0 0 126137032.7466276 5300556.955796308 5300556.955796308 3711303.989793992 0 0 0 0 0 125255274.1850805 5512800.169931972 5512800.169931972 3783783.863543076 0 0 0 0 0 124400082.8665378 5687167.591201114 5687167.591201114 3853764.467536462 0 0 0 0 0 123576111.9258687 5829181.184049872 5829181.184049872 3919530.346649896 0 0 0 0 0 123004446.7823614 6074148.448401415 6074148.448401415 3943920.680086964 0 0 0 0 0 122409934.4510825 5644806.210610803 5644806.210610803 2926719.831595052 0 0 0 0 0 121685636.7914963 5741512.83201866 5741512.83201866 3017073.617672599 0 0 0 0 0 120869892.7981611 5579388.946997769 5579388.946997769 2173237.404385746 0 0 0 0 0 120244346.2594232 5645823.968744551 5645823.968744551 2283604.265691985 0 0 0 0 0 119336276.0339874 5377787.540598346 5377787.540598346 1580517.339293686 0 0 0 0 0 119730775.2914204 5279743.23950815 5279743.23950815 1423429.105481218 0 0 0 0 0 118776905.3730754 5426366.536946665 5426366.536946665 1703580.163011054 0 0 0 0 0 118234605.9207976 5457872.985483724 5457872.985483724 1813469.701953414 0 0 0 0 0 117710539.6643296 5476606.770550657 5476606.770550657 1913110.596138843 0 0 0 0 0 117203786.0264736 5486642.71700096 5486642.71700096 2009129.934698734 0 0 0 0 0 116503637.2150462 5211895.966948162 5211895.966948162 1432522.067650935 0 0 0 0 0 116760144.9838908 5177724.258732159 5177724.258732159 1292729.676086876 0 0 0 0 0 116047031.6306721 5213366.040554406 5213366.040554406 1531441.025812695 0 0 0 0 0 115605281.3167153 5206751.165095102 5206751.165095102 1622959.083353476 0 0 0 0 0 115178391.0459033 5193224.178481316 5193224.178481316 1707450.900028777 0 0 0 0 0 114766040.1790355 5173435.338032214 5173435.338032214 1785168.017923688 0 0 0 0 0 114367556.1276909 5148148.613317616 5148148.613317616 1856959.208449233 0 0 0 0 0 114001557.2489197 4896679.717929616 4896679.717929616 1280501.312880247 0 0 0 0 0 113481225.0169957 4870907.273984906 4870907.273984906 1474266.437498871 0 0 0 0 0 113626188.2101807 4873484.905524742 4873484.905524742 1362961.595837646 0 0 0 0 0 113131125.920542 4841169.102005368 4841169.102005368 1544157.645137702 0 0 0 0 0 112793066.3090211 4807790.364710981 4807790.364710981 1607983.830031135 0 0 0 0 0 112465648.5595932 4771008.001076905 4771008.001076905 1666352.403826369 0 0 0 0 0 112148829.1266731 4731558.720816031 4731558.720816031 1720324.917081599 0 0 0 0 0 111747651.447118 4510511.582860362 4510511.582860362 1349064.402375568 0 0 0 0 0 111847090.9536663 4525955.608089852 4525955.608089852 1251789.636893533 0 0 0 0 0 111458335.9381399 4473551.029790324 4473551.029790324 1407182.132724659 0 0 0 0 0 111178435.4449921 4434122.016027538 4434122.016027538 1461661.839367269 0 0 0 0 0 110905840.1275527 4393425.304091251 4393425.304091251 1513866.335703136 0 0 0 0 0 110647762.9021247 4353747.906651471 4353747.906651471 1554210.442436965 0 0 0 0 0 110417546.1311684 4268404.219422586 4268404.219422586 1340168.591961935 0 0 0 0 0 110211233.2328743 4157932.618009914 4157932.618009914 1231622.887932417 0 0 0 0 0 121219413.2979019 5909902.435228431 5909902.435228431 3091368.00401193 0 0 0 0 0 165157478.9396539 -82657323.55323933 -82657323.55323933 48259064.7546745 0 0 0 0 0 152200323.004557 -65750749.61170323 -65750749.61170323 34834940.05197609 0 0 0 0 0 152006340.599512 -38311154.81108581 -38311154.81108581 21876314.65452877 0 0 0 0 0 164660685.78745 -49878248.08961058 -49878248.08961058 31272082.833536 0 0 0 0 0 165006889.7278415 -59122680.27559744 -59122680.27559744 36006950.51355356 0 0 0 0 0 152811322.3710346 -31577705.66007134 -31577705.66007134 19225835.18560312 0 0 0 0 0 152983097.5470475 -25771102.9767384 -25771102.9767384 17191164.98697812 0 0 0 0 0 152584828.8714938 -20797671.58649382 -20797671.58649382 15607243.72296459 0 0 0 0 0 151793955.2443647 -16537938.19834604 -16537938.19834604 14374840.7694119 0 0 0 0 0 150707891.5299002 -12884174.59273074 -12884174.59273074 13400579.55801523 0 0 0 0 0 149420697.5979955 -9761595.864442538 -9761595.864442538 12635123.37804831 0 0 0 0 0 148010705.1031038 -7086285.621917064 -7086285.621917064 12034171.99058874 0 0 0 0 0 146522087.0863279 -4792533.356795674 -4792533.356795674 11548861.91783652 0 0 0 0 0 146491200.8702788 -5135311.455071772 -5135311.455071772 10254744.45678808 0 0 0 0 0 142871748.2766873 -2605340.816858959 -2605340.816858959 8897007.859999303 0 0 0 0 0 141533298.1345734 -1047555.967940609 -1047555.967940609 8652828.670998096 0 0 0 0 0 140176557.0346162 289183.278706986 289183.278706986 8461825.310706297 0 0 0 0 0 138819289.7524177 1435812.822953229 1435812.822953229 8309863.596560218 0 0 0 0 0 136172729.958473 2241421.187561463 2241421.187561463 6308745.525550754 0 0 0 0 0 138299993.9717959 912483.5990483159 912483.5990483159 6850342.450093805 0 0 0 0 0 134977326.132061 3041401.792390697 3041401.792390697 6276317.664319573 0 0 0 0 0 133800758.0499163 3726680.623024362 3726680.623024362 6256654.666458673 0 0 0 0 0 132646516.7289048 4310762.851982594 4310762.851982594 6245511.617589246 0 0 0 0 0 131526317.5460968 4806764.153379017 4806764.153379017 6238435.341847514 0 0 0 0 0 130436007.9642165 5225462.200445406 5225462.200445406 6230957.644867702 0 0 0 0 0 129376448.4293783 5575631.157104482 5575631.157104482 6230440.972545669 0 0 0 0 0 128680503.2142724 5047013.032208431 5047013.032208431 4944357.818618467 0 0 0 0 0 127718814.0722584 5545293.404070719 5545293.404070719 4848187.535518314 0 0 0 0 0 126794122.8099028 5790484.693249563 5790484.693249563 4895350.490208961 0 0 0 0 0 125903840.1563872 5990891.123080299 5990891.123080299 4933608.357812979 0 0 0 0 0 125037117.42682 6153478.011871955 6153478.011871955 4967616.920859038 0 0 0 0 0 124205054.1378549 6285123.921483538 6285123.921483538 5002596.250798581 0 0 0 0 0 123405276.1300642 6388183.647831921 6388183.647831921 5032404.247165076 0 0 0 0 0 122784506.3765482 5942519.392009274 5942519.392009274 3980282.787300758 0 0 0 0 0 122270219.0906301 6160452.898809001 6160452.898809001 4004934.222710582 0 0 0 0 0 121562328.1961529 6224144.336730262 6224144.336730262 4058133.26989005 0 0 0 0 0 120671259.8410746 5517707.65618699 5517707.65618699 2167656.213285605 0 0 0 0 0 120028271.6590817 5582631.823748488 5582631.823748488 2274888.885792637 0 0 0 0 0 119136827.4293302 5341515.214949429 5341515.214949429 1554987.530284799 0 0 0 0 0 119639619.9644378 5696818.468327006 5696818.468327006 2393246.570961771 0 0 0 0 0 118563322.7068871 5386444.344665526 5386444.344665526 1679731.257588687 0 0 0 0 0 118010163.6758793 5416081.215072327 5416081.215072327 1788488.599469826 0 0 0 0 0 117477041.2047461 5433166.896400887 5433166.896400887 1886839.582847629 0 0 0 0 0 116964357.9447478 5440761.86381615 5440761.86381615 1982677.858356953 0 0 0 0 0 116283074.4049255 5184995.204741704 5184995.204741704 1398080.217411674 0 0 0 0 0 116716300.675252 5485695.265044173 5485695.265044173 2092675.944443102 0 0 0 0 0 115821431.5401905 5183807.924645605 5183807.924645605 1497590.120568586 0 0 0 0 0 115376140.2574015 5175163.538942891 5175163.538942891 1589722.520468588 0 0 0 0 0 114946451.9647926 5159729.095830249 5159729.095830249 1674819.627732448 0 0 0 0 0 114532150.9716264 5138261.360041147 5138261.360041147 1753244.432501924 0 0 0 0 0 114132688.3031885 5111536.227582206 5111536.227582206 1825699.447854574 0 0 0 0 0 113982593.574722 5118003.732114413 5118003.732114413 1922839.372171398 0 0 0 0 0 113263768.5613434 4845923.193508346 4845923.193508346 1439274.485140399 0 0 0 0 0 113610643.1036382 5083630.199484115 5083630.199484115 1983210.012825227 0 0 0 0 0 112913804.0639016 4814591.664276198 4814591.664276198 1510293.801115562 0 0 0 0 0 112575967.8343807 4779683.272283717 4779683.272283717 1575495.895684483 0 0 0 0 0 112249662.3259007 4741622.438008033 4741622.438008033 1635069.03912313 0 0 0 0 0 111934460.5043028 4701056.181830687 4701056.181830687 1689906.568715643 0 0 0 0 0 111549050.0199892 4490223.342498559 4490223.342498559 1315385.269910779 0 0 0 0 0 111842607.1452297 4690083.763460538 4690083.763460538 1770600.385480983 0 0 0 0 0 111260676.3915393 4452280.454201994 4452280.454201994 1374428.408669358 0 0 0 0 0 110982546.8325708 4412456.711137834 4412456.711137834 1429608.180159341 0 0 0 0 0 110716290.7236374 4372969.971187939 4372969.971187939 1482454.789577714 0 0 0 0 0 110471073.3163759 4335157.666885212 4335157.666885212 1527643.197304848 0 0 0 0 0 110183455.9237229 4238036.999565497 4238036.999565497 1576020.196851521 0 0 0 0 0 109945658.1076963 4119629.265820113 4119629.265820113 1369240.555809833 0 0 0 0 0 120989282.8494825 5816118.299694525 5816118.299694525 3100066.208680154 0 0 0 0 0 158586282.9106539 -78627226.4256348 -78627226.4256348 39769256.312361 0 0 0 0 0 170602578.9738793 -69817485.55903831 -69817485.55903831 39462444.06965864 0 0 0 0 0 163671389.4553771 -41077882.56351384 -41077882.56351384 26535482.50306883 0 0 0 0 0 158103375.8052665 -43168528.92552393 -43168528.92552393 24501876.52228503 0 0 0 0 0 157339333.3128915 -52711046.51042024 -52711046.51042024 28319055.46363619 0 0 0 0 0 162559069.309989 -33861594.50029915 -33861594.50029915 23096928.65961547 0 0 0 0 0 161028652.9022681 -27691031.01013653 -27691031.01013653 20415948.83937575 0 0 0 0 0 159228168.8124995 -22428446.18380238 -22428446.18380238 18303558.52854128 0 0 0 0 0 157259587.4027579 -17938616.64508482 -17938616.64508482 16634251.35424238 0 0 0 0 0 155189437.1210041 -14109225.24365657 -14109225.24365657 15310436.70694239 0 0 0 0 0 153093038.2859586 -10832367.82911316 -10832367.82911316 14242316.21582857 0 0 0 0 0 151009480.6316639 -8033523.196461638 -8033523.196461638 13392481.34940316 0 0 0 0 0 148949470.3592519 -5643655.543539782 -5643655.543539782 12709001.96215292 0 0 0 0 0 144982607.1383915 -2831550.588280875 -2831550.588280875 11152424.93039355 0 0 0 0 0 144749662.3475019 -3250993.295671584 -3250993.295671584 9785171.19788833 0 0 0 0 0 143037273.8252882 -1632969.396464171 -1632969.396464171 9410152.898630291 0 0 0 0 0 141368056.2828231 -246458.701247668 -246458.701247668 9110275.732785027 0 0 0 0 0 139748737.4245533 941726.0620075435 941726.0620075435 8867665.940384688 0 0 0 0 0 136880672.7607286 1872224.636743269 1872224.636743269 6729602.557015329 0 0 0 0 0 137476100.5025216 2417036.222416469 2417036.222416469 8186990.538796669 0 0 0 0 0 135506228.0750239 2696609.305996414 2696609.305996414 6637171.533051436 0 0 0 0 0 134180979.3690447 3403296.893741816 3403296.893741816 6567429.109484883 0 0 0 0 0 132900470.1445316 4004878.302890606 4004878.302890606 6514409.501563942 0 0 0 0 0 131666303.7682234 4515533.161020261 4515533.161020261 6471230.652098175 0 0 0 0 0 130483630.1930051 4946777.861874118 4946777.861874118 6434744.625435228 0 0 0 0 0 129352456.6356471 5311567.107084977 5311567.107084977 6403120.951820597 0 0 0 0 0 128359612.9831483 5868343.601353149 5868343.601353149 6226050.162393456 0 0 0 0 0 127660931.2817729 5347700.251060996 5347700.251060996 4969137.471453898 0 0 0 0 0 126682718.9847054 5599455.642927377 5599455.642927377 4998418.392850044 0 0 0 0 0 125746240.1762154 5806397.42203852 5806397.42203852 5023304.591584022 0 0 0 0 0 124850028.7712893 5973989.577681649 5973989.577681649 5045311.904936776 0 0 0 0 0 123986652.5325437 6110518.917115917 6110518.917115917 5067732.403168013 0 0 0 0 0 123158582.183264 6217268.271761121 6217268.271761121 5087538.713398705 0 0 0 0 0 122637941.5392164 6465967.779049515 6465967.779049515 5057653.553456734 0 0 0 0 0 122026834.6600342 6030681.541432065 6030681.541432065 4034606.076120043 0 0 0 0 0 121300493.6169364 6096222.22592081 6096222.22592081 4082330.01469605 0 0 0 0 0 120565940.1088959 5964891.699897434 5964891.699897434 3171714.848774188 0 0 0 0 0 119935651.8908369 6003399.363042816 6003399.363042816 3248202.04748096 0 0 0 0 0 119056379.6176709 5734078.86233815 5734078.86233815 2490900.398232287 0 0 0 0 0 119411512.0215162 5633665.923134848 5633665.923134848 2377756.804737557 0 0 0 0 0 118492642.4725511 5754769.832979686 5754769.832979686 2576503.461675729 0 0 0 0 0 117948573.4891371 5763045.889350839 5763045.889350839 2653461.36603942 0 0 0 0 0 117423449.6903296 5760584.854658654 5760584.854658654 2723717.203433524 0 0 0 0 0 116917149.5804342 5749428.74703078 5749428.74703078 2787768.697248332 0 0 0 0 0 116242906.0112245 5475970.170329152 5475970.170329152 2171654.204310725 0 0 0 0 0 116468701.3483989 5437484.172452619 5437484.172452619 2067306.378532214 0 0 0 0 0 115786067.7431705 5458662.92726861 5458662.92726861 2242677.247779938 0 0 0 0 0 115345549.583214 5435238.339555579 5435238.339555579 2308660.64647917 0 0 0 0 0 114920561.2510613 5406014.437474387 5406014.437474387 2368551.814682012 0 0 0 0 0 114510464.2703855 5371605.328501007 5371605.328501007 2422767.215030026 0 0 0 0 0 114114669.2456481 5332703.965819861 5332703.965819861 2471856.911716622 0 0 0 0 0 113747343.6707487 5080082.876383828 5080082.876383828 1892400.022060449 0 0 0 0 0 113251138.3794504 5045558.61076424 5045558.61076424 2038446.012292009 0 0 0 0 0 113375568.1665601 5044493.803896327 5044493.803896327 1953647.765498074 0 0 0 0 0 112904130.6045936 5004228.998915679 5004228.998915679 2088722.922091561 0 0 0 0 0 112568675.3475299 4959870.514390495 4959870.514390495 2133502.359159124 0 0 0 0 0 112244516.0941821 4913096.165282434 4913096.165282434 2174088.975961221 0 0 0 0 0 111931126.1840295 4864374.879756512 4864374.879756512 2211234.970455831 0 0 0 0 0 111546314.6652739 4646582.451493398 4646582.451493398 1816644.574792524 0 0 0 0 0 111629932.5200758 4658544.156730177 4658544.156730177 1741177.20712605 0 0 0 0 0 111259843.2160389 4601161.460726598 4601161.460726598 1859200.075001161 0 0 0 0 0 110982732.3375691 4554900.742738973 4554900.742738973 1897688.873813427 0 0 0 0 0 110718100.6325661 4505317.081368592 4505317.081368592 1924826.155909868 0 0 0 0 0 110450080.5591533 4451411.924014919 4451411.924014919 1899753.935675285 0 0 0 0 0 110207807.6455609 4305932.852014016 4305932.852014016 1631485.050855996 0 0 0 0 0 110356004.3323765 4391517.125322839 4391517.125322839 1673548.052590759 0 0 0 0 0 120880373.4654239 6268428.725931669 6268428.725931669 4104868.643728237 0 0 0 0 0 181144085.975201 -83138018.45434579 -83138018.45434579 45410248.08306094 0 0 0 0 0 168372161.2223444 -68192494.91896629 -68192494.91896629 35159877.13336315 0 0 0 0 0 158331186.8263328 -35360407.98669562 -35360407.98669562 21915257.5640169 0 0 0 0 0 171036923.3553768 -45976289.70959107 -45976289.70959107 29493577.68680197 0 0 0 0 0 172388967.8841225 -56216613.00136988 -56216613.00136988 34403879.39939541 0 0 0 0 0 157969306.6672026 -28696255.31073857 -28696255.31073857 19853033.65040355 0 0 0 0 0 157073353.5634194 -23049491.35991032 -23049491.35991032 18237753.69728809 0 0 0 0 0 155817466.2178062 -18257544.54510086 -18257544.54510086 16964027.83470633 0 0 0 0 0 154315289.1152929 -14188549.36283811 -14188549.36283811 15948399.98337567 0 0 0 0 0 152650826.0112379 -10728827.03668728 -10728827.03668728 15129205.59451 0 0 0 0 0 150896107.6872057 -7790114.284638572 -7790114.284638572 14464224.71965772 0 0 0 0 0 149095828.34882 -5290451.793643787 -5290451.793643787 13917866.25103268 0 0 0 0 0 147280510.8663185 -3164984.470633034 -3164984.470633034 13454382.33895265 0 0 0 0 0 146935275.6916965 -3600979.292114066 -3600979.292114066 12144175.83888254 0 0 0 0 0 143426944.1839907 -1156677.058966503 -1156677.058966503 10831064.03825146 0 0 0 0 0 141880571.4590056 272898.176666356 272898.176666356 10564321.12759781 0 0 0 0 0 140353373.7983072 1491937.218102892 1491937.218102892 10338258.74299932 0 0 0 0 0 138854826.2625238 2528961.792447359 2528961.792447359 10142116.9511204 0 0 0 0 0 136158756.0895786 3255376.146190829 3255376.146190829 8083982.851812383 0 0 0 0 0 138183039.0803576 1958512.894806 1958512.894806 8667592.329855705 0 0 0 0 0 134870409.1653725 3967368.481578197 3967368.481578197 7997731.850200123 0 0 0 0 0 133614319.6624681 4570773.77307073 4570773.77307073 7919726.39984522 0 0 0 0 0 132397337.0764419 5079248.225986121 5079248.225986121 7853230.753204747 0 0 0 0 0 131226629.1679018 5506642.575438485 5506642.575438485 7789614.836791721 0 0 0 0 0 130095726.1905165 5862168.554030811 5862168.554030811 7728696.023274246 0 0 0 0 0 129008781.4487041 6156900.028484842 6156900.028484842 7671439.913569167 0 0 0 0 0 128267257.4811281 5614560.200880873 5614560.200880873 6377108.166445057 0 0 0 0 0 127377198.3144341 6110083.378255855 6110083.378255855 6222052.683237161 0 0 0 0 0 126431982.2530713 6304848.094190639 6304848.094190639 6211958.645450893 0 0 0 0 0 125523905.0756225 6461177.070346694 6461177.070346694 6195845.029422341 0 0 0 0 0 124645230.6210865 6583574.312825669 6583574.312825669 6184048.108991266 0 0 0 0 0 123804950.7314938 6678610.192312427 6678610.192312427 6172138.777801367 0 0 0 0 0 122997272.1569364 6747127.401295713 6747127.401295713 6157983.101924042 0 0 0 0 0 122363193.2880464 6297676.383852228 6297676.383852228 5105113.760166977 0 0 0 0 0 121898421.7871029 6519860.535554548 6519860.535554548 5074103.467355421 0 0 0 0 0 121187170.5548742 6553752.41556325 6553752.41556325 5085043.268277301 0 0 0 0 0 120321147.0105864 5872220.681650124 5872220.681650124 3176084.495930884 0 0 0 0 0 119682334.6403802 5912305.731831789 5912305.731831789 3245092.347353491 0 0 0 0 0 118815103.0604981 5668516.32553142 5668516.32553142 2477821.112136963 0 0 0 0 0 119328099.9685136 6029880.676033739 6029880.676033739 3319239.515533561 0 0 0 0 0 118241046.592564 5687816.403973311 5687816.403973311 2561852.018171687 0 0 0 0 0 117689268.1948025 5695063.141368104 5695063.141368104 2637621.759750009 0 0 0 0 0 117158591.2561418 5692205.493645289 5692205.493645289 2706989.500956283 0 0 0 0 0 116648182.047703 5680136.397193655 5680136.397193655 2770705.714044672 0 0 0 0 0 115992920.0147517 5426830.079829667 5426830.079829667 2145387.416386512 0 0 0 0 0 116429614.7428339 5729338.43945966 5729338.43945966 2843701.530661422 0 0 0 0 0 115534660.2831597 5408587.969048498 5408587.969048498 2216779.730387803 0 0 0 0 0 115092553.3475839 5383996.220924422 5383996.220924422 2283016.89898569 0 0 0 0 0 114666676.3618696 5353818.151721799 5353818.151721799 2343379.922563104 0 0 0 0 0 114256399.4480895 5318605.663347925 5318605.663347925 2398106.280542288 0 0 0 0 0 113861168.7171013 5279033.043624524 5279033.043624524 2447761.521254192 0 0 0 0 0 113732639.7645864 5289825.68189197 5289825.68189197 2516038.853092652 0 0 0 0 0 113017068.133693 5005377.916868302 5005377.916868302 2009782.258180384 0 0 0 0 0 113363975.2056322 5243568.820270993 5243568.820270993 2555582.484028281 0 0 0 0 0 112670986.7058408 4963105.995071009 4963105.995071009 2061108.429380999 0 0 0 0 0 112337372.9315957 4917911.456201872 4917911.456201872 2107155.896783501 0 0 0 0 0 112015328.1065497 4870385.078325166 4870385.078325166 2148602.923553221 0 0 0 0 0 111704369.7900328 4821031.767170086 4821031.767170086 2186447.575772316 0 0 0 0 0 111335815.2106365 4614210.41262088 4614210.41262088 1788334.464138081 0 0 0 0 0 111628379.7088388 4814055.445558472 4814055.445558472 2244502.301261918 0 0 0 0 0 111051665.3001243 4568504.450355293 4568504.450355293 1831643.368589372 0 0 0 0 0 110781632.9536837 4522255.634903623 4522255.634903623 1871809.146636874 0 0 0 0 0 110529543.4890317 4476288.489754746 4476288.489754746 1902100.412866837 0 0 0 0 0 110293932.4754422 4436012.136690355 4436012.136690355 1914212.356091358 0 0 0 0 0 109929216.712947 4257542.52203627 4257542.52203627 1755784.387742632 0 0 0 0 0 110123894.3411554 4360821.485144812 4360821.485144812 1903589.68030818 0 0 0 0 0 120603550.3972813 6142092.539431886 6142092.539431886 4124197.98895354 0 0 0 0 0 174118713.290562 -78827754.73043101 -78827754.73043101 35895075.55600576 0 0 0 0 0 169916318.1901903 -58443538.20242061 -58443538.20242061 30107252.74238372 0 0 0 0 0 184413989.1774367 -71060705.62204728 -71060705.62204728 38118009.27352649 0 0 0 0 0 169141751.675197 -37803192.80391201 -37803192.80391201 26141529.61139898 0 0 0 0 0 164843992.6867265 -48402587.09462358 -48402587.09462358 26812954.57695332 0 0 0 0 0 164965994.4618034 -39470774.82909377 -39470774.82909377 24221942.63101311 0 0 0 0 0 166835800.4299962 -30805305.80915226 -30805305.80915226 23403422.62103695 0 0 0 0 0 164320089.3547414 -24862482.98661838 -24862482.98661838 21201477.53625735 0 0 0 0 0 161730476.8030397 -19828607.1590261 -19828607.1590261 19445309.33694812 0 0 0 0 0 159132499.1920864 -15564224.51025168 -15564224.51025168 18035696.82850724 0 0 0 0 0 156562531.5235305 -11948770.1508748 -11948770.1508748 16896037.53076097 0 0 0 0 0 154058835.7682417 -8878558.095833093 -8878558.095833093 15960539.84322663 0 0 0 0 0 151639157.2362121 -6271077.525477299 -6271077.525477299 15191846.03197957 0 0 0 0 0 149304972.0179396 -4058398.684301138 -4058398.684301138 14550078.1919169 0 0 0 0 0 145474528.5511513 -1360934.246369173 -1360934.246369173 13063092.1335638 0 0 0 0 0 144980601.4324785 -1856919.849457276 -1856919.849457276 11678467.69065295 0 0 0 0 0 143096843.428242 -370088.6989710659 -370088.6989710659 11291863.48078834 0 0 0 0 0 141287238.34439 896746.8106516175 896746.8106516175 10966002.11171967 0 0 0 0 0 139553905.537269 1974705.70663153 1974705.70663153 10686625.31696554 0 0 0 0 0 136675110.6269821 2825937.164589174 2825937.164589174 8499506.853493316 0 0 0 0 0 137395143.0074591 3408756.512920968 3408756.512920968 9969817.415576104 0 0 0 0 0 135224643.1405672 3563208.322991962 3563208.322991962 8357793.425218686 0 0 0 0 0 133837518.4822797 4188594.698187116 4188594.698187116 8235171.797821942 0 0 0 0 0 132511789.8593851 4718680.660446092 4718680.660446092 8124855.149218592 0 0 0 0 0 131244278.371165 5163399.966918381 5163399.966918381 8027884.133643746 0 0 0 0 0 130035195.6797319 5534344.78590547 5534344.78590547 7936986.942119077 0 0 0 0 0 128882430.169347 5842518.509412994 5842518.509412994 7854706.781975557 0 0 0 0 0 127964785.288716 6396706.494506234 6396706.494506234 7612976.927256322 0 0 0 0 0 127230317.2610378 5865479.834951643 5865479.834951643 6353145.216844014 0 0 0 0 0 126241587.1672862 6070400.355104838 6070400.355104838 6328641.240065055 0 0 0 0 0 125295623.5107024 6233135.368582898 6233135.368582898 6299812.831316859 0 0 0 0 0 124393124.6525582 6363585.452787982 6363585.452787982 6270824.907889423 0 0 0 0 0 123525670.8358055 6464338.874508663 6464338.874508663 6248841.10499938 0 0 0 0 0 122698859.9600315 6539184.226711837 6539184.226711837 6223686.156376327 0 0 0 0 0 122227191.7094004 6793180.069993488 6793180.069993488 6137400.535142392 0 0 0 0 0 121605500.1293371 6355146.485539685 6355146.485539685 5115852.437449692 0 0 0 0 0 120880602.9751603 6392634.928010482 6392634.928010482 5121102.509814963 0 0 0 0 0 120225169.9776271 6295245.02624508 6295245.02624508 4145898.991771118 0 0 0 0 0 119587846.2011791 6308583.083119108 6308583.083119108 4186405.03201061 0 0 0 0 0 118742143.8386366 6039322.194024458 6039322.194024458 3379004.618744026 0 0 0 0 0 119059549.2121503 5935733.679866129 5935733.679866129 3318787.721001772 0 0 0 0 0 118178089.5360594 6036805.250425431 6036805.250425431 3430406.207271032 0 0 0 0 0 117634278.7395529 6024013.876700599 6024013.876700599 3475455.347748747 0 0 0 0 0 117111209.2212411 6002048.070536736 6002048.070536736 3514806.963631201 0 0 0 0 0 116607466.5068148 5972506.782546082 5972506.782546082 3548493.024201191 0 0 0 0 0 115959295.4973417 5702654.117111342 5702654.117111342 2894252.27145864 0 0 0 0 0 116156876.6216135 5659664.58164326 5659664.58164326 2825951.823802322 0 0 0 0 0 115504550.0795387 5668868.030160623 5668868.030160623 2938832.697231589 0 0 0 0 0 115067127.0512961 5630330.103258864 5630330.103258864 2979396.624381221 0 0 0 0 0 114645449.2213914 5586987.700133629 5586987.700133629 3014954.398847748 0 0 0 0 0 114239000.5748672 5539432.630710561 5539432.630710561 3045925.191956881 0 0 0 0 0 113847143.2264341 5488286.964600249 5488286.964600249 3072611.02406135 0 0 0 0 0 113480341.5350322 5235655.412009289 5235655.412009289 2492533.554396025 0 0 0 0 0 113008022.663263 5194366.674903767 5194366.674903767 2590797.554680629 0 0 0 0 0 113113337.6499962 5188981.21514452 5188981.21514452 2532775.031672886 0 0 0 0 0 112664937.8792134 5142666.202301047 5142666.202301047 2621415.072102201 0 0 0 0 0 112333423.151353 5088588.521168277 5088588.521168277 2648026.171497031 0 0 0 0 0 112013103.4167942 5032772.384808148 5032772.384808148 2671240.702489636 0 0 0 0 0 111703883.295065 4975573.62410398 4975573.62410398 2691612.161947275 0 0 0 0 0 111335670.2825722 4762256.329727335 4762256.329727335 2273546.988518706 0 0 0 0 0 111403979.9848011 4769920.059838654 4769920.059838654 2220828.786604072 0 0 0 0 0 111053247.6215935 4708587.47574552 4708587.47574552 2298459.042005295 0 0 0 0 0 110786088.8265685 4652483.627098717 4652483.627098717 2318874.995867584 0 0 0 0 0 110518887.438143 4596692.278530919 4596692.278530919 2301708.453905182 0 0 0 0 0 110349686.3628829 4515304.167468402 4515304.167468402 2185241.037427084 0 0 0 0 0 110173133.8898232 4434412.431580202 4434412.431580202 2040815.900866551 0 0 0 0 0 120504865.190112 6570432.398257764 6570432.398257764 5091679.315779203 0 0 0 0 0 197988228.9214573 -82360374.23847353 -82360374.23847353 42239988.28245167 0 0 0 0 0 182767748.1254133 -62034259.77307007 -62034259.77307007 35688952.02121611 0 0 0 0 0 175624608.7213962 -65646055.69924618 -65646055.69924618 29879886.91003732 0 0 0 0 0 163831631.7732816 -31956928.63423783 -31956928.63423783 22205522.49589841 0 0 0 0 0 179759214.0740905 -51723872.61257067 -51723872.61257067 32635230.32413818 0 0 0 0 0 176737591.6698368 -42111709.95594731 -42111709.95594731 28813915.26333296 0 0 0 0 0 162285262.4043458 -25576638.43322927 -25576638.43322927 20644716.73499819 0 0 0 0 0 160439826.935383 -20202661.46763582 -20202661.46763582 19396356.56903481 0 0 0 0 0 158400514.1785029 -15678230.33905958 -15678230.33905958 18386091.39290407 0 0 0 0 0 156265754.6137483 -11860811.63503148 -11860811.63503148 17557569.40933452 0 0 0 0 0 154092671.7288633 -8635534.112312267 -8635534.112312267 16866291.81727279 0 0 0 0 0 151924667.3655076 -5910415.830482217 -5910415.830482217 16280279.98334669 0 0 0 0 0 149788071.9130759 -3606584.161125717 -3606584.161125717 15772072.96580067 0 0 0 0 0 147699308.5719894 -1660535.737775448 -1660535.737775448 15325036.56768739 0 0 0 0 0 147075732.2071747 -2177119.876701512 -2177119.876701512 14001377.88585869 0 0 0 0 0 143707234.1032927 171522.2231010091 171522.2231010091 12726210.28694891 0 0 0 0 0 141984509.0585211 1470819.884001817 1470819.884001817 12430363.25692653 0 0 0 0 0 140313413.5440762 2570051.132660297 2570051.132660297 12165450.50728436 0 0 0 0 0 138699937.6949419 3498094.46274931 3498094.46274931 11924134.8522715 0 0 0 0 0 135980383.4303485 4152360.545680174 4152360.545680174 9815661.01640645 0 0 0 0 0 137897876.1884016 2890398.14398881 2890398.14398881 10442500.95474893 0 0 0 0 0 134617819.2309157 4780174.081277792 4780174.081277792 9673625.336029081 0 0 0 0 0 133301986.295271 5305888.063028497 5305888.063028497 9540680.284292657 0 0 0 0 0 132038924.3401487 5744960.170260395 5744960.170260395 9415995.34232495 0 0 0 0 0 130828385.094254 6107527.34984325 6107527.34984325 9295155.706143552 0 0 0 0 0 129668116.5220898 6404626.399741057 6404626.399741057 9178439.321087709 0 0 0 0 0 128558185.3528594 6645290.93599337 6645290.93599337 9064043.69777219 0 0 0 0 0 127783462.4310005 6095124.560349115 6095124.560349115 7774582.421322551 0 0 0 0 0 126963694.0322934 6587732.212722817 6587732.212722817 7551006.644050969 0 0 0 0 0 126005578.3946422 6739069.651717612 6739069.651717612 7484919.619229455 0 0 0 0 0 125085532.9550028 6854931.323290392 6854931.323290392 7420194.697285015 0 0 0 0 0 124200728.7411278 6941620.269647124 6941620.269647124 7362784.016343855 0 0 0 0 0 123357033.0273762 7002559.619090191 7002559.619090191 7304003.563419099 0 0 0 0 0 122547689.2476533 7040201.858180311 7040201.858180311 7244135.724174133 0 0 0 0 0 121905419.0352232 6589857.40845707 6589857.40845707 6197520.258820047 0 0 0 0 0 121486499.8965455 6817944.425836232 6817944.425836232 6110468.432104763 0 0 0 0 0 120776098.4086456 6825195.817670824 6825195.817670824 6079969.489654722 0 0 0 0 0 119934458.1683843 6169980.142255095 6169980.142255095 4159933.473954192 0 0 0 0 0 119297222.3689041 6186029.470222846 6186029.470222846 4198342.208202821 0 0 0 0 0 118464118.1819568 5945424.226687997 5945424.226687997 3375774.187894423 0 0 0 0 0 118981480.2629608 6308132.296993746 6308132.296993746 4218749.901687707 0 0 0 0 0 117893228.8667551 5943511.040970877 5943511.040970877 3425553.496699208 0 0 0 0 0 117345246.8321671 5931337.767768735 5931337.767768735 3469280.814519196 0 0 0 0 0 116818981.2888887 5910075.820329773 5910075.820329773 3507408.277458583 0 0 0 0 0 116313219.1652077 5880756.849655532 5880756.849655532 3540465.753069428 0 0 0 0 0 115684062.2035903 5632335.7447271 5632335.7447271 2877385.018649462 0 0 0 0 0 116122349.7120594 5935834.568699493 5935834.568699493 3577302.569958784 0 0 0 0 0 115230682.2314523 5598749.982446326 5598749.982446326 2920951.107555491 0 0 0 0 0 114793424.1203681 5560029.908221645 5560029.908221645 2961717.342905398 0 0 0 0 0 114372623.9600316 5516599.439273808 5516599.439273808 2997592.418332101 0 0 0 0 0 113967595.108488 5469099.588889734 5469099.588889734 3028850.706568497 0 0 0 0 0 113577753.2537511 5418075.743139111 5418075.743139111 3055922.253731238 0 0 0 0 0 113469325.4713776 5434043.503708127 5434043.503708127 3095346.978691049 0 0 0 0 0 112759728.4747715 5139489.73170136 5139489.73170136 2568720.056432596 0 0 0 0 0 113105047.4253134 5377156.007733399 5377156.007733399 3114213.33240427 0 0 0 0 0 112418584.2066072 5087381.953669167 5087381.953669167 2600452.16370662 0 0 0 0 0 112089709.234705 5033123.487911982 5033123.487911982 2627767.8760026 0 0 0 0 0 111772512.3558888 4977137.62143559 4977137.62143559 2651676.244291098 0 0 0 0 0 111466319.6574667 4919797.980367665 4919797.980367665 2672679.383795891 0 0 0 0 0 111113610.5996724 4717047.357386807 4717047.357386807 2251171.161734913 0 0 0 0 0 111405161.5331221 4916959.272215839 4916959.272215839 2708794.295845207 0 0 0 0 0 110830677.2333306 4661788.017315607 4661788.017315607 2277037.747941371 0 0 0 0 0 110560269.5332092 4606232.089283824 4606232.089283824 2302369.21498649 0 0 0 0 0 110312863.2121398 4559787.589587585 4559787.589587585 2322060.962181957 0 0 0 0 0 110111480.7724107 4481533.23851622 4481533.23851622 2265977.412813139 0 0 0 0 0 109910858.0159692 4387934.54372806 4387934.54372806 2175194.424522877 0 0 0 0 0 120186504.9860439 6412655.557777651 6412655.557777651 5122347.550122706 0 0 0 0 0 185921348.5100602 -75253289.04587068 -75253289.04587068 31471586.31085226 0 0 0 0 0 176949448.7961132 -53598426.64671075 -53598426.64671075 28444506.92674754 0 0 0 0 0 196309248.1755743 -69451156.88608268 -69451156.88608268 37022038.28097799 0 0 0 0 0 173512308.1503458 -34223215.12822736 -34223215.12822736 26047527.86982735 0 0 0 0 0 172809280.9682253 -43931029.82059324 -43931029.82059324 26038620.5706905 0 0 0 0 0 170699522.0994965 -35508143.89087661 -35508143.89087661 24134975.95403202 0 0 0 0 0 170139478.7633726 -27543950.47290004 -27543950.47290004 23854850.18541792 0 0 0 0 0 166791123.8147221 -21922163.64358545 -21922163.64358545 22083169.87275263 0 0 0 0 0 163538347.0534549 -17195912.50390431 -17195912.50390431 20646055.79175065 0 0 0 0 0 160409522.5997709 -13213595.5834738 -13213595.5834738 19467758.20666902 0 0 0 0 0 157419907.3422439 -9853520.436802652 -9853520.436802652 18489816.14806815 0 0 0 0 0 154580271.5071705 -7015180.695932595 -7015180.695932595 17665577.00258845 0 0 0 0 0 151883766.5021283 -4617483.936801617 -4617483.936801617 16963303.5146507 0 0 0 0 0 149338173.7014379 -2590948.864820962 -2590948.864820962 16351080.51675298 0 0 0 0 0 145676716.0697673 -17049.13749907865 -17049.13749907865 14927508.84756016 0 0 0 0 0 144949310.8076878 -580730.2456209536 -580730.2456209536 13534558.0943167 0 0 0 0 0 142927034.3921654 772943.8660432446 772943.8660432446 13129913.63762637 0 0 0 0 0 141007567.3261823 1919171.991052772 1919171.991052772 12773706.15122597 0 0 0 0 0 139187374.6514959 2887976.81800522 2887976.81800522 12455193.15393751 0 0 0 0 0 136319025.6337757 3665975.578162669 3665975.578162669 10227142.38293753 0 0 0 0 0 137148437.8139843 4279218.902753669 4279218.902753669 11701014.80759855 0 0 0 0 0 134814984.0739031 4320472.592562194 4320472.592562194 10033662.71562772 0 0 0 0 0 133384591.5569192 4870167.875566274 4870167.875566274 9856673.399035731 0 0 0 0 0 132025382.2190179 5330504.351886458 5330504.351886458 9694419.843091415 0 0 0 0 0 130733988.7526826 5712452.137987872 5712452.137987872 9540987.025182497 0 0 0 0 0 129507910.4493431 6027253.849295609 6027253.849295609 9396404.574698159 0 0 0 0 0 128343695.6661032 6283830.280303311 6283830.280303311 9258198.311273765 0 0 0 0 0 127498182.6724379 6834616.945321238 6834616.945321238 8947630.321629809 0 0 0 0 0 126739682.7888366 6299848.408354943 6299848.408354943 7696413.97040686 0 0 0 0 0 125743247.1056863 6460237.816145508 6460237.816145508 7616211.903088423 0 0 0 0 0 124792709.3939423 6585445.226591615 6585445.226591615 7535271.624375262 0 0 0 0 0 123891305.9989372 6682156.41633865 6682156.41633865 7460756.15429745 0 0 0 0 0 123027990.3224901 6751568.301295034 6751568.301295034 7391584.509383756 0 0 0 0 0 122204092.3223642 6796756.435833792 6796756.435833792 7322866.535107345 0 0 0 0 0 121778120.318623 7057611.528346661 7057611.528346661 7179281.260463875 0 0 0 0 0 121151056.6218615 6619774.366628833 6619774.366628833 6164701.244805172 0 0 0 0 0 120430813.5421623 6632075.627930435 6632075.627930435 6128471.998550558 0 0 0 0 0 119849291.7933905 6573054.010326754 6573054.010326754 5096181.972827781 0 0 0 0 0 119216361.678983 6562381.838763502 6562381.838763502 5097238.060862825 0 0 0 0 0 118398633.8052917 6296485.248941346 6296485.248941346 4243976.751828256 0 0 0 0 0 118680785.8087519 6187720.223221906 6187720.223221906 4225944.377412218 0 0 0 0 0 117836917.2960292 6273989.87070451 6273989.87070451 4262472.726832292 0 0 0 0 0 117296437.6876377 6242271.219024892 6242271.219024892 4275560.062937183 0 0 0 0 0 116777042.8004942 6202845.247572648 6202845.247572648 4284202.593599691 0 0 0 0 0 116277195.2773706 6156963.535277324 6156963.535277324 4288847.421611747 0 0 0 0 0 115656207.38134 5893181.777030345 5893181.777030345 3599166.885489113 0 0 0 0 0 115827382.7606601 5844863.297647548 5844863.297647548 3568559.230210068 0 0 0 0 0 115205592.0864222 5845072.791776849 5845072.791776849 3618078.812991648 0 0 0 0 0 114772432.9171143 5792889.538139434 5792889.538139434 3633423.649173575 0 0 0 0 0 114355388.5949274 5736920.512605088 5736920.512605088 3644975.074719503 0 0 0 0 0 113953836.4799466 5677686.252441501 5677686.252441501 3652948.929730877 0 0 0 0 0 113567092.811476 5615697.974890302 5615697.974890302 3657626.3348599 0 0 0 0 0 113202470.4355599 5364087.96763881 5364087.96763881 3079076.841441206 0 0 0 0 0 112753706.2144347 5318004.265201041 5318004.265201041 3129565.246411806 0 0 0 0 0 112841118.4069349 5307514.687296043 5307514.687296043 3098498.626849793 0 0 0 0 0 112415041.3413347 5256983.865483787 5256983.865483787 3141281.378714878 0 0 0 0 0 112088243.293147 5194422.21299053 5194422.21299053 3150038.04959451 0 0 0 0 0 111772750.8348782 5130626.966883658 5130626.966883658 3156456.778089691 0 0 0 0 0 111468151.3835541 5065944.442283788 5065944.442283788 3160639.247667715 0 0 0 0 0 111116370.6987209 4856967.304463268 4856967.304463268 2722709.611632126 0 0 0 0 0 111170192.5896004 4861033.177758743 4861033.177758743 2690568.348459788 0 0 0 0 0 110835695.4112563 4794634.443550807 4794634.443550807 2735371.511571717 0 0 0 0 0 110586210.0899844 4748001.371257438 4748001.371257438 2749054.533048798 0 0 0 0 0 110353704.9939545 4657286.964685158 4657286.964685158 2606701.976978095 0 0 0 0 0 110164543.4750685 4565691.148836809 4565691.148836809 2473200.373678936 0 0 0 0 0 120095455.2149734 6817539.036239535 6817539.036239535 6046225.54975375 0 0 0 0 0 210517043.115894 -79320406.55578402 -79320406.55578402 37944680.71147987 0 0 0 0 0 190952799.3540117 -57365427.36562596 -57365427.36562596 34521300.84077216 0 0 0 0 0 186029161.6194928 -60253277.22510091 -60253277.22510091 28553782.42950859 0 0 0 0 0 168356859.5578759 -28336889.61165746 -28336889.61165746 22719634.42473172 0 0 0 0 0 185780954.0927438 -47032770.30683184 -47032770.30683184 31274170.44686256 0 0 0 0 0 181232250.9563007 -37931235.35764806 -37931235.35764806 28276979.07952823 0 0 0 0 0 165748243.9561549 -22342507.91853694 -22342507.91853694 21587544.8830756 0 0 0 0 0 163045176.843457 -17332147.87765127 -17332147.87765127 20653624.79719013 0 0 0 0 0 160333287.4945383 -13131689.04011198 -13131689.04011198 19867347.78062762 0 0 0 0 0 157658703.1693573 -9605299.411158497 -9605299.411158497 19191135.50495863 0 0 0 0 0 155051840.842992 -6641920.667799246 -6641920.667799246 18598590.99855881 0 0 0 0 0 152533251.9998561 -4149381.372210823 -4149381.372210823 18068798.90636505 0 0 0 0 0 150116882.8708998 -2053344.521969931 -2053344.521969931 17586528.35849422 0 0 0 0 0 147805551.6761359 -291830.5976708475 -291830.5976708475 17142944.22051137 0 0 0 0 0 146937522.883561 -878245.6403279587 -878245.6403279587 15815558.1877066 0 0 0 0 0 143730233.1956138 1369572.530887667 1369572.530887667 14568402.16482866 0 0 0 0 0 141863321.9992951 2537233.469743185 2537233.469743185 14238186.92426624 0 0 0 0 0 140077975.6733258 3518817.407100332 3518817.407100332 13931315.77523238 0 0 0 0 0 138373870.7209507 4340954.404113361 4340954.404113361 13641385.64654422 0 0 0 0 0 135660151.6947113 4934158.315085758 4934158.315085758 11492040.58073659 0 0 0 0 0 137463824.1385502 3705033.688277054 3705033.688277054 12166579.31681577 0 0 0 0 0 134236865.3034104 5480231.944152489 5480231.944152489 11293701.40721768 0 0 0 0 0 132875819.9394023 5932972.309078424 5932972.309078424 11104178.24866286 0 0 0 0 0 131577460.3158429 6305297.002631933 6305297.002631933 10921077.81486461 0 0 0 0 0 130339340.6202081 6608159.624125957 6608159.624125957 10743420.78377827 0 0 0 0 0 129159892.6848038 6851290.846581355 6851290.846581355 10569753.63036896 0 0 0 0 0 128037520.353047 7041290.197108059 7041290.197108059 10397516.45606385 0 0 0 0 0 127241568.1515717 6490281.841858097 6490281.841858097 9123680.779352646 0 0 0 0 0 126487353.6216569 6982818.130971986 6982818.130971986 8829419.719278492 0 0 0 0 0 125520324.7597898 7094440.71592295 7094440.71592295 8713229.081738297 0 0 0 0 0 124596940.1901428 7174763.200491626 7174763.200491626 8602476.011425156 0 0 0 0 0 123711240.135051 7228112.661080843 7228112.661080843 8497648.781236777 0 0 0 0 0 122867159.8200144 7258652.24724047 7258652.24724047 8392162.603176277 0 0 0 0 0 122061106.7610924 7268706.359509956 7268706.359509956 8288155.575172037 0 0 0 0 0 121415828.2766656 6820485.218091941 6820485.218091941 7252448.764580625 0 0 0 0 0 121040012.756861 7056399.219352971 7056399.219352971 7110489.975072477 0 0 0 0 0 120333908.6196364 7039957.885985031 7039957.885985031 7038930.029780745 0 0 0 0 0 119524188.6587079 6418460.697141856 6418460.697141856 5120838.260349842 0 0 0 0 0 118890077.1399382 6411397.13603982 6411397.13603982 5118764.735565748 0 0 0 0 0 118089485.9089416 6176918.483612527 6176918.483612527 4250475.917078128 0 0 0 0 0 118610933.7745225 6540861.71532308 6540861.71532308 5093914.717408137 0 0 0 0 0 117523579.7537943 6155684.712371194 6155684.712371194 4267846.86019028 0 0 0 0 0 116981398.4336209 6125547.434256768 6125547.434256768 4279420.290086953 0 0 0 0 0 116461079.8756558 6087745.866700711 6087745.866700711 4286821.012506584 0 0 0 0 0 115961768.7834593 6043468.626617661 6043468.626617661 4290458.541141204 0 0 0 0 0 115360010.0745138 5802504.065797133 5802504.065797133 3591513.550719883 0 0 0 0 0 115796984.6139539 6105259.2704049 6105259.2704049 4289580.928065437 0 0 0 0 0 114912259.420898 5755367.769844713 5755367.769844713 3608911.979422755 0 0 0 0 0 114481121.5413447 5704001.740449361 5704001.740449361 3624147.228580447 0 0 0 0 0 114066514.7397809 5648874.591452378 5648874.591452378 3635715.824899985 0 0 0 0 0 113667849.544604 5590516.828039742 5590516.828039742 3643783.434570344 0 0 0 0 0 113284388.479469 5529453.850547862 5529453.850547862 3648606.251534546 0 0 0 0 0 113194572.0012265 5551399.362440989 5551399.362440989 3659116.919663227 0 0 0 0 0 112493158.8775812 5248765.130632399 5248765.130632399 3114429.258635274 0 0 0 0 0 112835703.5020838 5485142.240138647 5485142.240138647 3657618.546513694 0 0 0 0 0 112157644.0882032 5188030.858157387 5188030.858157387 3126850.083259408 0 0 0 0 0 111834397.1826156 5125850.994480968 5125850.994480968 3136208.958469229 0 0 0 0 0 111522945.7413019 5062658.693813591 5062658.693813591 3142884.688354928 0 0 0 0 0 111222581.3009907 4998784.548781864 4998784.548781864 3147467.36620633 0 0 0 0 0 110882810.652428 4800405.47145051 4800405.47145051 2705253.987124403 0 0 0 0 0 111173767.9360631 5000360.591374517 5000360.591374517 3163774.948755971 0 0 0 0 0 110595607.5430506 4736167.205059163 4736167.205059163 2715720.308853584 0 0 0 0 0 110324338.7139312 4679484.874566059 4679484.874566059 2754466.927112681 0 0 0 0 0 110101216.2249431 4603717.791866881 4603717.791866881 2711122.45172824 0 0 0 0 0 109884655.3190112 4512966.027387562 4512966.027387562 2606704.140673697 0 0 0 0 0 119743156.0407631 6629185.708609475 6629185.708609475 6089464.916342359 0 0 0 0 0 201851343.0077758 -74584182.14653817 -74584182.14653817 29117394.52590039 0 0 0 0 0 182742582.6033324 -49123216.26739369 -49123216.26739369 26446417.53552982 0 0 0 0 0 199031908.3949604 -62353548.73478658 -62353548.73478658 32922799.9780039 0 0 0 0 0 176787812.8899762 -30420828.76691589 -30420828.76691589 26142942.34715413 0 0 0 0 0 178853636.6084955 -39380081.45235879 -39380081.45235879 25236112.47908497 0 0 0 0 0 175404485.2587444 -31286712.52921665 -31286712.52921665 24289188.33499002 0 0 0 0 0 172511678.3271664 -24177852.99348861 -24177852.99348861 24451361.67903639 0 0 0 0 0 168474969.6606562 -18965593.91933611 -18965593.91933611 23061547.61016607 0 0 0 0 0 164679991.8123962 -14601102.19803694 -14601102.19803694 21905008.36793618 0 0 0 0 0 161123199.3100851 -10938826.02715227 -10938826.02715227 20925744.17194014 0 0 0 0 0 157795314.4830246 -7861286.183688783 -7861286.183688783 20083297.58576799 0 0 0 0 0 154687760.5631391 -5271325.013627186 -5271325.013627186 19346808.36605458 0 0 0 0 0 151783294.591262 -3092498.973949233 -3092498.973949233 18693175.37747729 0 0 0 0 0 149074929.061886 -1258558.721635384 -1258558.721635384 18104915.74759046 0 0 0 0 0 145605517.3171566 1187623.24362326 1187623.24362326 16730906.14371423 0 0 0 0 0 144678498.9821567 568447.8715302596 568447.8715302596 15339173.98849103 0 0 0 0 0 142551673.720456 1788166.518182755 1788166.518182755 14911252.72961526 0 0 0 0 0 140549319.7675141 2814995.410988404 2814995.410988404 14521648.8421606 0 0 0 0 0 138666882.9548941 3677923.789011261 3677923.789011261 14161495.3305278 0 0 0 0 0 135832746.8257841 4391870.487776992 4391870.487776992 11901688.98868995 0 0 0 0 0 136750786.3071672 5027236.393602469 5027236.393602469 13365472.28493679 0 0 0 0 0 134289801.8077953 4966541.998087665 4966541.998087665 11655331.91614524 0 0 0 0 0 132830639.1184201 5444967.375727575 5444967.375727575 11424825.69597759 0 0 0 0 0 131451105.8757992 5840436.115056407 5840436.115056407 11206619.52555094 0 0 0 0 0 130146974.5877611 6164828.230241573 6164828.230241573 10998487.93179817 0 0 0 0 0 128914686.5495411 6427953.070216499 6427953.070216499 10798537.89638334 0 0 0 0 0 127748606.3447791 6637749.191885225 6637749.191885225 10606234.08588838 0 0 0 0 0 126970853.2278157 7188136.933864948 7188136.933864948 10224497.3082203 0 0 0 0 0 126192646.4437908 6650358.767280547 6650358.767280547 8989650.425502667 0 0 0 0 0 125195642.4618378 6774076.607855926 6774076.607855926 8856668.834299939 0 0 0 0 0 124248657.0214244 6866155.739464332 6866155.739464332 8728095.621899365 0 0 0 0 0 123351483.0340419 6931194.595883201 6931194.595883201 8607863.208412528 0 0 0 0 0 122494726.6440917 6971823.703654702 6971823.703654702 8493668.91921193 0 0 0 0 0 121679188.697696 6991442.242879689 6991442.242879689 8379024.92440967 0 0 0 0 0 121296677.6305957 7261288.525657955 7261288.525657955 8180125.835675891 0 0 0 0 0 120668619.8562109 6826349.7942035 6826349.7942035 7177186.822599551 0 0 0 0 0 119956793.8157634 6816751.740498977 6816751.740498977 7100341.85479956 0 0 0 0 0 119442670.0615245 6797091.868236643 6797091.868236643 6012492.097809697 0 0 0 0 0 118814239.5187451 6765581.790889843 6765581.790889843 5977224.247972391 0 0 0 0 0 118030596.2021559 6508733.090591386 6508733.090591386 5084720.340724355 0 0 0 0 0 118279075.7652105 6392257.833528829 6392257.833528829 5113393.096253908 0 0 0 0 0 117473075.7783273 6467468.587394417 6467468.587394417 5069751.114022595 0 0 0 0 0 116937713.2146404 6418841.543234809 6418841.543234809 5051482.638770803 0 0 0 0 0 116423686.5569506 6364004.608214159 6364004.608214159 5030317.937630182 0 0 0 0 0 115930154.4464587 6303844.798007621 6303844.798007621 5006180.84367927 0 0 0 0 0 115335765.1409018 6048490.27406717 6048490.27406717 4284472.923524549 0 0 0 0 0 115482702.5026434 5993533.489321389 5993533.489321389 4290308.719981465 0 0 0 0 0 114891068.3187088 5987747.802020611 5987747.802020611 4277927.015714901 0 0 0 0 0 114463695.6032426 5923683.769665864 5923683.769665864 4268723.737759789 0 0 0 0 0 114052572.5998393 5856652.240879177 5856652.240879177 4256738.457870148 0 0 0 0 0 113657052.7634109 5787209.358682777 5787209.358682777 4242228.228772495 0 0 0 0 0 113276462.2622946 5715770.917203714 5715770.917203714 4225328.492794083 0 0 0 0 0 112915503.9065413 5466104.359416869 5466104.359416869 3650432.242619557 0 0 0 0 0 112489806.2742897 5417301.342627908 5417301.342627908 3653531.804383758 0 0 0 0 0 112560528.2244502 5400833.56343697 5400833.56343697 3649296.14664373 0 0 0 0 0 112156424.3223007 5348158.585328934 5348158.585328934 3647040.61559434 0 0 0 0 0 111834971.1678644 5278085.407324076 5278085.407324076 3638405.793489167 0 0 0 0 0 111524948.8030645 5207543.489263338 5207543.489263338 3627669.689668527 0 0 0 0 0 111225515.2368241 5136998.808889115 5136998.808889115 3615022.983772261 0 0 0 0 0 110887629.0110754 4934614.067168999 4934614.067168999 3167170.574357143 0 0 0 0 0 110932347.4069416 4934859.423891682 4934859.423891682 3150451.015076093 0 0 0 0 0 110599032.6982548 4872235.980725572 4872235.980725572 3184624.452015463 0 0 0 0 0 110374280.6871518 4798880.305127896 4798880.305127896 3032135.931529312 0 0 0 0 0 110141724.1030931 4696435.827993165 4696435.827993165 2903022.009737408 0 0 0 0 0 119658969.9687115 7010704.290958416 7010704.290958416 6966730.045473224 0 0 0 0 0 226413370.4018536 -77174789.88620415 -77174789.88620415 33640760.27347396 0 0 0 0 0 209573597.2327494 -63478915.86316321 -63478915.86316321 31212826.33517311 0 0 0 0 0 195320219.0561363 -50988137.74026118 -50988137.74026118 30707010.63453784 0 0 0 0 0 193749072.4868368 -52737605.74202457 -52737605.74202457 26128503.4034508 0 0 0 0 0 171854400.9423258 -24625817.02362197 -24625817.02362197 23430110.29891219 0 0 0 0 0 190145474.1147306 -41567780.40494282 -41567780.40494282 29417929.99629449 0 0 0 0 0 184343508.5052041 -33346252.49660137 -33346252.49660137 27819178.13899456 0 0 0 0 0 168328794.8672045 -19106803.33624634 -19106803.33624634 22673362.27627137 0 0 0 0 0 164913955.6775545 -14511103.53920376 -14511103.53920376 21999523.46652288 0 0 0 0 0 161637372.5539294 -10674512.63608809 -10674512.63608809 21391099.2300798 0 0 0 0 0 158514444.7749392 -7466379.376463322 -7466379.376463322 20831789.90855511 0 0 0 0 0 155552166.2625022 -4780235.435278734 -4780235.435278734 20309748.94751132 0 0 0 0 0 152750232.0842061 -2531153.617866999 -2531153.617866999 19816786.55217073 0 0 0 0 0 150110254.0502974 -647727.6162384127 -647727.6162384127 19345921.74842909 0 0 0 0 0 147624176.0849959 927946.8216588181 927946.8216588181 18894582.05899259 0 0 0 0 0 146549013.2096537 284542.1212110156 284542.1212110156 17570060.02158269 0 0 0 0 0 143517122.2436585 2428220.511758491 2428220.511758491 16341890.74589337 0 0 0 0 0 141537051.6145325 3467015.228017562 3467015.228017562 15974570.96497475 0 0 0 0 0 139664980.1478746 4334598.456534851 4334598.456534851 15620852.67041152 0 0 0 0 0 137892869.5388039 5055511.923882507 5055511.923882507 15280488.469937 0 0 0 0 0 135206933.3678899 5596908.765323929 5596908.765323929 13100900.58643093 0 0 0 0 0 136896622.9376227 4400552.76221488 4400552.76221488 13825848.96602915 0 0 0 0 0 133740016.7710528 6066914.314619285 6066914.314619285 12846100.06370037 0 0 0 0 0 132347251.754583 6451229.196198639 6451229.196198639 12599109.11137153 0 0 0 0 0 131025432.0469391 6762295.936140295 6762295.936140295 12358587.9022471 0 0 0 0 0 129772238.7287123 7010490.301559902 7010490.301559902 12124955.33159101 0 0 0 0 0 128582105.3664265 7203123.716005218 7203123.716005218 11894215.30255356 0 0 0 0 0 127458215.8387724 7350954.491060207 7350954.491060207 11663849.10486935 0 0 0 0 0 126645842.824616 6799832.329113587 6799832.329113587 10415311.1085917 0 0 0 0 0 125953901.5704165 7296948.927913398 7296948.927913398 10056094.38082556 0 0 0 0 0 124985361.8871191 7373308.357608334 7373308.357608334 9892479.27898781 0 0 0 0 0 124064087.3768164 7421752.319518327 7421752.319518327 9734216.210095318 0 0 0 0 0 123182804.3360812 7446144.036553987 7446144.036553987 9582040.462143954 0 0 0 0 0 122344261.2095003 7449954.959543349 7449954.959543349 9432003.247358413 0 0 0 0 0 121545274.4735345 7436095.555023906 7436095.555023906 9285618.726978902 0 0 0 0 0 120900652.4255245 6992204.104087854 6992204.104087854 8266226.112996339 0 0 0 0 0 120564958.7406326 7237530.28212476 7237530.28212476 8069533.083474582 0 0 0 0 0 119866076.3361923 7200462.515686919 7200462.515686919 7958512.9743392 0 0 0 0 0 119087203.9499317 6613556.448205232 6613556.448205232 6049470.03127768 0 0 0 0 0 118460407.1320973 6587272.516995236 6587272.516995236 6010597.590010008 0 0 0 0 0 117694158.2159109 6362849.267656018 6362849.267656018 5102482.106785374 0 0 0 0 0 118214026.7422402 6724677.95623072 6724677.95623072 5939313.256985552 0 0 0 0 0 117135702.063335 6324631.010336375 6324631.010336375 5086048.647565655 0 0 0 0 0 116600984.9694371 6278976.575430393 6278976.575430393 5065822.882362976 0 0 0 0 0 116088256.3748894 6226876.419622292 6226876.419622292 5043005.41282931 0 0 0 0 0 115596832.9552602 6169380.241634676 6169380.241634676 5017769.278691627 0 0 0 0 0 115022450.4687924 5938275.417949791 5938275.417949791 4285940.654644485 0 0 0 0 0 115456239.1969249 6239016.57246327 6239016.57246327 4979221.952304175 0 0 0 0 0 114581724.5373529 5879267.853334416 5879267.853334416 4277742.450547598 0 0 0 0 0 114157757.6916945 5816915.74529384 5816915.74529384 4268048.760876638 0 0 0 0 0 113750520.3023993 5751610.538244125 5751610.538244125 4255807.327556195 0 0 0 0 0 113359140.2462889 5683861.49499812 5683861.49499812 4241143.660478475 0 0 0 0 0 112982959.2703656 5614095.897969201 5614095.897969201 4224228.347785024 0 0 0 0 0 112910150.7981644 5642695.921113633 5642695.921113633 4206127.407454675 0 0 0 0 0 112218860.7687464 5333997.290992684 5333997.290992684 3645496.747960157 0 0 0 0 0 112557526.611045 5568335.063101228 5568335.063101228 4184985.056377588 0 0 0 0 0 111889781.7245127 5265954.791788095 5265954.791788095 3639254.655323731 0 0 0 0 0 111572961.1894956 5196989.199008648 5196989.199008648 3630834.625984746 0 0 0 0 0 111268106.0258754 5127438.885674544 5127438.885674544 3620632.217620268 0 0 0 0 0 110974659.9861971 5057954.547770909 5057954.547770909 3608537.625596891 0 0 0 0 0 110654508.0944897 4872593.57831929 4872593.57831929 3153520.982112299 0 0 0 0 0 110936042.0343657 5067040.991366956 5067040.991366956 3600956.650299576 0 0 0 0 0 110413706.366329 4820164.856633869 4820164.856633869 3156387.95578069 0 0 0 0 0 110063915.8393751 4723155.42566718 4723155.42566718 3221111.079269194 0 0 0 0 0 109847858.3435084 4621699.673052384 4621699.673052384 3039911.397686023 0 0 0 0 0 119278323.3988393 6793976.320564424 6793976.320564424 7022411.052852132 0 0 0 0 0 213543228.8216798 -71178667.44138916 -71178667.44138916 24766923.73710005 0 0 0 0 0 202359866.6439074 -60126050.84740117 -60126050.84740117 26028100.18593462 0 0 0 0 0 188600143.02108 -42859830.70882291 -42859830.70882291 26030938.16460847 0 0 0 0 0 209531363.6020232 -55424692.55704954 -55424692.55704954 31593584.60135476 0 0 0 0 0 178953447.8755515 -26507344.18369175 -26507344.18369175 26405829.41015669 0 0 0 0 0 183720913.5020981 -34126432.41844719 -34126432.41844719 25454547.7845723 0 0 0 0 0 178885195.2807627 -26916229.58477156 -26916229.58477156 24892017.69620136 0 0 0 0 0 173988468.7476576 -20815298.45981889 -20815298.45981889 25186741.13910279 0 0 0 0 0 169415484.164654 -16069254.80562686 -16069254.80562686 24134085.01540078 0 0 0 0 0 165201147.8415631 -12103950.69936395 -12103950.69936395 23214299.04945975 0 0 0 0 0 161316080.3269148 -8785436.327961482 -8785436.327961482 22398436.96399172 0 0 0 0 0 157733907.3375762 -6004015.998975142 -6004015.998975142 21663290.60693527 0 0 0 0 0 154427825.3876733 -3671576.397656167 -3671576.397656167 20993125.57817177 0 0 0 0 0 151372903.1998944 -1714960.921807549 -1714960.921807549 20373872.91880126 0 0 0 0 0 148549151.4364811 -73933.77032604287 -73933.77032604287 19796406.58629763 0 0 0 0 0 145288438.3728212 2244487.337169355 2244487.337169355 18456964.92677094 0 0 0 0 0 144193959.98095 1581853.866972262 1581853.866972262 17078940.7254419 0 0 0 0 0 141993124.7558608 2670841.513761534 2670841.513761534 16621966.6468853 0 0 0 0 0 139935605.8047069 3583109.447551894 3583109.447551894 16195735.03165479 0 0 0 0 0 138013318.9253221 4344400.649460467 4344400.649460467 15791845.67509076 0 0 0 0 0 135231348.2674656 5002960.857886081 5002960.857886081 13509961.09872309 0 0 0 0 0 136217719.2980236 5651602.319763985 5651602.319763985 14950795.89921793 0 0 0 0 0 133664148.9155061 5502621.798398691 5502621.798398691 13211087.21026742 0 0 0 0 0 132189620.3341402 5914286.297590354 5914286.297590354 12925955.9508535 0 0 0 0 0 130801491.9139906 6250382.217915632 6250382.217915632 12652636.29676463 0 0 0 0 0 129492258.8198293 6521445.292788908 6521445.292788908 12390489.00695186 0 0 0 0 0 128260472.7881906 6736898.827388751 6736898.827388751 12137407.00915159 0 0 0 0 0 127100180.1140914 6903729.181971772 6903729.181971772 11888185.78672315 0 0 0 0 0 126387367.0749671 7458339.143592726 7458339.143592726 11440228.71378426 0 0 0 0 0 125599759.3215968 6923664.66791728 6923664.66791728 10227877.72680314 0 0 0 0 0 124608478.3290427 7014166.496555333 7014166.496555333 10047590.22811523 0 0 0 0 0 123669705.6704244 7076125.63872471 7076125.63872471 9873811.31574077 0 0 0 0 0 122782428.8204295 7113842.034347573 7113842.034347573 9706221.875099331 0 0 0 0 0 121937047.2209654 7129970.282741028 7129970.282741028 9545885.978359953 0 0 0 0 0 121130530.8489893 7126662.854221817 7126662.854221817 9389185.224367602 0 0 0 0 0 120788312.472112 7406653.494698788 7406653.494698788 9135659.640171798 0 0 0 0 0 120163790.1834788 6977188.852409204 6977188.852409204 8150256.336690399 0 0 0 0 0 119463172.3136164 6948574.092679593 6948574.092679593 8033163.838242298 0 0 0 0 0 119012415.0753279 6970733.570497653 6970733.570497653 6896525.87764986 0 0 0 0 0 118391537.3828392 6921210.144103373 6921210.144103373 6825622.97651464 0 0 0 0 0 117640278.5187611 6675250.660986688 6675250.660986688 5896022.626712101 0 0 0 0 0 117858237.75082 6550789.413346102 6550789.413346102 5969002.082710147 0 0 0 0 0 117089683.5646958 6618273.389826851 6618273.389826851 5849455.645576701 0 0 0 0 0 116561263.137389 6555152.979405798 6555152.979405798 5800953.053739316 0 0 0 0 0 116054572.5998738 6486933.994985862 6486933.994985862 5750640.816408545 0 0 0 0 0 115568730.0896807 6414389.769078217 6414389.769078217 5698405.827639572 0 0 0 0 0 115001528.1762019 6170052.715575256 6170052.715575256 4948243.056671471 0 0 0 0 0 115126008.1873038 6107302.337190584 6107302.337190584 4989848.38763517 0 0 0 0 0 114563864.3644928 6098289.252366556 6098289.252366556 4916996.767791886 0 0 0 0 0 114143351.9641825 6023830.253037856 6023830.253037856 4883609.200518887 0 0 0 0 0 113739245.3642097 5947303.845107537 5947303.845107537 4848750.473735546 0 0 0 0 0 113350709.0926691 5869041.870450426 5869041.870450426 4812296.094006181 0 0 0 0 0 112977126.8416601 5789472.216694423 5789472.216694423 4774386.379906282 0 0 0 0 0 112621284.3494712 5542701.416837962 5542701.416837962 4205125.636728014 0 0 0 0 0 112217766.8649673 5492979.099039823 5492979.099039823 4162174.825695202 0 0 0 0 0 112273426.8655858 5470015.378988683 5470015.378988683 4183962.764163995 0 0 0 0 0 111890531.0423535 5416916.015553753 5416916.015553753 4137786.020584177 0 0 0 0 0 111575245.2442583 5340385.427894573 5340385.427894573 4111803.728991552 0 0 0 0 0 111271396.2349769 5263883.971161352 5263883.971161352 4083746.187312652 0 0 0 0 0 110978157.6225358 5188142.047464308 5188142.047464308 4053311.241673912 0 0 0 0 0 110667045.8880718 4993713.448303672 4993713.448303672 3606560.97814378 0 0 0 0 0 110691552.6607829 4989397.276897117 4989397.276897117 3595057.582640827 0 0 0 0 0 110329598.4470955 4923090.75969151 4923090.75969151 3632239.206939695 0 0 0 0 0 110108544.6703839 4802494.941065511 4802494.941065511 3321667.469035669 0 0 0 0 0 110252244.0694804 4880290.780864891 4880290.780864891 3425586.820205745 0 0 0 0 0 119199504.8464679 7152644.486144161 7152644.486144161 7848504.789876494 0 0 0 0 0 240130893.1350969 -72465486.78985576 -72465486.78985576 29755679.56663758 0 0 0 0 0 222226657.2793514 -62053079.87467524 -62053079.87467524 29570632.73374382 0 0 0 0 0 200636173.0579423 -45513556.56114051 -45513556.56114051 30675345.10326223 0 0 0 0 0 199764808.1438149 -46913268.33528663 -46913268.33528663 25607631.81098714 0 0 0 0 0 174338347.5561883 -20924528.88194252 -20924528.88194252 24382578.96054516 0 0 0 0 0 192870276.8434563 -36310347.6140506 -36310347.6140506 29123964.77010096 0 0 0 0 0 186169931.037744 -28842817.39521275 -28842817.39521275 27940646.637953 0 0 0 0 0 170068186.3856238 -15948145.58104612 -15948145.58104612 23893809.16874067 0 0 0 0 0 166075252.1578872 -11807576.46193889 -11807576.46193889 23413006.10044723 0 0 0 0 0 162345783.2870532 -8358162.354831954 -8358162.354831954 22935481.14767538 0 0 0 0 0 158867286.1412274 -5480955.818073385 -5480955.818073385 22458705.94574551 0 0 0 0 0 155626624.4069178 -3079921.373972013 -3079921.373972013 21982935.68503769 0 0 0 0 0 152608701.35526 -1075621.9149601 -1075621.9149601 21508074.43819474 0 0 0 0 0 149800127.9555146 596637.6572933658 596637.6572933658 21034982.89694454 0 0 0 0 0 147186155.3144528 1990121.434983155 1990121.434983155 20562829.60894078 0 0 0 0 0 145936688.1220854 1301846.707699778 1301846.707699778 19254043.31494676 0 0 0 0 0 143090802.3744388 3342840.254951063 3342840.254951063 18031694.0679356 0 0 0 0 0 141027375.0788626 4257393.12500399 4257393.12500399 17620083.78121293 0 0 0 0 0 139090863.2155273 5015290.624512642 5015290.624512642 17218477.14446723 0 0 0 0 0 137272500.368551 5640517.042049888 5640517.042049888 16826325.07258039 0 0 0 0 0 134634947.9369743 6141579.359846015 6141579.359846015 14631441.33765758 0 0 0 0 0 136215095.629111 4977382.216060031 4977382.216060031 15408139.24150058 0 0 0 0 0 133140608.5578344 6540895.673627953 6540895.673627953 14319914.70048805 0 0 0 0 0 131729287.1496769 6862782.122393635 6862782.122393635 14016349.29109737 0 0 0 0 0 130395904.5957674 7118821.720330752 7118821.720330752 13723306.16763991 0 0 0 0 0 129137948.1707907 7317492.720123972 7317492.720123972 13433082.55583565 0 0 0 0 0 127950850.0617786 7467795.478842529 7467795.478842529 13146334.86685762 0 0 0 0 0 126825894.1597952 7576382.819001473 7576382.819001473 12864504.35692971 0 0 0 0 0 126004567.3384572 7030085.835563958 7030085.835563958 11642885.2395287 0 0 0 0 0 125371891.8082461 7532530.246378872 7532530.246378872 11225131.00992703 0 0 0 0 0 124408176.5968295 7577702.559559629 7577702.559559629 11014648.90687539 0 0 0 0 0 123494148.707476 7598195.502235292 7598195.502235292 10809361.28792866 0 0 0 0 0 122621078.7678754 7596847.509262599 7596847.509262599 10613486.43472917 0 0 0 0 0 121791029.8612012 7578240.914660656 7578240.914660656 10420809.7421842 0 0 0 0 0 121003120.4762705 7543875.781259048 7543875.781259048 10232238.16038981 0 0 0 0 0 120364428.9705617 7107300.88438316 7107300.88438316 9235882.786953408 0 0 0 0 0 120065810.446914 7363162.321939132 7363162.321939132 8984588.094610605 0 0 0 0 0 119377265.2673309 7308760.774688751 7308760.774688751 8836137.751470562 0 0 0 0 0 118632240.4080745 6760293.260126119 6760293.260126119 6944824.652598424 0 0 0 0 0 118015257.3543673 6717182.14235131 6717182.14235131 6869974.425433883 0 0 0 0 0 117282224.0028315 6505317.001903408 6505317.001903408 5924844.531689905 0 0 0 0 0 117798923.097352 6863951.167535654 6863951.167535654 6752776.252177424 0 0 0 0 0 116732401.0721033 6452303.539338858 6452303.539338858 5876513.316385143 0 0 0 0 0 116206704.5805514 6393072.585173734 6393072.585173734 5825831.744445549 0 0 0 0 0 115703257.8005743 6328736.783365972 6328736.783365972 5773706.280464372 0 0 0 0 0 115221151.0904129 6259912.899039481 6259912.899039481 5720195.616054228 0 0 0 0 0 114674177.320604 6040990.280543579 6040990.280543579 4958768.060545083 0 0 0 0 0 115102546.3569778 6338210.39769911 6338210.39769911 5644473.659724705 0 0 0 0 0 114241352.9817801 5971752.701037697 5971752.701037697 4925878.786700751 0 0 0 0 0 113825761.0205407 5899924.851440551 5899924.851440551 4891809.136225456 0 0 0 0 0 113426605.5440614 5825893.317845571 5825893.317845571 4856393.131969769 0 0 0 0 0 113043387.6139078 5750133.074743208 5750133.074743208 4819514.789324417 0 0 0 0 0 112675260.7776703 5673011.026525055 5673011.026525055 4781309.35609849 0 0 0 0 0 112617824.1677076 5708917.005527268 5708917.005527268 4735228.125303315 0 0 0 0 0 111938698.5485721 5396354.163595225 5396354.163595225 4161119.875726542 0 0 0 0 0 112272030.1915756 5627681.393107067 5627681.393107067 4695059.828358265 0 0 0 0 0 111616530.6758004 5321948.59297477 5321948.59297477 4136781.299709601 0 0 0 0 0 111306534.6044824 5246988.280259134 5246988.280259134 4111031.866397993 0 0 0 0 0 111008611.0352265 5171536.408933399 5171536.408933399 4083644.919031607 0 0 0 0 0 110722006.4499628 5096314.432257566 5096314.432257566 4054379.998155201 0 0 0 0 0 110415425.7707398 4924334.2080887 4924334.2080887 3577644.921542285 0 0 0 0 0 110698031.1235037 5113182.168020254 5113182.168020254 4032350.949544231 0 0 0 0 0 110198551.7496272 4887416.902518455 4887416.902518455 3602060.905315826 0 0 0 0 0 109805645.5533667 4729557.235318597 4729557.235318597 3490614.897190381 0 0 0 0 0 109984149.6493821 4819809.501858306 4819809.501858306 3656868.064712212 0 0 0 0 0 118795682.3230756 6908441.249264607 6908441.249264607 7917203.861894599 0 0 0 0 0 228155783.8178744 -66840449.77441683 -66840449.77441683 21052841.95413699 0 0 0 0 0 214939072.9222782 -58588619.00949766 -58588619.00949766 23859483.17516413 0 0 0 0 0 193265849.0228491 -37061184.70133416 -37061184.70133416 25753890.53396119 0 0 0 0 0 210965730.8781062 -48614461.09121656 -48614461.09121656 29451894.25286496 0 0 0 0 0 180119105.7997963 -22679670.69877887 -22679670.69877887 26958404.30068574 0 0 0 0 0 186838653.7038475 -29207171.21685006 -29207171.21685006 25788778.40810001 0 0 0 0 0 181105121.6094699 -22732133.83518384 -22732133.83518384 25681763.96389571 0 0 0 0 0 174645085.1938367 -17564615.29002805 -17564615.29002805 26085665.66838888 0 0 0 0 0 169677945.9589056 -13307834.03800157 -13307834.03800157 25293366.93843965 0 0 0 0 0 165159598.7852229 -9757449.271632178 -9757449.271632178 24558779.34630521 0 0 0 0 0 161042282.9611032 -6791377.541942063 -6791377.541942063 23869099.99911131 0 0 0 0 0 157282555.6362109 -4310777.08461736 -4310777.08461736 23214967.48968395 0 0 0 0 0 153842670.6841117 -2234863.489377625 -2234863.489377625 22590475.99614898 0 0 0 0 0 150689305.4094864 -497498.806607983 -497498.806607983 21990393.13943836 0 0 0 0 0 147793073.1403039 955531.8924075835 955531.8924075835 21412781.77340476 0 0 0 0 0 144750761.6775652 3149637.035473832 3149637.035473832 20090717.87478128 0 0 0 0 0 143515859.3401407 2454021.932612144 2454021.932612144 18738352.83160028 0 0 0 0 0 141268985.9346828 3417559.884095223 3417559.884095223 18248107.54805562 0 0 0 0 0 139181173.8684365 4219631.091761622 4219631.091761622 17780283.04107562 0 0 0 0 0 137239786.4347892 4885492.206227919 4885492.206227919 17331229.13529309 0 0 0 0 0 134533049.8406973 5501103.486309758 5501103.486309758 15040966.54767345 0 0 0 0 0 135564785.0336325 6152906.345567948 6152906.345567948 16443598.81674427 0 0 0 0 0 132955984.9248876 5931130.346070983 5931130.346070983 14689541.39166547 0 0 0 0 0 131475532.8364232 6281010.291846465 6281010.291846465 14351210.11811586 0 0 0 0 0 130086651.1568095 6562894.329597428 6562894.329597428 14025366.13006427 0 0 0 0 0 128783586.684864 6786735.529680192 6786735.529680192 13711442.24030873 0 0 0 0 0 127562036.7183074 6960006.681548337 6960006.681548337 13402720.21950911 0 0 0 0 0 126411977.4992836 7090442.430763418 7090442.430763418 13102038.0335256 0 0 0 0 0 125759900.2118523 7649766.111808004 7649766.111808004 12594643.97180869 0 0 0 0 0 124968715.7274976 7121573.789508332 7121573.789508332 11408112.07797912 0 0 0 0 0 123989315.1783928 7183042.578443413 7183042.578443413 11182208.99736911 0 0 0 0 0 123062859.120344 7218555.32721591 7218555.32721591 10963139.4641852 0 0 0 0 0 122188047.7427219 7232174.247429172 7232174.247429172 10750151.51679093 0 0 0 0 0 121354880.6768012 7226443.363571423 7226443.363571423 10548350.96481709 0 0 0 0 0 120565290.159888 7205223.218630865 7205223.218630865 10349248.93943189 0 0 0 0 0 120258799.9562286 7496204.643426525 7496204.643426525 10041700.12701429 0 0 0 0 0 119641697.9566277 7074664.04112981 7074664.04112981 9079193.05941423 0 0 0 0 0 118954118.4112729 7030071.621701384 7030071.621701384 8924081.82178718 0 0 0 0 0 118561546.9610677 7095541.893296702 7095541.893296702 7742207.374059482 0 0 0 0 0 117949325.0155476 7030413.538900816 7030413.538900816 7637199.071172874 0 0 0 0 0 117232808.2016874 6799364.856882061 6799364.856882061 6677394.226519493 0 0 0 0 0 117422318.8437521 6665002.733445356 6665002.733445356 6795135.170538909 0 0 0 0 0 116690361.3791712 6728518.265764762 6728518.265764762 6599817.693872175 0 0 0 0 0 116170676.6489207 6652929.012868356 6652929.012868356 6521840.08914674 0 0 0 0 0 115672642.3836069 6573154.775182248 6573154.775182248 6443146.747931365 0 0 0 0 0 115195694.7027571 6490091.008379337 6490091.008379337 6363797.29033934 0 0 0 0 0 114655498.1712888 6258983.135019171 6258983.135019171 5588901.475660025 0 0 0 0 0 114759659.9028399 6187472.168924163 6187472.168924163 5665241.928057799 0 0 0 0 0 114226063.4780974 6177704.620465393 6177704.620465393 5533083.152768263 0 0 0 0 0 113813444.5663201 6094470.18789248 6094470.18789248 5476641.252159274 0 0 0 0 0 113417293.8299614 6009858.606182781 6009858.606182781 5419470.638237122 0 0 0 0 0 113036692.474279 5924214.14094013 5924214.14094013 5361733.715715761 0 0 0 0 0 112670918.2344353 5837856.434566697 5837856.434566697 5303559.869278783 0 0 0 0 0 112321457.5535364 5594842.626689334 5594842.626689334 4741856.727551484 0 0 0 0 0 111939147.8118819 5545969.420547295 5545969.420547295 4654120.876722314 0 0 0 0 0 111981281.2953119 5515961.385034566 5515961.385034566 4701460.016890024 0 0 0 0 0 111618713.202676 5463968.622447973 5463968.622447973 4612419.262890645 0 0 0 0 0 111310237.5830186 5381723.474133429 5381723.474133429 4569990.280295435 0 0 0 0 0 111013271.5025771 5299774.091151239 5299774.091151239 4525683.706009365 0 0 0 0 0 110724720.8696041 5220990.444143904 5220990.444143904 4476472.189781545 0 0 0 0 0 110430655.3140416 5048848.581206353 5048848.581206353 4020948.155796156 0 0 0 0 0 110433769.9194667 5021476.776457284 5021476.776457284 4020186.064588198 0 0 0 0 0 110243752.4136086 4987489.076480887 4987489.076480887 3961326.33615765 0 0 0 0 0 110022114.1122192 4895677.900216707 4895677.900216707 3764316.591054261 0 0 0 0 0 118721232.8181991 7245100.118223839 7245100.118223839 8690323.602271734 0 0 0 0 0 251405045.9169972 -67517561.23807321 -67517561.23807321 24021437.97894568 0 0 0 0 0 235552087.638912 -59540211.13528635 -59540211.13528635 27280399.91744759 0 0 0 0 0 216186914.2710165 -49075688.54935367 -49075688.54935367 25041780.15034318 0 0 0 0 0 202296651.5827048 -38876641.55780338 -38876641.55780338 29146348.79658325 0 0 0 0 0 204059248.54805 -39311581.64249022 -39311581.64249022 25542932.87307631 0 0 0 0 0 175839741.2558669 -17385705.79457411 -17385705.79457411 25478194.67392398 0 0 0 0 0 194180711.3039765 -31032731.96132812 -31032731.96132812 28785703.88745904 0 0 0 0 0 186890985.459162 -24458151.60528965 -24458151.60528965 28238558.81806996 0 0 0 0 0 171010491.6552054 -12958064.66248721 -12958064.66248721 25199806.19332631 0 0 0 0 0 166577165.9211161 -9281850.12172023 -9281850.12172023 24861055.30232729 0 0 0 0 0 162505753.928942 -6224715.143822866 -6224715.143822866 24474253.19469984 0 0 0 0 0 158763070.9601804 -3679858.268684715 -3679858.268684715 24050269.39103672 0 0 0 0 0 155318975.0513555 -1560759.325984615 -1560759.325984615 23597816.06986109 0 0 0 0 0 152145629.9072913 203642.9504251411 203642.9504251411 23124193.47497982 0 0 0 0 0 149218970.4730162 1671207.070523719 1671207.070523719 22635926.47830378 0 0 0 0 0 146517183.5590594 2890657.378959602 2890657.378959602 22135270.63635324 0 0 0 0 0 145127362.6899507 2169829.474065019 2169829.474065019 20852478.32427255 0 0 0 0 0 142475580.260287 4112135.440601848 4112135.440601848 19627053.12056889 0 0 0 0 0 140357690.0964448 4908668.712769995 4908668.712769995 19170221.85368998 0 0 0 0 0 138382999.8288029 5564851.767986636 5564851.767986636 18719599.54426118 0 0 0 0 0 136538809.2636199 6101778.720716028 6101778.720716028 18276114.97877788 0 0 0 0 0 133959378.1506067 6569188.994706357 6569188.994706357 16069283.64261882 0 0 0 0 0 135431761.351579 5435309.11600873 5435309.11600873 16898611.55840983 0 0 0 0 0 132450713.6544465 6904458.625251363 6904458.625251363 15704496.3022427 0 0 0 0 0 131033217.5228794 7171090.027152743 7171090.027152743 15353038.09444527 0 0 0 0 0 129700754.9430215 7378048.832392559 7378048.832392559 15005699.94118718 0 0 0 0 0 128447896.8027056 7533483.424166157 7533483.424166157 14661106.9579841 0 0 0 0 0 127265270.9349455 7645548.426310216 7645548.426310216 14324344.18594882 0 0 0 0 0 126149578.3898424 7720488.614989957 7720488.614989957 13994562.08411012 0 0 0 0 0 125330406.314434 7184531.748880214 7184531.748880214 12808217.32914301 0 0 0 0 0 124752309.4901951 7693722.729972782 7693722.729972782 12331734.71273714 0 0 0 0 0 123798072.9333444 7711808.385526756 7711808.385526756 12075279.7575776 0 0 0 0 0 122894949.2741737 7707958.13626783 7707958.13626783 11825491.65139601 0 0 0 0 0 122034078.7182564 7685801.155751837 7685801.155751837 11586659.70053173 0 0 0 0 0 121217513.3017232 7647396.77375902 7647396.77375902 11353196.67717071 0 0 0 0 0 120442029.4363156 7595922.763407045 7595922.763407045 11125717.00909499 0 0 0 0 0 119813249.9041331 7169184.832147828 7169184.832147828 10156286.89774441 0 0 0 0 0 119547949.6670308 7436486.359462258 7436486.359462258 9853360.397426195 0 0 0 0 0 118871860.6917129 7367609.466127085 7367609.466127085 9668809.681625208 0 0 0 0 0 118160567.0836011 6858898.908269258 6858898.908269258 7803401.807767659 0 0 0 0 0 117555098.9717768 6801684.652216213 6801684.652216213 7694060.875302834 0 0 0 0 0 116856336.3693073 6605575.532812044 6605575.532812044 6717797.342130454 0 0 0 0 0 117366236.1603836 6958832.741052005 6958832.741052005 7532474.549603282 0 0 0 0 0 116317397.0400266 6540134.658673463 6540134.658673463 6637866.595315336 0 0 0 0 0 115801678.0434674 6469658.236610362 6469658.236610362 6557530.493807334 0 0 0 0 0 115308850.768507 6394886.142746029 6394886.142746029 6476867.21549497 0 0 0 0 0 114837482.6443043 6316683.037513237 6316683.037513237 6395885.886134952 0 0 0 0 0 114317325.6974054 6111848.599078704 6111848.599078704 5608352.700333719 0 0 0 0 0 114738652.7016034 6404436.615422473 6404436.615422473 6284035.302356549 0 0 0 0 0 113893373.3447916 6033961.160650633 6033961.160650633 5551466.436188882 0 0 0 0 0 113486909.0177411 5954173.459923098 5954173.459923098 5493718.794759005 0 0 0 0 0 113096823.2083796 5872901.377178833 5872901.377178833 5435764.697955092 0 0 0 0 0 112722456.2228548 5790494.247155545 5790494.247155545 5377357.948300065 0 0 0 0 0 112362994.7642792 5707283.959844113 5707283.959844113 5318538.283490826 0 0 0 0 0 112319237.0866286 5751099.816484375 5751099.816484375 5245170.778059578 0 0 0 0 0 111654123.3472092 5436628.524974848 5436628.524974848 4660202.940496502 0 0 0 0 0 111980965.6923196 5664158.662285345 5664158.662285345 5186573.09633751 0 0 0 0 0 111339257.8976311 5356974.157613454 5356974.157613454 4618305.058860271 0 0 0 0 0 111036015.4623022 5276905.844417634 5276905.844417634 4575730.958543072 0 0 0 0 0 110744893.8687016 5195973.191596386 5195973.191596386 4532118.339728504 0 0 0 0 0 110464807.0158496 5114867.208863367 5114867.208863367 4486356.55264329 0 0 0 0 0 110175382.5647839 4955353.056464875 4955353.056464875 4006224.824311015 0 0 0 0 0 110452706.1124975 5143825.160520464 5143825.160520464 4430008.280610981 0 0 0 0 0 109949433.3496068 4891120.232461513 4891120.232461513 4034857.338226877 0 0 0 0 0 109750929.8823683 4807230.129515811 4807230.129515811 3933496.850100079 0 0 0 0 0 118300140.3725904 6975740.493275016 6975740.493275016 8771921.894721564 0 0 0 0 0 243393186.7514062 -63587302.75629592 -63587302.75629592 17259163.28851 0 0 0 0 0 223147002.8728867 -51854265.05039816 -51854265.05039816 20897875.11168864 0 0 0 0 0 223597332.1705393 -50579060.09969854 -50579060.09969854 27844032.10772992 0 0 0 0 0 195912159.9395747 -31229915.29186679 -31229915.29186679 26139911.62295282 0 0 0 0 0 212863576.3305183 -41289737.87137584 -41289737.87137584 29002459.44963373 0 0 0 0 0 180388620.1925413 -19014096.16096672 -19014096.16096672 27672645.1695232 0 0 0 0 0 188715587.1039197 -24389702.22915955 -24389702.22915955 26518460.89348714 0 0 0 0 0 182275801.3413201 -18736908.7900491 -18736908.7900491 26693345.65740545 0 0 0 0 0 174566375.1728358 -14494824.37185753 -14494824.37185753 27093731.88016755 0 0 0 0 0 169335689.0378612 -10735186.33422851 -10735186.33422851 26507365.6705729 0 0 0 0 0 164621246.9193998 -7601328.664771688 -7601328.664771688 25914351.15406084 0 0 0 0 0 160357273.2956696 -4985820.218103204 -4985820.218103204 25317641.85656444 0 0 0 0 0 156490282.5420597 -2800365.056470042 -2800365.056470042 24719097.84807605 0 0 0 0 0 152974450.0089464 -973897.5777826539 -973897.5777826539 24121531.31905073 0 0 0 0 0 149768889.0464073 552262.3118381416 552262.3118381416 23527649.14925905 0 0 0 0 0 146840932.1375549 1826586.959041238 1826586.959041238 22938756.24744074 0 0 0 0 0 144016201.5159526 3901645.436525663 3901645.436525663 21629365.98866885 0 0 0 0 0 142672539.361463 3183403.128333043 3183403.128333043 20306838.67475254 0 0 0 0 0 140405569.9844808 4027197.24053745 4027197.24053745 19780272.58458655 0 0 0 0 0 138308505.1596159 4727143.663849115 4727143.663849115 19270772.17919524 0 0 0 0 0 136365975.3726641 5304833.016761603 5304833.016761603 18776186.34249873 0 0 0 0 0 133746634.7188732 5886546.858181114 5886546.858181114 16481566.97683276 0 0 0 0 0 134815659.5083538 6537633.781694195 6537633.781694195 17840052.2746654 0 0 0 0 0 132172995.7525887 6253682.085366111 6253682.085366111 16078795.86903352 0 0 0 0 0 130700131.0755147 6548494.421362387 6548494.421362387 15689324.55965744 0 0 0 0 0 129321056.3563402 6782630.706823473 6782630.706823473 15317401.87543507 0 0 0 0 0 128031998.4293137 6964346.497250023 6964346.497250023 14952218.19029114 0 0 0 0 0 126826502.3504232 7101662.190368394 7101662.190368394 14594029.86093999 0 0 0 0 0 125695175.7912364 7200447.852342586 7200447.852342586 14243477.87442717 0 0 0 0 0 125095953.4193343 7765368.323590087 7765368.323590087 13679079.81486684 0 0 0 0 0 124308830.149839 7247650.190802836 7247650.190802836 12528567.65205467 0 0 0 0 0 123344806.2997244 7283811.390687014 7283811.390687014 12257204.36636513 0 0 0 0 0 122434780.5265498 7296946.448266852 7296946.448266852 11993501.3003856 0 0 0 0 0 121577922.854432 7290724.696364203 7290724.696364203 11736804.66765685 0 0 0 0 0 120760876.8678602 7267771.793051246 7267771.793051246 11493651.74210896 0 0 0 0 0 119985423.3660949 7229922.592924311 7229922.592924311 11257059.40232183 0 0 0 0 0 119712019.5232704 7532923.341942672 7532923.341942672 10896955.52051372 0 0 0 0 0 119106255.3739799 7121470.542423753 7121470.542423753 9961473.821758833 0 0 0 0 0 118433837.5346366 7063825.881004814 7063825.881004814 9770238.853280038 0 0 0 0 0 118094416.2625451 7173920.161202431 7173920.161202431 8550338.46931472 0 0 0 0 0 117494011.0773412 7095937.564617446 7095937.564617446 8412516.646989174 0 0 0 0 0 116810408.543845 6881630.138255845 6881630.138255845 7425418.436691101 0 0 0 0 0 116974718.7026809 6737015.539464997 6737015.539464997 7584975.804569021 0 0 0 0 0 116277999.6416701 6799698.65735013 6799698.65735013 7318834.271640432 0 0 0 0 0 115768304.7774566 6713506.692256168 6713506.692256168 7212025.918908431 0 0 0 0 0 115280581.0563615 6624220.766809154 6624220.766809154 7105846.225272586 0 0 0 0 0 114813819.4151971 6532623.475733215 6532623.475733215 7000645.963633868 0 0 0 0 0 114300330.5274834 6316642.478824984 6316642.478824984 6204572.625893306 0 0 0 0 0 114386232.5942789 6235619.631589465 6235619.631589465 6314686.160850809 0 0 0 0 0 113879881.3649234 6227340.581684075 6227340.581684075 6125140.435678617 0 0 0 0 0 113476255.8150216 6136883.731862516 6136883.731862516 6046273.212916023 0 0 0 0 0 113088819.6202527 6045607.032985479 6045607.032985479 5967644.813297047 0 0 0 0 0 112716835.1631001 5953882.602751642 5953882.602751642 5889442.617835743 0 0 0 0 0 112359483.9927249 5862013.47531384 5862013.47531384 5811828.282829305 0 0 0 0 0 112017654.2808907 5623600.377017149 5623600.377017149 5259528.743603713 0 0 0 0 0 111655531.8618772 5577290.223342308 5577290.223342308 5128106.734035107 0 0 0 0 0 111685806.3518946 5539714.960373128 5539714.960373128 5200438.05156533 0 0 0 0 0 111342373.2497618 5490502.828847365 5490502.828847365 5070058.670612841 0 0 0 0 0 111041168.0639106 5403492.088944099 5403492.088944099 5013832.770011615 0 0 0 0 0 110751392.4332541 5317450.20611503 5317450.20611503 4959594.378304875 0 0 0 0 0 110470554.7454771 5230964.932831236 5230964.932831236 4893195.404378635 0 0 0 0 0 110217033.1044471 5080647.448665106 5080647.448665106 4419078.974919065 0 0 0 0 0 110184990.829053 5035534.491849507 5035534.491849507 4431300.625067906 0 0 0 0 0 109997535.6905352 4978242.15605443 4978242.15605443 4235750.441164748 0 0 0 0 0 118228732.7239092 7290975.936625275 7290975.936625275 9488335.281952925 0 0 0 0 0 267952173.7325558 -62060055.17705879 -62060055.17705879 19756512.18313887 0 0 0 0 0 242565416.891095 -51990417.42166576 -51990417.42166576 18566044.87761014 0 0 0 0 0 236367447.783049 -52669538.8395062 -52669538.8395062 24940042.41826218 0 0 0 0 0 216118002.3755032 -41461392.82453942 -41461392.82453942 23903967.37555315 0 0 0 0 0 202993811.8143474 -32971495.93148555 -32971495.93148555 29015817.70990867 0 0 0 0 0 205927420.1412813 -33011996.19466532 -33011996.19466532 25664474.86813221 0 0 0 0 0 176474845.3204263 -14061531.70332739 -14061531.70332739 26696681.47311291 0 0 0 0 0 194305067.3443854 -26046875.77411441 -26046875.77411441 28981137.47975149 0 0 0 0 0 186648450.330975 -20329043.5224625 -20329043.5224625 28820936.81771839 0 0 0 0 0 171234822.1865197 -10188674.32169692 -10188674.32169692 26560676.21876722 0 0 0 0 0 166486682.6363429 -6974851.406537375 -6974851.406537375 26313705.46736802 0 0 0 0 0 162174980.0837251 -4304194.287641097 -4304194.287641097 25982025.79115414 0 0 0 0 0 158251824.7016906 -2083180.780905863 -2083180.780905863 25582813.75934473 0 0 0 0 0 154672085.609698 -236379.1721198309 -236379.1721198309 25133781.98937723 0 0 0 0 0 151399019.8857854 1298541.897486858 1298541.897486858 24647472.69486609 0 0 0 0 0 148402124.2587912 2572847.159892577 2572847.159892577 24133730.71038696 0 0 0 0 0 145650058.3934806 3628593.732322915 3628593.732322915 23600397.40023704 0 0 0 0 0 144158609.2888603 2888815.039431199 2888815.039431199 22354887.84270466 0 0 0 0 0 141700686.8069119 4737325.954344796 4737325.954344796 21124138.08915319 0 0 0 0 0 139554405.4674298 5425266.839077023 5425266.839077023 20621589.82807222 0 0 0 0 0 137562208.5256243 5987847.345603609 5987847.345603609 20122373.44801645 0 0 0 0 0 135709776.6806546 6444573.257758243 6444573.257758243 19628808.99684238 0 0 0 0 0 133202076.4194991 6887782.458752127 6887782.458752127 17415984.23544546 0 0 0 0 0 134563334.375088 5779009.435705738 5779009.435705738 18296168.24058952 0 0 0 0 0 131691918.4958794 7166029.353088128 7166029.353088128 17005250.60468308 0 0 0 0 0 130277886.2093422 7382415.543577516 7382415.543577516 16601824.99338829 0 0 0 0 0 128953680.1870359 7545311.976298249 7545311.976298249 16201466.42628899 0 0 0 0 0 127710924.0996877 7662984.981339717 7662984.981339717 15807670.09149839 0 0 0 0 0 126542547.1936281 7742177.097838894 7742177.097838894 15421141.24319947 0 0 0 0 0 125440075.5722998 7789049.485311884 7789049.485311884 15049837.58002886 0 0 0 0 0 124629993.9877627 7266772.730471115 7266772.730471115 13906441.59284807 0 0 0 0 0 124100837.9029399 7783291.611182956 7783291.611182956 13370769.0670552 0 0 0 0 0 123160839.1012313 7778531.507347651 7778531.507347651 13070322.00026708 0 0 0 0 0 122272994.2644129 7754461.279324984 7754461.279324984 12778144.40945624 0 0 0 0 0 121425192.331572 7713551.018170233 7713551.018170233 12501177.13201862 0 0 0 0 0 120624622.3178835 7660331.851351772 7660331.851351772 12228829.7000445 0 0 0 0 0 119867552.8611434 7594871.664773619 7594871.664773619 11963430.49176297 0 0 0 0 0 119252636.2560692 7180362.740899995 7180362.740899995 11025192.37683846 0 0 0 0 0 119015874.1554776 7460202.644190581 7460202.644190581 10673456.37662736 0 0 0 0 0 118354328.7274578 7379449.064784184 7379449.064784184 10454592.90763678 0 0 0 0 0 117678976.0286854 6913440.337613067 6913440.337613067 8623014.235214349 0 0 0 0 0 117086748.5215901 6844393.174351314 6844393.174351314 8480325.617703043 0 0 0 0 0 116420728.2372518 6666152.504208969 6666152.504208969 7476894.606920092 0 0 0 0 0 116922162.5770992 7012885.41309633 7012885.41309633 8275901.047573369 0 0 0 0 0 115892574.5311513 6590237.598303382 6590237.598303382 7367921.068939665 0 0 0 0 0 115388998.7613037 6510268.337031784 6510268.337031784 7258829.380265323 0 0 0 0 0 114908049.8254493 6427169.912471713 6427169.912471713 7150377.637505128 0 0 0 0 0 114448032.7352445 6341329.402844635 6341329.402844635 7043063.87821305 0 0 0 0 0 113954108.1811934 6152363.795842288 6152363.795842288 6233454.313946101 0 0 0 0 0 114366643.5137406 6439183.106225124 6439183.106225124 6896476.054114069 0 0 0 0 0 113540123.1327406 6067305.200654943 6067305.200654943 6152729.905332232 0 0 0 0 0 113143384.5266647 5981038.02454368 5981038.02454368 6072464.398777527 0 0 0 0 0 112762985.8223893 5893869.187659286 5893869.187659286 5992725.72869668 0 0 0 0 0 112398077.8347639 5806136.838961678 5806136.838961678 5913483.46714659 0 0 0 0 0 112047856.5962256 5718111.913897409 5718111.913897409 5834827.38594932 0 0 0 0 0 112016033.8450992 5770222.869746238 5770222.869746238 5734676.077506259 0 0 0 0 0 111366749.6089415 5455945.336875943 5455945.336875943 5141495.454579092 0 0 0 0 0 111685887.5082261 5678841.796718746 5678841.796718746 5658325.462768092 0 0 0 0 0 111060183.4724898 5372561.688006419 5372561.688006419 5082761.943496012 0 0 0 0 0 110765666.3193252 5290158.813924609 5290158.813924609 5025004.870505013 0 0 0 0 0 110491233.4595152 5210522.350794103 5210522.350794103 4969974.373637406 0 0 0 0 0 110247374.8640658 5141078.29812015 5141078.29812015 4910563.912985007 0 0 0 0 0 109925311.1700892 4965567.879817719 4965567.879817719 4431132.525258995 0 0 0 0 0 110187581.18396 5145834.235898593 5145834.235898593 4854373.558099077 0 0 0 0 0 109687659.6585016 4881587.328301015 4881587.328301015 4379791.318193696 0 0 0 0 0 117795161.1106193 6997661.156646322 6997661.156646322 9583108.81465169 0 0 0 0 0 251169564.3520311 -53365878.73280542 -53365878.73280542 11898943.23496553 0 0 0 0 0 251345426.1977685 -53021800.38611837 -53021800.38611837 21426189.45806873 0 0 0 0 0 227970421.2766051 -42143603.36970625 -42143603.36970625 21932835.9496104 0 0 0 0 0 224055953.4196962 -42596761.2134413 -42596761.2134413 26586597.87259542 0 0 0 0 0 197148879.3229049 -25821893.13330984 -25821893.13330984 26763525.33605455 0 0 0 0 0 212571264.2123712 -34410522.52003617 -34410522.52003617 28202551.92025184 0 0 0 0 0 179870810.0166935 -15595093.56669077 -15595093.56669077 28550540.38825634 0 0 0 0 0 189384769.9456897 -19912298.11400094 -19912298.11400094 27461393.61680876 0 0 0 0 0 182485004.9743039 -15043119.42399396 -15043119.42399396 27847008.73471173 0 0 0 0 0 173846232.0968611 -11664499.05958819 -11664499.05958819 28187034.09179071 0 0 0 0 0 168469910.9764133 -8393468.764966404 -8393468.764966404 27750604.81423559 0 0 0 0 0 163651869.5781515 -5665763.750258227 -5665763.750258227 27257302.30218328 0 0 0 0 0 159319476.3051617 -3388124.600915623 -3388124.600915623 26722562.99421609 0 0 0 0 0 155407434.493152 -1485489.942932883 -1485489.942932883 26156774.30077494 0 0 0 0 0 151866328.4648412 103923.5750096973 103923.5750096973 25569801.04245794 0 0 0 0 0 148651410.6720592 1431027.942076986 1431027.942076986 24969393.05500808 0 0 0 0 0 145724789.5092586 2537680.353149658 2537680.353149658 24362001.93670975 0 0 0 0 0 143118526.9427307 4501017.465327379 4501017.465327379 23055641.93081211 0 0 0 0 0 141697482.1426148 3773090.765158719 3773090.765158719 21779434.80842788 0 0 0 0 0 139432985.4585894 4506713.731564191 4506713.731564191 21216133.42837235 0 0 0 0 0 137345456.5064377 5112581.52957039 5112581.52957039 20665019.60366328 0 0 0 0 0 135417760.3431659 5610291.645409384 5610291.645409384 20126051.23355032 0 0 0 0 0 132890111.304324 6164779.976797051 6164779.976797051 17828662.11886894 0 0 0 0 0 133986234.1937332 6811494.978738028 6811494.978738028 19143627.31009974 0 0 0 0 0 131330711.6412378 6475064.535135682 6475064.535135682 17377918.83055389 0 0 0 0 0 129875712.4880698 6722389.251837067 6722389.251837067 16945457.58813905 0 0 0 0 0 128515516.4120369 6914478.214450972 6914478.214450972 16524476.75678771 0 0 0 0 0 127247476.6332994 7059482.218062202 7059482.218062202 16110477.36396108 0 0 0 0 0 126062012.4486466 7165574.797292356 7165574.797292356 15706911.79545091 0 0 0 0 0 124953416.81599 7237324.906176661 7237324.906176661 15309339.95954372 0 0 0 0 0 124403407.5727229 7809318.07936186 7809318.07936186 14690006.95075212 0 0 0 0 0 123626500.3487917 7305328.794027282 7305328.794027282 13581605.56873811 0 0 0 0 0 122681641.5642909 7320037.130817616 7320037.130817616 13266728.22929705 0 0 0 0 0 121791212.4076517 7314441.649377351 7314441.649377351 12960502.64783937 0 0 0 0 0 120953012.6093223 7292180.289078095 7292180.289078095 12664009.7289043 0 0 0 0 0 120154728.3845405 7254410.848840495 7254410.848840495 12382732.35367967 0 0 0 0 0 119400284.8208975 7205032.024963207 7205032.024963207 12107597.89644821 0 0 0 0 0 119153646.6966443 7520522.92780207 7520522.92780207 11700217.73603599 0 0 0 0 0 118561992.359485 7120990.569641788 7120990.569641788 10794771.50164233 0 0 0 0 0 117907071.9990935 7052866.947226385 7052866.947226385 10569433.3465854 0 0 0 0 0 117614788.2680536 7208043.639518388 7208043.639518388 9315607.981828621 0 0 0 0 0 117026620.0564881 7119601.593231888 7119601.593231888 9147556.570255067 0 0 0 0 0 116376989.1703608 6925373.570049814 6925373.570049814 8140558.582297415 0 0 0 0 0 116518510.4399969 6768849.212961392 6768849.212961392 8341061.20164696 0 0 0 0 0 115855604.2009203 6833456.621534585 6833456.621534585 8004056.106566874 0 0 0 0 0 115357548.6034036 6738866.492351065 6738866.492351065 7869607.290622052 0 0 0 0 0 114881131.5760159 6642078.995562064 6642078.995562064 7737630.181055635 0 0 0 0 0 114425364.0549472 6543680.354778691 6543680.354778691 7607854.424521163 0 0 0 0 0 113938220.0197025 6344336.261415334 6344336.261415334 6793463.893263289 0 0 0 0 0 114007830.1038781 6253380.874428182 6253380.874428182 6936873.020254676 0 0 0 0 0 113527430.0298354 6248561.402521892 6248561.402521892 6691688.511873031 0 0 0 0 0 113133502.2146419 6152265.480182849 6152265.480182849 6591248.008006074 0 0 0 0 0 112755600.3801335 6055743.201437031 6055743.201437031 6492109.835931336 0 0 0 0 0 112392874.3587468 5959270.103134695 5959270.103134695 6394269.803108157 0 0 0 0 0 112044566.2005632 5863079.003534499 5863079.003534499 6297816.23247371 0 0 0 0 0 111711571.4913245 5630056.370114021 5630056.370114021 5756879.594334805 0 0 0 0 0 111368425.3549952 5587971.598884649 5587971.598884649 5582398.35005973 0 0 0 0 0 111388220.0915212 5542157.427902884 5542157.427902884 5679738.396878613 0 0 0 0 0 111063011.7936059 5497887.566732713 5497887.566732713 5506643.227311794 0 0 0 0 0 110770202.2712557 5407898.173896334 5407898.173896334 5431537.278129428 0 0 0 0 0 110494144.3623328 5319656.889431196 5319656.889431196 5341227.714658974 0 0 0 0 0 110246863.0300097 5228359.554444418 5228359.554444418 5240742.395209756 0 0 0 0 0 109957612.3451462 5075678.919407862 5075678.919407862 4718371.189516282 0 0 0 0 0 110033213.2870975 5082831.069348739 5082831.069348739 4825393.63983442 0 0 0 0 0 117725804.2349989 7292729.840290521 7292729.840290521 10242265.98231861 0 0 0 0 0 273520205.4277456 -52672272.52113633 -52672272.52113633 17478572.04816839 0 0 0 0 0 243110323.8729303 -42156365.2791848 -42156365.2791848 19060784.03393081 0 0 0 0 0 235459260.3985454 -43405793.86159665 -43405793.86159665 24574025.06664089 0 0 0 0 0 217314929.8785196 -34055577.0267834 -34055577.0267834 24408033.98249486 0 0 0 0 0 202339828.9804538 -27281681.83411485 -27281681.83411485 28995899.84905778 0 0 0 0 0 206478100.2838578 -26795763.77452039 -26795763.77452039 26379228.79545983 0 0 0 0 0 176329441.458812 -11019146.04264215 -11019146.04264215 27987701.07299404 0 0 0 0 0 193405947.2277166 -21392231.18535523 -21392231.18535523 29428026.35529947 0 0 0 0 0 185574235.3389316 -16520461.65845629 -16520461.65845629 29589048.32148743 0 0 0 0 0 170821015.0823796 -7685260.099836725 -7685260.099836725 27937730.55609452 0 0 0 0 0 165873531.3038229 -4917046.992269835 -4917046.992269835 27741399.98881572 0 0 0 0 0 161416649.1246024 -2616163.786088501 -2616163.786088501 27431284.92417045 0 0 0 0 0 157386475.1210848 -703517.8497020316 -703517.8497020316 27034360.23590929 0 0 0 0 0 153732069.1143602 886173.9009897236 886173.9009897236 26572579.17729564 0 0 0 0 0 150410330.9735158 2206414.167586681 2206414.167586681 26062145.69898572 0 0 0 0 0 147383854.9124047 3300941.0748499 3300941.0748499 25516881.45440603 0 0 0 0 0 144617652.7251875 4206092.980730264 4206092.980730264 24946096.07321317 0 0 0 0 0 143054343.0873073 3459324.021079598 3459324.021079598 23751107.32288106 0 0 0 0 0 140784724.6728666 5219443.992930877 5219443.992930877 22508543.15871284 0 0 0 0 0 138631807.9621097 5807604.704848087 5807604.704848087 21959895.49638041 0 0 0 0 0 136640831.5869838 6285650.076948483 6285650.076948483 21413493.60005648 0 0 0 0 0 134797027.5199783 6670550.495379739 6670550.495379739 20872440.54027757 0 0 0 0 0 132378820.8094617 7102924.912670702 7102924.912670702 18672575.99167649 0 0 0 0 0 133633912.3231716 6015614.816655741 6015614.816655741 19598938.53914168 0 0 0 0 0 130877371.7529998 7329887.327091374 7329887.327091374 18211458.95170651 0 0 0 0 0 129473877.1764933 7501306.949910757 7501306.949910757 17756652.59911674 0 0 0 0 0 128163693.9444693 7625470.189160449 7625470.189160449 17307457.65213087 0 0 0 0 0 126938346.4421384 7711180.426230739 7711180.426230739 16868291.30949658 0 0 0 0 0 125790073.9355059 7763347.510237167 7763347.510237167 16438179.92963701 0 0 0 0 0 124707631.8231998 7787711.924193912 7787711.924193912 16028228.44166836 0 0 0 0 0 123908224.277057 7280229.380439211 7280229.380439211 14930626.90145632 0 0 0 0 0 123425442.1895446 7805480.671046657 7805480.671046657 14339409.40748886 0 0 0 0 0 122503807.2086945 7781904.368708079 7781904.368708079 13997266.67179734 0 0 0 0 0 121633913.2231013 7741920.289375801 7741920.289375801 13666605.72064639 0 0 0 0 0 120806076.3034521 7687928.43024803 7687928.43024803 13351871.2010809 0 0 0 0 0 120023250.6574753 7621203.335615084 7621203.335615084 13044779.01483324 0 0 0 0 0 119283916.1102449 7545620.812738745 7545620.812738745 12747119.84929416 0 0 0 0 0 118685366.1477366 7144652.455971314 7144652.455971314 11842077.29979242 0 0 0 0 0 118473625.7380027 7437028.736668653 7437028.736668653 11442046.84583275 0 0 0 0 0 117828779.3137991 7347894.953629331 7347894.953629331 11191921.87698532 0 0 0 0 0 117188179.3773665 6924827.543617352 6924827.543617352 9401199.6831405 0 0 0 0 0 116610351.3318569 6846630.466383616 6846630.466383616 9227296.543146798 0 0 0 0 0 115977444.6334567 6688693.689548776 6688693.689548776 8202967.594476201 0 0 0 0 0 116467542.4984453 7027094.111360686 7027094.111360686 8983919.682331031 0 0 0 0 0 115462601.6589356 6604437.8552848 6604437.8552848 8064720.850060005 0 0 0 0 0 114971393.1535028 6517073.744555031 6517073.744555031 7927878.792751455 0 0 0 0 0 114502791.2346203 6427183.165109112 6427183.165109112 7792999.191623217 0 0 0 0 0 114054544.3296826 6335401.202711781 6335401.202711781 7660511.415823005 0 0 0 0 0 113586628.6516675 6163830.535579927 6163830.535579927 6832012.055194595 0 0 0 0 0 113989019.7313786 6444000.050318501 6444000.050318501 7480194.656824183 0 0 0 0 0 113183297.2593157 6073173.01461952 6073173.01461952 6728509.334318067 0 0 0 0 0 112797010.3892575 5981824.502365484 5981824.502365484 6626482.011263791 0 0 0 0 0 112426724.5116356 5890103.026438368 5890103.026438368 6525884.129622814 0 0 0 0 0 112071706.843178 5798239.814756243 5798239.814756243 6426736.919329445 0 0 0 0 0 111731075.9735134 5706560.32625245 5706560.32625245 6329120.444469159 0 0 0 0 0 111709824.4718132 5767438.873860373 5767438.873860373 6203074.652189272 0 0 0 0 0 111077478.3919581 5454628.280767916 5454628.280767916 5603333.820092275 0 0 0 0 0 111388204.1670174 5672469.830085855 5672469.830085855 6109609.134498569 0 0 0 0 0 110778982.6608853 5367527.399083592 5367527.399083592 5527307.257508248 0 0 0 0 0 110489384.4778093 5280095.749441008 5280095.749441008 5451132.716398852 0 0 0 0 0 110227965.3080336 5201500.25184736 5201500.25184736 5390246.702439587 0 0 0 0 0 109987859.6177841 5127130.945792377 5127130.945792377 5295359.731712753 0 0 0 0 0 109635618.6255656 4946152.209976276 4946152.209976276 4893284.701138516 0 0 0 0 0 109869154.2750653 5093166.908288458 5093166.908288458 5238722.112096758 0 0 0 0 0 117284964.7488043 6977992.619715801 6977992.619715801 10349812.02597959 0 0 0 0 0 257394977.7241786 -46313292.38399888 -46313292.38399888 9767858.289408296 0 0 0 0 0 244220562.5646757 -41437301.69246381 -41437301.69246381 18820361.67492275 0 0 0 0 0 228857839.0672987 -34273476.23402508 -34273476.23402508 22333215.80648419 0 0 0 0 0 222733719.1020006 -34986177.07179376 -34986177.07179376 26335691.04321749 0 0 0 0 0 197192267.4786089 -20766396.68784923 -20766396.68784923 27736253.40596768 0 0 0 0 0 210920858.6569862 -27956894.28728049 -27956894.28728049 28229769.35898146 0 0 0 0 0 178680083.759668 -12478500.56494391 -12478500.56494391 29540316.32013755 0 0 0 0 0 189046616.5165313 -15799031.51734825 -15799031.51734825 28608330.2427881 0 0 0 0 0 181866886.3996722 -11697050.64453869 -11697050.64453869 29103335.37757247 0 0 0 0 0 172581998.1505364 -9115373.21949291 -9115373.21949291 29328966.14216576 0 0 0 0 0 167164333.4518609 -6310733.828192091 -6310733.828192091 28992651.26770231 0 0 0 0 0 162326255.2395889 -3968283.170696762 -3968283.170696762 28563380.87795122 0 0 0 0 0 157986817.2845788 -2010182.910355421 -2010182.910355421 28063651.72750449 0 0 0 0 0 154083574.7732432 -372602.8725711014 -372602.8725711014 27509947.148479 0 0 0 0 0 150562050.4156411 996505.1834722235 996505.1834722235 26919441.70992612 0 0 0 0 0 147374782.231577 2139635.789500399 2139635.789500399 26303329.05516333 0 0 0 0 0 144479872.0949826 3092906.023091014 3092906.023091014 25672120.55660176 0 0 0 0 0 142082898.2810316 4952281.861582977 4952281.861582977 24362139.95089464 0 0 0 0 0 140611286.5432563 4224646.3480515 4224646.3480515 23142207.77462953 0 0 0 0 0 138369478.7630419 4857877.743804979 4857877.743804979 22541731.53557744 0 0 0 0 0 136308344.8326302 5379052.821029208 5379052.821029208 21949579.98756843 0 0 0 0 0 134409368.1213511 5805166.07903172 5805166.07903172 21367676.34141011 0 0 0 0 0 131983490.0516179 6342255.284044917 6342255.284044917 19085031.14909767 0 0 0 0 0 133087221.3879116 6976363.315864274 6976363.315864274 20343204.18594835 0 0 0 0 0 130444459.0143828 6602706.874814037 6602706.874814037 18591554.68666498 0 0 0 0 0 129012134.0864332 6807212.3740992 6807212.3740992 18112708.76719183 0 0 0 0 0 127681167.4806619 6963305.258027873 6963305.258027873 17641509.12294113 0 0 0 0 0 126438196.806599 7077835.119294985 7077835.119294985 17183268.9627986 0 0 0 0 0 125277069.4147828 7156568.662006826 7156568.662006826 16735371.83662628 0 0 0 0 0 124192431.8026164 7205918.498774328 7205918.498774328 16298568.97186837 0 0 0 0 0 123690934.2462281 7786462.245358567 7786462.245358567 15625280.82592012 0 0 0 0 0 122928704.7471531 7298711.410460654 7298711.410460654 14563511.32953774 0 0 0 0 0 122006684.547219 7296614.210197732 7296614.210197732 14208037.11311466 0 0 0 0 0 121139017.6433721 7276601.356307882 7276601.356307882 13862882.60985759 0 0 0 0 0 120322749.1161901 7241367.959607716 7241367.959607716 13527689.05974119 0 0 0 0 0 119545378.4717357 7193159.032394592 7193159.032394592 13210754.8177322 0 0 0 0 0 118811765.0858903 7133725.860356093 7133725.860356093 12903036.97826448 0 0 0 0 0 118587312.8035423 7461033.28861292 7461033.28861292 12446563.07629007 0 0 0 0 0 118014366.6184414 7076023.444519879 7076023.444519879 11577463.14466515 0 0 0 0 0 117376834.9078412 7000333.134144074 7000333.134144074 11319751.39874606 0 0 0 0 0 117126504.2947303 7201001.699001342 7201001.699001342 10040012.37162965 0 0 0 0 0 116553137.6448694 7104524.979028573 7104524.979028573 9842667.19825034 0 0 0 0 0 115934837.5251351 6931006.035915163 6931006.035915163 8816936.615342284 0 0 0 0 0 116056935.7126236 6762907.451986834 6762907.451986834 9056832.091193641 0 0 0 0 0 115426251.2093545 6832054.442777134 6832054.442777134 8653977.87551493 0 0 0 0 0 114940531.897052 6730824.929306781 6730824.929306781 8493939.532385617 0 0 0 0 0 114476606.1463302 6628542.598233091 6628542.598233091 8337917.384090154 0 0 0 0 0 114032621.4676331 6524840.040562463 6524840.040562463 8184588.966132799 0 0 0 0 0 113571207.8762411 6343610.752048325 6343610.752048325 7354782.757848416 0 0 0 0 0 113626372.65083 6242156.621093434 6242156.621093434 7530478.902183823 0 0 0 0 0 113170925.5773011 6242863.669661084 6242863.669661084 7231573.356728274 0 0 0 0 0 112787335.9505125 6142183.9125774 6142183.9125774 7110733.612206936 0 0 0 0 0 112419471.0376366 6041691.016684571 6041691.016684571 6992078.477924016 0 0 0 0 0 112066482.482768 5941673.50927826 5941673.50927826 6875621.927730945 0 0 0 0 0 111727705.1393439 5842405.288734239 5842405.288734239 6761348.202411122 0 0 0 0 0 111404013.7630184 5615182.196500223 5615182.196500223 6232886.384475319 0 0 0 0 0 111079214.416848 5578237.409704752 5578237.409704752 6017395.913256592 0 0 0 0 0 111089628.3400931 5524273.029852214 5524273.029852214 6138364.6358331 0 0 0 0 0 110782053.5973634 5484693.378064512 5484693.378064512 5925794.127447623 0 0 0 0 0 110493950.951056 5391244.125778165 5391244.125778165 5836307.365605701 0 0 0 0 0 110237442.4444688 5306730.583938951 5306730.583938951 5649234.512478414 0 0 0 0 0 110004487.7443613 5200634.06553657 5200634.06553657 5375759.781750266 0 0 0 0 0 109843334.751584 5106221.733061323 5106221.733061323 5121207.79026354 0 0 0 0 0 117216539.4592825 7253550.456166291 7253550.456166291 10949260.74472656 0 0 0 0 0 283538412.7645259 -44437092.17244548 -44437092.17244548 15256139.29379342 0 0 0 0 0 262872285.8464269 -39424844.66678792 -39424844.66678792 19244064.33705816 0 0 0 0 0 241104366.7843055 -32983675.72426971 -32983675.72426971 19886790.03658053 0 0 0 0 0 232982264.9908726 -34415993.64006606 -34415993.64006606 23440598.53299905 0 0 0 0 0 216624546.0512171 -27096180.13920981 -27096180.13920981 25357097.23120737 0 0 0 0 0 200609640.7714967 -22054162.43079841 -22054162.43079841 29427217.98303432 0 0 0 0 0 205661831.1878901 -21129803.00544507 -21129803.00544507 27511164.17758372 0 0 0 0 0 175510265.5391852 -8298593.72495115 -8298593.72495115 29309488.34612694 0 0 0 0 0 191639740.9925666 -17161784.37387436 -17161784.37387436 30152816.40320892 0 0 0 0 0 183808297.4121742 -13096640.28639589 -13096640.28639589 30517192.77010506 0 0 0 0 0 169858675.7061799 -5476169.249870542 -5476169.249870542 29294787.12266558 0 0 0 0 0 164811489.0348658 -3128513.59963138 -3128513.59963138 29111092.37481841 0 0 0 0 0 160289189.7149071 -1173979.972866502 -1173979.972866502 28798077.26815661 0 0 0 0 0 156220010.2810943 452618.591441106 452618.591441106 28384337.50307973 0 0 0 0 0 152546626.812657 1805621.148220825 1805621.148220825 27897020.236539 0 0 0 0 0 149220093.3590893 2928600.926025189 2928600.926025189 27354684.79174114 0 0 0 0 0 146199312.4186767 3859047.599668633 3859047.599668633 26772698.90551014 0 0 0 0 0 143448300.7758371 4628074.866919788 4628074.866919788 26164702.40474484 0 0 0 0 0 141844656.8517045 3885702.105287333 3885702.105287333 25031022.57456946 0 0 0 0 0 139755966.8282238 5564314.762571801 5564314.762571801 23772007.72765325 0 0 0 0 0 137615593.3888574 6062938.505725469 6062938.505725469 23178609.21397169 0 0 0 0 0 135642732.983216 6465901.267718096 6465901.267718096 22587277.16120128 0 0 0 0 0 133821502.1754051 6787267.005355316 6787267.005355316 22002609.59834109 0 0 0 0 0 131493568.3786794 7215595.857765762 7215595.857765762 19826761.9818702 0 0 0 0 0 132658415.3408395 6149569.312038176 6149569.312038176 20795809.10258459 0 0 0 0 0 130010606.1017719 7398076.005622439 7398076.005622439 19316928.28194069 0 0 0 0 0 128630847.3212792 7531856.43518578 7531856.43518578 18812225.61166957 0 0 0 0 0 127342357.7904177 7625521.20117849 7625521.20117849 18322711.22219504 0 0 0 0 0 126140181.5292433 7684416.348417935 7684416.348417935 17842432.72685898 0 0 0 0 0 125014576.184192 7714538.719612826 7714538.719612826 17375858.60343165 0 0 0 0 0 123958412.8547852 7718992.737932509 7718992.737932509 16921502.32809446 0 0 0 0 0 123176792.7353875 7230678.464336666 7230678.464336666 15878693.08912656 0 0 0 0 0 122734613.9921212 7765676.337358032 7765676.337358032 15234470.99068526 0 0 0 0 0 121833241.84904 7727221.01057394 7727221.01057394 14854299.87473482 0 0 0 0 0 120985044.2108042 7675017.825725242 7675017.825725242 14488037.41198868 0 0 0 0 0 120175903.8341874 7609432.021559109 7609432.021559109 14140934.06743947 0 0 0 0 0 119415160.5126355 7534268.656481921 7534268.656481921 13800619.2152726 0 0 0 0 0 118696601.5651862 7449952.208068576 7449952.208068576 13464905.59415652 0 0 0 0 0 118120586.2997251 7066316.225279952 7066316.225279952 12604103.5116315 0 0 0 0 0 117926009.7500869 7371050.222045429 7371050.222045429 12159224.52758708 0 0 0 0 0 117299027.8675068 7275650.672895229 7275650.672895229 11879898.90239453 0 0 0 0 0 116694559.6129982 6897342.952830114 6897342.952830114 10136128.26047489 0 0 0 0 0 116131943.7552922 6811609.119365419 6811609.119365419 9932534.389136346 0 0 0 0 0 115530006.7289935 6675399.850404575 6675399.850404575 8892713.973531406 0 0 0 0 0 116007448.1097708 7004889.928060596 7004889.928060596 9648672.286067761 0 0 0 0 0 115028854.0113056 6584965.247478628 6584965.247478628 8726396.17125628 0 0 0 0 0 114551624.5509765 6491901.867794423 6491901.867794423 8562570.139498277 0 0 0 0 0 114095093.6298591 6397044.416239542 6397044.416239542 8403445.567792138 0 0 0 0 0 113659977.4396587 6300831.047263103 6300831.047263103 8247307.736943291 0 0 0 0 0 113216800.5119241 6147946.78606862 6147946.78606862 7402771.96613962 0 0 0 0 0 113608036.4349966 6420671.389628714 6420671.389628714 8034506.358207744 0 0 0 0 0 112824888.4992947 6053146.510989985 6053146.510989985 7277532.792942404 0 0 0 0 0 112449331.7744359 5958080.524078907 5958080.524078907 7154843.735756413 0 0 0 0 0 112089611.9953565 5863010.609247436 5863010.609247436 7034463.051695008 0 0 0 0 0 111744852.4489479 5768254.078153003 5768254.078153003 6916418.598660494 0 0 0 0 0 111414244.4124771 5673952.073250247 5673952.073250247 6800538.752950448 0 0 0 0 0 111402205.2909447 5743961.22547147 5743961.22547147 6649541.862242899 0 0 0 0 0 110786934.4197089 5433800.381881624 5433800.381881624 6045361.331437429 0 0 0 0 0 111089329.5749865 5646431.809888645 5646431.809888645 6540532.648331648 0 0 0 0 0 110495246.7923743 5343144.209537981 5343144.209537981 5953231.497748682 0 0 0 0 0 110206757.2696122 5252176.453503831 5252176.453503831 5861990.206501747 0 0 0 0 0 109945100.0913665 5165654.201946198 5165654.201946198 5806246.798041715 0 0 0 0 0 109766716.0311656 5097473.070814011 5097473.070814011 5637495.204504332 0 0 0 0 0 109574363.9066836 5001974.049096177 5001974.049096177 5403444.644985901 0 0 0 0 0 116772120.9445302 6918660.328550424 6918660.328550424 11069376.05665481 0 0 0 0 0 262417351.6441161 -37341271.13025618 -37341271.13025618 6179528.609401465 0 0 0 0 0 246247829.8191607 -34018266.95368768 -34018266.95368768 12874073.94245937 0 0 0 0 0 247284131.2493247 -33838422.9782175 -33838422.9782175 21936724.55469463 0 0 0 0 0 227276740.0236699 -26320694.86575121 -26320694.86575121 24203714.67249429 0 0 0 0 0 219864384.7053489 -27786268.18571793 -27786268.18571793 26600345.42554579 0 0 0 0 0 196135196.3038356 -16206287.90321683 -16206287.90321683 28964037.78400575 0 0 0 0 0 208147853.700305 -22143085.35036679 -22143085.35036679 28793073.40261291 0 0 0 0 0 176933372.7965418 -9707271.758853437 -9707271.758853437 30605680.93158427 0 0 0 0 0 187822189.2309633 -12133024.34727231 -12133024.34727231 29884354.06920614 0 0 0 0 0 180538881.5624973 -8748287.044963535 -8748287.044963535 30403027.32788838 0 0 0 0 0 170870312.9560174 -6875411.131869906 -6875411.131869906 30484021.19106191 0 0 0 0 0 165494809.1886618 -4505856.645396231 -4505856.645396231 30205053.24728661 0 0 0 0 0 160705903.7583271 -2520664.255579675 -2520664.255579675 29806270.83214563 0 0 0 0 0 156417617.048604 -855967.1883595502 -855967.1883595502 29317590.86814535 0 0 0 0 0 152568139.3773498 538192.1220113493 538192.1220113493 28761500.38883928 0 0 0 0 0 149102903.6135099 1705461.812148132 1705461.812148132 28156696.59764974 0 0 0 0 0 145971838.2327069 2681858.239526995 2681858.239526995 27519090.47524389 0 0 0 0 0 143134682.3853488 3496379.985384054 3496379.985384054 26858888.70417878 0 0 0 0 0 140936345.1046975 5260903.600937355 5260903.600937355 25540910.31857669 0 0 0 0 0 139439148.3414162 4543521.831717953 4543521.831717953 24388753.44611409 0 0 0 0 0 137236857.5063527 5086943.271037314 5086943.271037314 23750535.84034284 0 0 0 0 0 135216224.9664789 5532937.203487741 5532937.203487741 23118569.18459812 0 0 0 0 0 133357404.8857397 5895763.84237343 5895763.84237343 22496229.27680003 0 0 0 0 0 131036056.084447 6425744.456473355 6425744.456473355 20242196.50409908 0 0 0 0 0 132134507.533304 7040129.279544358 7040129.279544358 21428654.22435061 0 0 0 0 0 129531410.0090456 6643891.251170123 6643891.251170123 19703519.46661704 0 0 0 0 0 128129277.1782083 6811620.885764427 6811620.885764427 19181194.62567405 0 0 0 0 0 126827373.9680124 6936100.235539393 6936100.235539393 18667339.89204638 0 0 0 0 0 125614630.667821 7024824.232592923 7024824.232592923 18167412.77897997 0 0 0 0 0 124484697.7953641 7081756.493189479 7081756.493189479 17678084.37179597 0 0 0 0 0 123427088.5740836 7113918.61901348 7113918.61901348 17209081.92894961 0 0 0 0 0 122964750.6026713 7702487.426301086 7702487.426301086 16483415.07137767 0 0 0 0 0 122222021.1610718 7233721.886548351 7233721.886548351 15474103.78940678 0 0 0 0 0 121326278.7899904 7218121.50145272 7218121.50145272 15079366.19139412 0 0 0 0 0 120481563.1894545 7186532.384987946 7186532.384987946 14697956.5866254 0 0 0 0 0 119689167.249782 7142291.720798414 7142291.720798414 14328954.61200944 0 0 0 0 0 118936814.5017681 7085782.015554556 7085782.015554556 13977740.44198333 0 0 0 0 0 118226783.7724599 7021416.600080442 7021416.600080442 13640345.34463255 0 0 0 0 0 118018206.9030455 7359856.051406009 7359856.051406009 13137551.54028242 0 0 0 0 0 117467317.5802583 6991033.938452962 6991033.938452962 12306880.58258231 0 0 0 0 0 116847542.7685207 6909606.996269638 6909606.996269638 12020311.8052367 0 0 0 0 0 116632786.2192753 7154852.31684339 7154852.31684339 10718305.67790912 0 0 0 0 0 116073165.3287759 7052149.948752276 7052149.948752276 10494225.87882576 0 0 0 0 0 115487780.7116077 6902079.831525465 6902079.831525465 9456213.630459413 0 0 0 0 0 115593102.0232842 6721823.843627415 6721823.843627415 9736683.123841764 0 0 0 0 0 114992906.4701927 6797470.294193778 6797470.294193778 9266914.487380091 0 0 0 0 0 114520385.8061819 6692041.636086294 6692041.636086294 9084756.052179461 0 0 0 0 0 114068922.8962772 6585082.290571509 6585082.290571509 8904686.034646695 0 0 0 0 0 113637646.8925125 6477928.189499071 6477928.189499071 8729365.333841518 0 0 0 0 0 113201552.7729119 6316204.786996943 6316204.786996943 7887493.075524847 0 0 0 0 0 113244267.0629444 6203906.01255532 6203906.01255532 8094737.735872062 0 0 0 0 0 112812321.1936316 6212006.48645142 6212006.48645142 7744269.819435036 0 0 0 0 0 112439381.0477497 6108106.048973271 6108106.048973271 7603972.200734803 0 0 0 0 0 112081938.2805392 6004882.155676413 6004882.155676413 7466732.570703049 0 0 0 0 0 111739250.0937036 5902492.650354564 5902492.650354564 7332561.880349978 0 0 0 0 0 111410165.6165721 5801116.576724939 5801116.576724939 7201543.255793326 0 0 0 0 0 111096840.7518833 5580482.522363895 5580482.522363895 6687192.256142729 0 0 0 0 0 110788534.6570759 5549622.629706799 5549622.629706799 6434422.315741921 0 0 0 0 0 110791778.212613 5487941.506384909 5487941.506384909 6576298.550754454 0 0 0 0 0 110497653.8774887 5454885.076153369 5454885.076153369 6331355.24997389 0 0 0 0 0 110203212.0599613 5362967.42890802 5362967.42890802 6210520.236496435 0 0 0 0 0 109943915.4952471 5240794.843983036 5240794.843983036 5868808.619759019 0 0 0 0 0 109758088.2072114 5139176.417812919 5139176.417812919 5608537.386633564 0 0 0 0 0 116703867.3548965 7176243.56691559 7176243.56691559 11610154.58655911 0 0 0 0 0 290610898.8483808 -35100710.52041525 -35100710.52041525 12187129.53351969 0 0 0 0 0 267848488.5634889 -32754569.08384526 -32754569.08384526 18311836.34940622 0 0 0 0 0 238007216.9510959 -25294710.55857922 -25294710.55857922 21637747.04577487 0 0 0 0 0 229540203.9712047 -27254013.29058864 -27254013.29058864 25321515.74854956 0 0 0 0 0 214708318.026868 -20777792.33664528 -20777792.33664528 26941324.40744279 0 0 0 0 0 197986723.3934378 -17397667.87984617 -17397667.87984617 30213962.28974089 0 0 0 0 0 203688832.8743629 -16121482.50705206 -16121482.50705206 28953044.53939427 0 0 0 0 0 174120603.1575301 -5929477.174409817 -5929477.174409817 30615810.32611305 0 0 0 0 0 189180799.557057 -13429438.63812039 -13429438.63812039 31086672.92209071 0 0 0 0 0 181491922.3325185 -10101483.50086803 -10101483.50086803 31548855.78759706 0 0 0 0 0 168435432.655822 -3579006.135736907 -3579006.135736907 30596345.40577148 0 0 0 0 0 163378452.481691 -1616608.582044376 -1616608.582044376 30396918.20651786 0 0 0 0 0 158861165.6578397 20349.61729256198 20349.61729256198 30057146.800345 0 0 0 0 0 154806181.4389224 1387069.302375705 1387069.302375705 29615936.33782248 0 0 0 0 0 151160885.0954947 2524751.445859069 2524751.445859069 29093707.65967616 0 0 0 0 0 147867942.5197291 3470755.959385606 3470755.959385606 28514965.53436428 0 0 0 0 0 144885236.809946 4254994.997221161 4254994.997221161 27895265.19975332 0 0 0 0 0 142175455.0566248 4902967.807725142 4902967.807725142 27248473.12038603 0 0 0 0 0 140555736.3645744 4174621.47270224 4174621.47270224 26186964.34617122 0 0 0 0 0 138636984.3493243 5778447.800586306 5778447.800586306 24908154.42414752 0 0 0 0 0 136526713.6054064 6198499.081133471 6198499.081133471 24272960.33993197 0 0 0 0 0 134586131.6278978 6535687.757549389 6535687.757549389 23640074.30870984 0 0 0 0 0 132799416.7230916 6803010.856323073 6803010.856323073 23013270.34721045 0 0 0 0 0 130566854.484614 7234302.480624111 7234302.480624111 20865492.58899065 0 0 0 0 0 131645908.3497436 6188108.55219257 6188108.55219257 21884312.93956597 0 0 0 0 0 129108072.7118765 7378362.753854533 7378362.753854533 20312950.8715912 0 0 0 0 0 127755972.1082541 7481592.883949714 7481592.883949714 19771593.52240397 0 0 0 0 0 126498232.7600601 7550090.420478643 7550090.420478643 19242062.52821587 0 0 0 0 0 125323932.270732 7587131.828244237 7587131.828244237 18723878.13301975 0 0 0 0 0 124222949.264364 7598730.973025865 7598730.973025865 18222614.32149145 0 0 0 0 0 123195164.3247687 7588920.184835514 7588920.184835514 17734152.41505395 0 0 0 0 0 122439222.451004 7123148.583320486 7123148.583320486 16751007.32636268 0 0 0 0 0 122032732.5865365 7667821.545188065 7667821.545188065 16053758.33565742 0 0 0 0 0 121155067.3222097 7618989.777834266 7618989.777834266 15641300.80419551 0 0 0 0 0 120329661.1243183 7557504.197792292 7557504.197792292 15241685.81021183 0 0 0 0 0 119546731.7161792 7485057.278338774 7485057.278338774 14861623.87508097 0 0 0 0 0 118805571.0345215 7402647.075771024 7402647.075771024 14487821.79248172 0 0 0 0 0 118109697.8955123 7314397.237289523 7314397.237289523 14123426.40105106 0 0 0 0 0 117556485.4887958 6947965.000118492 6947965.000118492 13306246.16408662 0 0 0 0 0 117375659.6366812 7264887.823846304 7264887.823846304 12823135.85361978 0 0 0 0 0 116767418.3252145 7166323.051824733 7166323.051824733 12518847.11723909 0 0 0 0 0 116197519.4095502 6832052.685744015 6832052.685744015 10826909.18075319 0 0 0 0 0 115651494.2303338 6741482.188648794 6741482.188648794 10595844.99250044 0 0 0 0 0 115080562.8177995 6628687.167489931 6628687.167489931 9542231.685763123 0 0 0 0 0 115542347.1331855 6947043.907155946 6947043.907155946 10273532.77312742 0 0 0 0 0 114594156.7006122 6533522.53849419 6533522.53849419 9350648.936680302 0 0 0 0 0 114130024.1559624 6436597.145243383 6436597.145243383 9162798.526575159 0 0 0 0 0 113688077.4015171 6338557.370994522 6338557.370994522 8980526.686168145 0 0 0 0 0 113266246.6090832 6239686.044381037 6239686.044381037 8801933.894856194 0 0 0 0 0 112846810.4628895 6106471.644398787 6106471.644398787 7945213.191695387 0 0 0 0 0 113225379.8442271 6370737.752155675 6370737.752155675 8557824.495241765 0 0 0 0 0 112466224.9400007 6008783.940291525 6008783.940291525 7799340.832263485 0 0 0 0 0 112101982.40722 5911209.924335817 5911209.924335817 7656889.245854978 0 0 0 0 0 111753107.6287695 5814006.314172296 5814006.314172296 7517692.946355983 0 0 0 0 0 111418785.7829679 5717360.923811014 5717360.923811014 7381568.737037532 0 0 0 0 0 111098289.7948301 5621553.614591747 5621553.614591747 7248577.189637344 0 0 0 0 0 111094010.1586543 5701008.624492543 5701008.624492543 7073283.956781602 0 0 0 0 0 110498395.1431826 5396663.632781596 5396663.632781596 6468379.121940089 0 0 0 0 0 110790222.5211091 5602380.453120466 5602380.453120466 6947775.88086583 0 0 0 0 0 110221702.6455406 5308498.112526774 5308498.112526774 6364413.557771411 0 0 0 0 0 109970056.703837 5223759.354251241 5223759.354251241 6253451.948201252 0 0 0 0 0 109686364.3422946 5135694.656746926 5135694.656746926 6170950.439550469 0 0 0 0 0 109495098.5462047 5040462.869225691 5040462.869225691 5878332.939158115 0 0 0 0 0 116259258.7473469 6823369.530504251 6823369.530504251 11742383.12615827 0 0 0 0 0 268891685.9647779 -28602021.95630223 -28602021.95630223 3980472.864781706 0 0 0 0 0 250048751.0505202 -27836878.0847619 -27836878.0847619 12431613.55762816 0 0 0 0 0 237090576.3581123 -24770552.09045867 -24770552.09045867 21086811.50222043 0 0 0 0 0 223777794.8104973 -20057028.55307278 -20057028.55307278 25555409.66598981 0 0 0 0 0 215959304.7889513 -21665206.4688467 -21665206.4688467 27842084.53995062 0 0 0 0 0 194149494.8468932 -12227665.37115234 -12227665.37115234 30330694.53865298 0 0 0 0 0 204516784.1444714 -17145040.57381409 -17145040.57381409 29844234.39951597 0 0 0 0 0 174745983.5380629 -7307164.170675215 -7307164.170675215 31699756.84268175 0 0 0 0 0 185866451.0493077 -8961605.525270777 -8961605.525270777 31204643.18302694 0 0 0 0 0 178629189.8159999 -6221666.949681957 -6221666.949681957 31685611.20962104 0 0 0 0 0 168800070.8506145 -4957892.571142344 -4957892.571142344 31615582.97593233 0 0 0 0 0 163543356.1445314 -2983259.419259768 -2983259.419259768 31355255.78327834 0 0 0 0 0 158855414.0914582 -1320459.288410343 -1320459.288410343 30963087.44628881 0 0 0 0 0 154665081.8315239 76760.9786576138 76760.9786576138 30466039.6659735 0 0 0 0 0 150906616.2211533 1251528.973903006 1251528.973903006 29896093.52056486 0 0 0 0 0 147527510.1061116 2238067.418233968 2238067.418233968 29270144.87082406 0 0 0 0 0 144478343.3679545 3065442.190487069 3065442.190487069 28605717.64886339 0 0 0 0 0 141717833.5266162 3757680.803627861 3757680.803627861 27917003.48607436 0 0 0 0 0 139706084.3118064 5435798.458102477 5435798.458102477 26585598.2594443 0 0 0 0 0 138204208.0344919 4737345.036414925 4737345.036414925 25511598.87860468 0 0 0 0 0 136054729.1460136 5201476.620675287 5201476.620675287 24837158.18177468 0 0 0 0 0 134084682.2523503 5581774.426239201 5581774.426239201 24168495.87165749 0 0 0 0 0 132274122.6128647 5890474.770049871 5890474.770049871 23508329.62856708 0 0 0 0 0 130061130.8073611 6420623.36631149 6420623.36631149 21289472.3619299 0 0 0 0 0 131142783.9846808 7010635.187585014 7010635.187585014 22399938.42711237 0 0 0 0 0 128593809.032012 6601894.226327172 6601894.226327172 20710563.75074404 0 0 0 0 0 127229612.0994277 6737841.079805215 6737841.079805215 20143421.80880612 0 0 0 0 0 125960756.9354364 6837379.058936822 6837379.058936822 19595226.10708984 0 0 0 0 0 124783305.525524 6905482.406587876 6905482.406587876 19058055.7943197 0 0 0 0 0 123686268.3940558 6947054.025044526 6947054.025044526 18536992.30854747 0 0 0 0 0 122661792.6814643 6964746.408191504 6964746.408191504 18030746.06451442 0 0 0 0 0 122230862.2659316 7560986.774684957 7560986.774684957 17260375.5943392 0 0 0 0 0 121512545.0093827 7114107.305843695 7114107.305843695 16309775.50339616 0 0 0 0 0 120643214.4418019 7088400.183436562 7088400.183436562 15878792.08830781 0 0 0 0 0 119825326.8657687 7049245.811440118 7049245.811440118 15464493.82196918 0 0 0 0 0 119057033.9089996 6998201.334803956 6998201.334803956 15064169.15371265 0 0 0 0 0 118330833.1795287 6938589.523154704 6938589.523154704 14683977.80638491 0 0 0 0 0 117644939.9390935 6869998.569667515 6869998.569667515 14312193.62303778 0 0 0 0 0 117451286.8005918 7220878.524152743 7220878.524152743 13772825.68065149 0 0 0 0 0 116921455.0831259 6867754.266819392 6867754.266819392 12981200.73689567 0 0 0 0 0 116318411.3312923 6782487.049105294 6782487.049105294 12669454.27762819 0 0 0 0 0 116136263.3926275 7072847.72397787 7072847.72397787 11352913.92873397 0 0 0 0 0 115593776.8222596 6966263.247390696 6966263.247390696 11102748.99653749 0 0 0 0 0 115038319.0930252 6840175.700853412 6840175.700853412 10056181.16337951 0 0 0 0 0 115129017.8015567 6647267.125936067 6647267.125936067 10371637.55532196 0 0 0 0 0 114557869.0669716 6732577.594845744 6732577.594845744 9846065.839986604 0 0 0 0 0 114099022.2634745 6623571.637389821 6623571.637389821 9638922.362839596 0 0 0 0 0 113661120.6486477 6514314.727334659 6514314.727334659 9437164.914525237 0 0 0 0 0 113242710.8561072 6405143.306525727 6405143.306525727 9241548.40019769 0 0 0 0 0 112830727.9553481 6263789.665768779 6263789.665768779 8391384.894232005 0 0 0 0 0 112863104.5610291 6140469.375584835 6140469.375584835 8628353.114709537 0 0 0 0 0 112453004.5864493 6157271.431060238 6157271.431060238 8228849.52641387 0 0 0 0 0 112091208.5559551 6051497.644580182 6051497.644580182 8070413.319054473 0 0 0 0 0 111744557.5849236 5946641.331223053 5946641.331223053 7915873.358643765 0 0 0 0 0 111412218.8916299 5842952.4033331 5842952.4033331 7765104.368769965 0 0 0 0 0 111093417.2781662 5740539.531001998 5740539.531001998 7617958.731434711 0 0 0 0 0 110790895.6958435 5526771.952507043 5526771.952507043 7118683.428541084 0 0 0 0 0 110498320.4748712 5504893.616035674 5504893.616035674 6826762.023014059 0 0 0 0 0 110495517.3152858 5433299.184446701 5433299.184446701 6991802.236299533 0 0 0 0 0 110225646.4232376 5406902.091603688 5406902.091603688 6713736.282869799 0 0 0 0 0 109912236.2669547 5303075.620374249 5303075.620374249 6584382.928645399 0 0 0 0 0 109799306.3025032 5239906.72884084 5239906.72884084 6284004.567564953 0 0 0 0 0 109660496.357973 5168930.771381027 5168930.771381027 6070076.987445627 0 0 0 0 0 116190319.7511904 7062967.086444503 7062967.086444503 12221325.67899433 0 0 0 0 0 296546531.0456466 -25297443.12277047 -25297443.12277047 10709454.90510425 0 0 0 0 0 273737182.9068019 -25392044.24306746 -25392044.24306746 17306017.23220365 0 0 0 0 0 252892040.2051469 -22570571.42748731 -22570571.42748731 20741401.75624448 0 0 0 0 0 234308416.9477984 -17751619.49257505 -17751619.49257505 24647724.51623902 0 0 0 0 0 223797044.284511 -20230252.61264266 -20230252.61264266 25668644.77448919 0 0 0 0 0 211526112.0010528 -15534193.06811531 -15534193.06811531 28470416.46839817 0 0 0 0 0 194710552.8103557 -13393621.50807774 -13393621.50807774 31252450.69421877 0 0 0 0 0 200743632.4388157 -11915313.7440354 -11915313.7440354 30417492.20787843 0 0 0 0 0 172265099.7753045 -3924817.606774304 -3924817.606774304 31861877.91950383 0 0 0 0 0 186201542.4585161 -10227703.99775873 -10227703.99775873 32140015.08746954 0 0 0 0 0 178758369.7509438 -7549956.094303261 -7549956.094303261 32617848.47109694 0 0 0 0 0 166640953.5065643 -1997360.934290469 -1997360.934290469 31806184.76334872 0 0 0 0 0 161645559.4743754 -383940.7057363704 -383940.7057363704 31568074.82903444 0 0 0 0 0 157185907.1533832 970436.7810842214 970436.7810842214 31192423.49384728 0 0 0 0 0 153197648.7062681 2104279.914921924 2104279.914921924 30712191.87309428 0 0 0 0 0 149617898.7411985 3052219.377172544 3052219.377172544 30152154.1447278 0 0 0 0 0 146391554.0883319 3841644.548355955 3841644.548355955 29533802.70639956 0 0 0 0 0 143472253.3883924 4497430.588837004 4497430.588837004 28876543.79748185 0 0 0 0 0 140824333.7106228 5040393.221872804 5040393.221872804 28192946.82421598 0 0 0 0 0 139210871.5186561 4335201.547560621 4335201.547560621 27214240.25821444 0 0 0 0 0 137450359.4524225 5870941.671900591 5870941.671900591 25914132.13019754 0 0 0 0 0 135384669.7463596 6223074.175622473 6223074.175622473 25240465.60865878 0 0 0 0 0 133488172.4997066 6504830.391725694 6504830.391725694 24569694.80659346 0 0 0 0 0 131742508.4289903 6726902.57074008 6726902.57074008 23906265.12066629 0 0 0 0 0 129610654.1096472 7167739.592700452 7167739.592700452 21797797.99628773 0 0 0 0 0 130607502.7340818 6138550.972850991 6138550.972850991 22859556.29990647 0 0 0 0 0 128189160.4865223 7281712.404490128 7281712.404490128 21207813.81255401 0 0 0 0 0 126868660.0241417 7359998.959286432 7359998.959286432 20633429.54429749 0 0 0 0 0 125643453.8671308 7406764.7656128 7406764.7656128 20065437.5612403 0 0 0 0 0 124498632.9168849 7427561.263135356 7427561.263135356 19515850.91359705 0 0 0 0 0 123430715.5447548 7425656.896907101 7425656.896907101 18980814.40111011 0 0 0 0 0 122431603.2169921 7405412.878611819 7405412.878611819 18462419.22448926 0 0 0 0 0 121703697.7134998 6963677.815405302 6963677.815405302 17542124.45042601 0 0 0 0 0 121326173.4188819 7517743.603434123 7517743.603434123 16799664.33664321 0 0 0 0 0 120474927.7816362 7461517.666160861 7461517.666160861 16355862.74383679 0 0 0 0 0 119674399.7421216 7394209.956537278 7394209.956537278 15927305.64558977 0 0 0 0 0 118915889.1218597 7317462.729315304 7317462.729315304 15515388.68206585 0 0 0 0 0 118201378.6037891 7233080.129307725 7233080.129307725 15112287.96428759 0 0 0 0 0 117528410.9702957 7142939.952539662 7142939.952539662 14722012.21219539 0 0 0 0 0 116998564.9764111 6794381.310728793 6794381.310728793 13948805.46591674 0 0 0 0 0 116827634.8164738 7123583.838390419 7123583.838390419 13437247.93046534 0 0 0 0 0 116238915.3186747 7021861.555821309 7021861.555821309 13104291.60157452 0 0 0 0 0 115703703.4005719 6733059.303398185 6733059.303398185 11471967.52639475 0 0 0 0 0 115174368.4469409 6639449.766490897 6639449.766490897 11214952.77770294 0 0 0 0 0 114632331.8034096 6551077.290440307 6551077.290440307 10152886.72648017 0 0 0 0 0 115078511.8940088 6857984.061239738 6857984.061239738 10858013.87562252 0 0 0 0 0 114160345.8476095 6452790.358066896 6452790.358066896 9937221.663991116 0 0 0 0 0 113711228.7765457 6353834.326442849 6353834.326442849 9728627.591634642 0 0 0 0 0 113283215.0958117 6254022.243182047 6254022.243182047 9523848.513716025 0 0 0 0 0 112874833.992686 6153857.89710457 6153857.89710457 9324085.295850338 0 0 0 0 0 112477868.3189326 6040978.980936849 6040978.980936849 8458027.751376951 0 0 0 0 0 112843097.7629064 6296270.024848666 6296270.024848666 9050435.919127589 0 0 0 0 0 112109200.1262109 5941718.311538593 5941718.311538593 8292893.209674573 0 0 0 0 0 111756390.4911926 5842841.66775314 5842841.66775314 8131914.418196328 0 0 0 0 0 111418522.4567465 5744553.064515603 5744553.064515603 7974985.999655253 0 0 0 0 0 111094761.6051673 5647058.161950202 5647058.161950202 7822076.511204219 0 0 0 0 0 110784456.4742877 5550503.679429712 5550503.679429712 7672837.454281277 0 0 0 0 0 110787002.828043 5639569.029378871 5639569.029378871 7473908.970283344 0 0 0 0 0 110210025.099839 5341324.01747102 5341324.01747102 6867789.975245604 0 0 0 0 0 110492268.8878216 5540522.017828819 5540522.017828819 7332111.307522495 0 0 0 0 0 109942670.6851117 5252955.44592428 5252955.44592428 6751347.94676304 0 0 0 0 0 109734579.9927565 5192137.668980357 5192137.668980357 6646028.605924 0 0 0 0 0 109568668.6380577 5133964.352119172 5133964.352119172 6578169.157158877 0 0 0 0 0 109409108.7250329 5059143.0958469 5059143.0958469 6352736.147331915 0 0 0 0 0 115751097.0301702 6694339.518126041 6694339.518126041 12365466.39528772 0 0 0 0 0 272117659.4741064 -18713065.76928964 -18713065.76928964 2175651.77871539 0 0 0 0 0 255436476.6784818 -20102664.61853914 -20102664.61853914 10570915.37568625 0 0 0 0 0 241865795.5378974 -20292689.04462888 -20292689.04462888 16965327.72605969 0 0 0 0 0 231011051.720341 -17997113.56037772 -17997113.56037772 23952573.42781725 0 0 0 0 0 219766871.894217 -14022347.76515766 -14022347.76515766 27863929.56930321 0 0 0 0 0 211057451.4543068 -16196945.32592346 -16196945.32592346 28807934.28947279 0 0 0 0 0 191435211.5664263 -8871750.902576083 -8871750.902576083 31700337.91710057 0 0 0 0 0 200294194.3137986 -12877409.2088907 -12877409.2088907 30958752.19296945 0 0 0 0 0 172226857.7087981 -5283567.711487344 -5283567.711487344 32774904.43705231 0 0 0 0 0 183338325.5555662 -6296398.41067918 -6296398.41067918 32491635.11465701 0 0 0 0 0 176263081.8022806 -4120190.148050148 -4120190.148050148 32895090.06387709 0 0 0 0 0 166467360.8708571 -3366217.434122756 -3366217.434122756 32688325.59096811 0 0 0 0 0 161363783.8940685 -1740813.328735456 -1740813.328735456 32419751.93743303 0 0 0 0 0 156830259.7591674 -367619.8629419515 -367619.8629419515 32008271.10621713 0 0 0 0 0 152777519.0318473 794478.7152473511 794478.7152473511 31491961.25426988 0 0 0 0 0 149141634.7787345 1775527.637927641 1775527.637927641 30899397.80674944 0 0 0 0 0 145871449.5195199 2603429.486000589 2603429.486000589 30249673.13683291 0 0 0 0 0 142923432.1349881 3300824.530377227 3300824.530377227 29557328.5489853 0 0 0 0 0 140255259.1047272 3886853.950282764 3886853.950282764 28839741.46494949 0 0 0 0 0 138415336.7047711 5487217.706521252 5487217.706521252 27493916.45067113 0 0 0 0 0 136927178.2092907 4814780.066787418 4814780.066787418 26506015.12328423 0 0 0 0 0 134841009.7913084 5210802.320576905 5210802.320576905 25798598.49448736 0 0 0 0 0 132930321.4241887 5535300.490542376 5535300.490542376 25096239.62379526 0 0 0 0 0 131175774.0406793 5798549.347606957 5798549.347606957 24402326.57004717 0 0 0 0 0 129069814.5441299 6334488.175710367 6334488.175710367 22227157.42325005 0 0 0 0 0 130130790.2347773 6897974.835114462 6897974.835114462 23257473.90389894 0 0 0 0 0 127648179.6233431 6485124.257433464 6485124.257433464 21609678.43148996 0 0 0 0 0 126326433.7806735 6596786.146011702 6596786.146011702 21007796.88512633 0 0 0 0 0 125093275.7791261 6676186.865460984 6676186.865460984 20429972.57749864 0 0 0 0 0 123951898.0333654 6727890.503367506 6727890.503367506 19860166.88900688 0 0 0 0 0 122890657.8199987 6756421.240364091 6756421.240364091 19306812.12388457 0 0 0 0 0 121900082.7999092 6765097.585826831 6765097.585826831 18770349.21811237 0 0 0 0 0 121497185.8521682 7369315.304574754 7369315.304574754 17958379.6054573 0 0 0 0 0 120806390.2223518 6945385.386355838 6945385.386355838 17066815.28130385 0 0 0 0 0 119964419.9400765 6913305.815114542 6913305.815114542 16607035.9548691 0 0 0 0 0 119173164.5704426 6868707.85625939 6868707.85625939 16162761.18681056 0 0 0 0 0 118429458.5944231 6814947.885129417 6814947.885129417 15736152.63322666 0 0 0 0 0 117728676.0874223 6752259.577874206 6752259.577874206 15324165.92039321 0 0 0 0 0 117065950.9596599 6682145.53132202 6682145.53132202 14923900.72109504 0 0 0 0 0 116891211.7352843 7048382.716394083 7048382.716394083 14353118.72726641 0 0 0 0 0 116384144.2105662 6711675.746470375 6711675.746470375 13598274.91539432 0 0 0 0 0 115798718.8219868 6625097.420123085 6625097.420123085 13267984.08554597 0 0 0 0 0 115640622.6820698 6957362.070505904 6957362.070505904 11940079.24166878 0 0 0 0 0 115114285.636955 6848820.613184406 6848820.613184406 11667749.95333077 0 0 0 0 0 114589624.4342014 6748843.887224382 6748843.887224382 10619291.99229966 0 0 0 0 0 114667642.9019609 6542775.187067101 6542775.187067101 10967071.50194773 0 0 0 0 0 114123012.4826939 6638636.915866371 6638636.915866371 10384748.101992 0 0 0 0 0 113678324.8749513 6528147.730155576 6528147.730155576 10156609.67776894 0 0 0 0 0 113254370.799011 6417975.120668523 6417975.120668523 9935104.152489135 0 0 0 0 0 112849699.4515972 6308206.891893984 6308206.891893984 9720205.298412221 0 0 0 0 0 112460711.6852953 6188011.494050967 6188011.494050967 8865273.889615217 0 0 0 0 0 112484619.6220897 6053438.791018626 6053438.791018626 9129947.811395703 0 0 0 0 0 112094717.6133124 6080468.169481662 6080468.169481662 8684997.937218003 0 0 0 0 0 111744318.4548991 5973913.270542315 5973913.270542315 8509664.336507853 0 0 0 0 0 111408624.5545717 5868535.033570846 5868535.033570846 8339206.485938736 0 0 0 0 0 111086871.5553334 5764416.748884124 5764416.748884124 8173030.965630843 0 0 0 0 0 110778221.4933516 5661852.600024524 5661852.600024524 8011174.364486539 0 0 0 0 0 110486510.5939023 5455045.499128628 5455045.499128628 7527277.186282306 0 0 0 0 0 110211755.8644055 5441746.89688656 5441746.89688656 7202669.941361377 0 0 0 0 0 110199933.7584371 5360564.158172584 5360564.158172584 7384667.339584133 0 0 0 0 0 109945560.2981037 5348014.935421771 5348014.935421771 7029652.475607676 0 0 0 0 0 109755809.3154072 5259082.830137626 5259082.830137626 6824130.595336069 0 0 0 0 0 109558326.8171226 5180705.948986295 5180705.948986295 6553067.446545313 0 0 0 0 0 115680313.6471496 6918606.555852006 6918606.555852006 12786129.29363572 0 0 0 0 0 297163613.4052237 -16323824.05585215 -16323824.05585215 7851499.689359968 0 0 0 0 0 276117266.0597001 -17941137.70797172 -17941137.70797172 15800751.48888815 0 0 0 0 0 259194035.0304774 -17721274.92667569 -17721274.92667569 20651493.77310855 0 0 0 0 0 241677533.4842367 -15007762.27183139 -15007762.27183139 22627377.70707412 0 0 0 0 0 227669686.3189893 -11794374.61882458 -11794374.61882458 27055276.87456675 0 0 0 0 0 217514873.7482708 -14632404.18702511 -14632404.18702511 27709274.46691408 0 0 0 0 0 207543616.8863117 -11028500.75413268 -11028500.75413268 30240893.21686252 0 0 0 0 0 190978688.8191198 -10011780.20639686 -10011780.20639686 32360092.95567542 0 0 0 0 0 197160878.8673042 -8385549.673281619 -8385549.673281619 31917218.99985154 0 0 0 0 0 170041539.0188118 -2279416.10439081 -2279416.10439081 33009578.71656198 0 0 0 0 0 182845882.1582298 -7546618.410968934 -7546618.410968934 33215648.10025692 0 0 0 0 0 175731183.5601428 -5435114.172019224 -5435114.172019224 33659984.40916838 0 0 0 0 0 164554958.3454815 -727485.582176131 -727485.582176131 32896808.88428349 0 0 0 0 0 159679115.0472246 584460.9633251163 584460.9633251163 32608870.13939209 0 0 0 0 0 155333123.941613 1688777.733209032 1688777.733209032 32185533.90545944 0 0 0 0 0 151445899.7088957 2619138.026979845 2619138.026979845 31663942.32734688 0 0 0 0 0 147961807.8432504 3399950.875172052 3399950.875172052 31063453.15208378 0 0 0 0 0 144825495.4355579 4053347.986204093 4053347.986204093 30405633.3591236 0 0 0 0 0 141990685.6926131 4599048.878566854 4599048.878566854 29712853.10843673 0 0 0 0 0 139421575.6269666 5052457.649595741 5052457.649595741 28995784.43531541 0 0 0 0 0 137832535.3283774 4377502.1941203 4377502.1941203 28107756.62186192 0 0 0 0 0 136217513.1461494 5852086.910789665 5852086.910789665 26787376.49422202 0 0 0 0 0 134206903.4121939 6147190.332651209 6147190.332651209 26079866.44571618 0 0 0 0 0 132362385.0981283 6382783.397659229 6382783.397659229 25376610.73618262 0 0 0 0 0 130666283.1438361 6567265.87555224 6567265.87555224 24682568.2027205 0 0 0 0 0 128640819.9253408 7024042.071522641 7024042.071522641 22618938.3857366 0 0 0 0 0 129561539.4866328 6008904.486202816 6008904.486202816 23719838.39461737 0 0 0 0 0 127257805.447044 7113809.727669127 7113809.727669127 21998874.1827163 0 0 0 0 0 125971032.6481716 7171295.339970189 7171295.339970189 21394391.1832007 0 0 0 0 0 124780505.1822603 7201853.360264327 7201853.360264327 20796002.79147542 0 0 0 0 0 123672388.1450126 7210208.195612625 7210208.195612625 20215371.40172591 0 0 0 0 0 122638584.6102454 7200098.453505358 7200098.453505358 19653128.72979776 0 0 0 0 0 121672478.7837023 7173399.900756375 7173399.900756375 19107936.64722376 0 0 0 0 0 120973968.5998626 6756456.785815437 6756456.785815437 18251611.86775085 0 0 0 0 0 120619771.2840111 7320104.406895232 7320104.406895232 17471247.99882045 0 0 0 0 0 119796453.2441253 7259576.217327317 7259576.217327317 16999784.82667242 0 0 0 0 0 119021295.3395126 7189957.917813983 7189957.917813983 16544669.78587491 0 0 0 0 0 118291405.8684351 7112179.301810086 7112179.301810086 16105064.28047528 0 0 0 0 0 117601909.9887828 7027734.646755883 7027734.646755883 15678581.83610247 0 0 0 0 0 116952694.9548834 6938504.913838647 6938504.913838647 15273107.78529985 0 0 0 0 0 116440066.0078912 6604699.58365017 6604699.58365017 14535874.09765409 0 0 0 0 0 116283145.4793719 6948453.676005498 6948453.676005498 13995322.09801594 0 0 0 0 0 115712847.8751181 6847296.29734169 6847296.29734169 13643470.43675683 0 0 0 0 0 115211790.8890371 6602539.98932078 6602539.98932078 12070785.50382905 0 0 0 0 0 114700754.2496463 6507445.548697031 6507445.548697031 11789840.29327645 0 0 0 0 0 114186893.9207873 6444131.975813519 6444131.975813519 10724293.04778433 0 0 0 0 0 114615977.3509985 6738944.149220112 6738944.149220112 11401675.13468344 0 0 0 0 0 113730164.9124007 6345313.60285355 6345313.60285355 10488823.69007901 0 0 0 0 0 113296012.3072199 6245502.41395261 6245502.41395261 10256906.92635844 0 0 0 0 0 112882234.5931165 6145329.939608332 6145329.939608332 10031207.82115521 0 0 0 0 0 112487273.0989241 6045048.496586568 6045048.496586568 9812252.39823854 0 0 0 0 0 112111738.6956773 5953318.544686971 5953318.544686971 8941116.086823815 0 0 0 0 0 112462744.5860169 6198955.484059651 6198955.484059651 9511492.113114376 0 0 0 0 0 111755129.0238627 5853601.055296425 5853601.055296425 8757708.612484615 0 0 0 0 0 111413857.6457076 5754511.253875353 5754511.253875353 8579415.021947237 0 0 0 0 0 111087081.6071416 5656211.309481935 5656211.309481935 8406092.416080708 0 0 0 0 0 110774028.2756305 5558887.395812919 5558887.395812919 8237604.478892627 0 0 0 0 0 110474073.5574285 5462721.591399583 5462721.591399583 8073596.189360653 0 0 0 0 0 110481703.8067748 5560770.794004642 5560770.794004642 7853763.9513985 0 0 0 0 0 109915739.002915 5267152.705456695 5267152.705456695 7244273.698976887 0 0 0 0 0 110194820.0628105 5462163.118107825 5462163.118107825 7696412.202278191 0 0 0 0 0 109679949.9720496 5192079.10301123 5192079.10301123 7141852.543827103 0 0 0 0 0 109485126.8270389 5127426.117248672 5127426.117248672 7001031.700532347 0 0 0 0 0 109314653.5845117 5051518.689288008 5051518.689288008 6817807.163201294 0 0 0 0 0 115246851.9338311 6535413.016957207 6535413.016957207 12941567.72031174 0 0 0 0 0 276443392.1957922 -10822580.71958656 -10822580.71958656 -599231.9097491072 0 0 0 0 0 255233983.8339477 -12236842.02376104 -12236842.02376104 11916940.3658103 0 0 0 0 0 243556217.39852 -13257409.19147998 -13257409.19147998 17742354.35137784 0 0 0 0 0 240858996.3864162 -15360993.48714089 -15360993.48714089 22530116.2756468 0 0 0 0 0 223710820.0035025 -12477244.7054955 -12477244.7054955 26451434.73538078 0 0 0 0 0 214224466.0387329 -9645948.255349394 -9645948.255349394 29618351.20535214 0 0 0 0 0 205799384.5347858 -11836496.34834097 -11836496.34834097 30364892.66787635 0 0 0 0 0 188196026.459172 -6091726.512453909 -6091726.512453909 33032667.80218611 0 0 0 0 0 195712254.9323743 -9389714.655340821 -9389714.655340821 32246332.07482516 0 0 0 0 0 169469137.3002126 -3627978.579590932 -3627978.579590932 33786415.54836889 0 0 0 0 0 180388570.6697992 -4121151.500228688 -4121151.500228688 33690345.24334806 0 0 0 0 0 173560087.1879245 -2426474.149749339 -2426474.149749339 33995563.97267756 0 0 0 0 0 163940643.2925494 -2084187.015960141 -2084187.015960141 33670321.70887766 0 0 0 0 0 159044344.5459719 -768553.1747366874 -768553.1747366874 33369851.18836278 0 0 0 0 0 154687899.8278844 354584.4507131482 354584.4507131482 32931565.44636454 0 0 0 0 0 150800844.9477671 1309165.177934076 1309165.177934076 32385797.06504982 0 0 0 0 0 147308731.5236467 2122793.010312504 2122793.010312504 31765867.05166254 0 0 0 0 0 144167410.8257456 2814321.986417542 2814321.986417542 31088700.59974259 0 0 0 0 0 141334715.770065 3400296.036681195 3400296.036681195 30368906.59926011 0 0 0 0 0 138769480.9283777 3895979.09410511 3895979.09410511 29624546.01046794 0 0 0 0 0 137086009.171079 5426626.74950947 5426626.74950947 28264906.96536725 0 0 0 0 0 135626384.4451793 4786236.671979124 4786236.671979124 27369997.49214976 0 0 0 0 0 133611769.9635618 5124584.72599387 5124584.72599387 26632726.91391996 0 0 0 0 0 131767011.5475378 5402394.488344489 5402394.488344489 25900974.05390973 0 0 0 0 0 130073405.5051776 5627699.592774308 5627699.592774308 25178567.1721468 0 0 0 0 0 128071776.7759974 6174181.070188548 6174181.070188548 23055383.50909584 0 0 0 0 0 129104047.1115081 6707389.435749278 6707389.435749278 24000133.65378274 0 0 0 0 0 126693996.5861684 6299431.935625024 6299431.935625024 22406371.53969541 0 0 0 0 0 125415380.4444409 6391911.750526982 6391911.750526982 21776020.04578039 0 0 0 0 0 124227304.5123136 6456289.777708532 6456289.777708532 21165844.00765971 0 0 0 0 0 123127782.2997597 6497428.150000485 6497428.150000485 20568576.61936388 0 0 0 0 0 122103186.5227915 6517796.252860475 6517796.252860475 19988385.67006665 0 0 0 0 0 121147524.1128659 6520356.978357475 6520356.978357475 19426377.55669923 0 0 0 0 0 120768287.9046948 7132920.792861575 7132920.792861575 18579010.60971544 0 0 0 0 0 120107014.5492874 6733117.934705223 6733117.934705223 17748635.91721636 0 0 0 0 0 119293962.1144321 6697303.733796442 6697303.733796442 17262587.11660085 0 0 0 0 0 118530227.8707916 6651042.987608967 6651042.987608967 16793096.16404695 0 0 0 0 0 117812083.6439505 6595883.385697016 6595883.385697016 16340139.15778166 0 0 0 0 0 117136186.2273431 6533496.400763141 6533496.400763141 15903573.42814825 0 0 0 0 0 116497899.0371072 6463021.387388683 6463021.387388683 15477082.53117923 0 0 0 0 0 116336864.7053546 6844537.902690097 6844537.902690097 14881998.89212539 0 0 0 0 0 115847280.9386863 6522782.233216842 6522782.233216842 14167150.94577658 0 0 0 0 0 115282123.5645875 6436198.883958586 6436198.883958586 13811689.64687859 0 0 0 0 0 115148293.9678494 6811697.288947265 6811697.288947265 12483242.86873012 0 0 0 0 0 114640090.880404 6703171.925457242 6703171.925457242 12187811.6386367 0 0 0 0 0 114141818.9836585 6628900.53209665 6628900.53209665 11140679.21192525 0 0 0 0 0 114209894.4912086 6409389.82598634 6409389.82598634 11517956.69357953 0 0 0 0 0 113690505.5253344 6518223.271676593 6518223.271676593 10884894.98029916 0 0 0 0 0 113261095.0301317 6408116.308687732 6408116.308687732 10637664.05604861 0 0 0 0 0 112851327.8610629 6298381.741210544 6298381.741210544 10398196.92274416 0 0 0 0 0 112460018.5166429 6189137.09027971 6189137.09027971 10165895.34570909 0 0 0 0 0 112092856.8576614 6090579.046101486 6090579.046101486 9308960.128543483 0 0 0 0 0 112110193.2751413 5944896.598822004 5944896.598822004 9599637.2728101 0 0 0 0 0 111738909.5257408 5983194.199074279 5983194.199074279 9112363.840728611 0 0 0 0 0 111400052.7757405 5876980.805965509 5876980.805965509 8921614.761499245 0 0 0 0 0 111075443.8249678 5772076.82536254 5772076.82536254 8736171.86048265 0 0 0 0 0 110764379.5679691 5668667.012488742 5668667.012488742 8556123.542478036 0 0 0 0 0 110465907.4144013 5567051.616790349 5567051.616790349 8380563.125209568 0 0 0 0 0 110185908.1218749 5368068.833832665 5368068.833832665 7913861.254502673 0 0 0 0 0 109915213.7731877 5363208.135915872 5363208.135915872 7527824.426977235 0 0 0 0 0 109911847.6880675 5274244.909643785 5274244.909643785 7756237.411229359 0 0 0 0 0 109693093.3298137 5278444.866500433 5278444.866500433 7316438.527648047 0 0 0 0 0 109489305.4137074 5178774.042999114 5178774.042999114 7032770.077363049 0 0 0 0 0 115174293.3131839 6742999.469715374 6742999.469715374 13299979.15193789 0 0 0 0 0 303569051.64122 -7613442.349729044 -7613442.349729044 7603526.296507712 0 0 0 0 0 276547309.112878 -6634481.290022965 -6634481.290022965 11590824.60403528 0 0 0 0 0 256767549.6626909 -12239402.82889973 -12239402.82889973 21405711.83221872 0 0 0 0 0 264512569.6778339 -11097513.58223654 -11097513.58223654 14895771.22838629 0 0 0 0 0 234533655.1484218 -8850285.289458793 -8850285.289458793 25617365.43248416 0 0 0 0 0 220814757.1948983 -8015979.912524949 -8015979.912524949 28454309.25950973 0 0 0 0 0 211587713.0206257 -10333319.06679625 -10333319.06679625 29446989.24352931 0 0 0 0 0 202891828.6859396 -7481219.251617233 -7481219.251617233 31842501.03414605 0 0 0 0 0 186914153.3596185 -7237208.576265171 -7237208.576265171 33496663.86647464 0 0 0 0 0 193112381.0484329 -5556820.330649952 -5556820.330649952 33318896.31437666 0 0 0 0 0 167553413.5293223 -981770.8924254391 -981770.8924254391 34027561.11875287 0 0 0 0 0 179248295.7780258 -5365331.915752231 -5365331.915752231 34256052.32613267 0 0 0 0 0 172508056.922593 -3737092.278926552 -3737092.278926552 34630581.9927049 0 0 0 0 0 162246097.8888752 249832.3869530639 249832.3869530639 33845729.36058242 0 0 0 0 0 157540207.5663055 1296964.132376849 1296964.132376849 33499519.58812936 0 0 0 0 0 153344587.5817502 2188883.479938824 2188883.479938824 33029217.61542922 0 0 0 0 0 149594168.2807543 2943615.406590711 2943615.406590711 32462091.94708807 0 0 0 0 0 146229996.9635634 3581689.616825306 3581689.616825306 31820273.57689312 0 0 0 0 0 143201968.3917605 4120060.290320812 4120060.290320812 31127554.57018022 0 0 0 0 0 140467598.7906426 4573357.478493169 4573357.478493169 30403056.40324913 0 0 0 0 0 137989473.0553682 4951976.522427822 4951976.522427822 29657049.24019672 0 0 0 0 0 136439946.0803303 4313181.224230518 4313181.224230518 28866169.84684856 0 0 0 0 0 134956591.493316 5732836.420402896 5732836.420402896 27528038.77990065 0 0 0 0 0 133009771.632103 5980848.805684002 5980848.805684002 26791879.40812123 0 0 0 0 0 131224846.4272774 6178759.71250576 6178759.71250576 26062227.40641671 0 0 0 0 0 129584412.6740301 6333176.317947183 6333176.317947183 25342223.10462257 0 0 0 0 0 127660165.8349561 6811155.160032129 6811155.160032129 23339109.30324643 0 0 0 0 0 128515421.783475 5808152.976585778 5808152.976585778 24469839.23006328 0 0 0 0 0 126322429.8203592 6882622.820255317 6882622.820255317 22691525.26700034 0 0 0 0 0 125078023.9698571 6924601.649897533 6924601.649897533 22055740.98872253 0 0 0 0 0 123924823.6058205 6943255.467315709 6943255.467315709 21429702.33006916 0 0 0 0 0 122853128.4252179 6944416.678468151 6944416.678468151 20826284.57765667 0 0 0 0 0 121854091.6863539 6928696.617498912 6928696.617498912 20240628.70918484 0 0 0 0 0 120921479.88479 6898761.030096891 6898761.030096891 19672633.48355997 0 0 0 0 0 120254467.0337133 6507655.85640728 6507655.85640728 18882233.91655825 0 0 0 0 0 119920821.5285354 7080888.79827902 7080888.79827902 18067560.6173586 0 0 0 0 0 119124823.7019644 7019239.107516186 7019239.107516186 17573459.4223155 0 0 0 0 0 118376584.4659751 6949228.496319898 6949228.496319898 17095681.23033482 0 0 0 0 0 117672494.2932352 6872481.42701036 6872481.42701036 16633778.79141346 0 0 0 0 0 117009781.0944567 6789990.651369765 6789990.651369765 16188712.31649961 0 0 0 0 0 116382377.5389325 6702713.961027407 6702713.961027407 15765556.74964505 0 0 0 0 0 115893487.4517406 6387026.815839352 6387026.815839352 15073127.57897997 0 0 0 0 0 115751097.1396527 6746567.983256646 6746567.983256646 14503700.62663915 0 0 0 0 0 115198571.6407137 6644332.884540938 6644332.884540938 14125983.21130653 0 0 0 0 0 114728183.2996251 6443045.20934225 6443045.20934225 12622214.3795948 0 0 0 0 0 114233057.8651538 6348505.535231876 6348505.535231876 12321467.11990444 0 0 0 0 0 113745174.4870329 6311197.125501591 6311197.125501591 11257598.81028718 0 0 0 0 0 114156820.5585452 6593500.9834539 6593500.9834539 11903005.20970703 0 0 0 0 0 113305171.2024637 6212817.072821311 6212817.072821311 10999464.58695893 0 0 0 0 0 112885873.819805 6113702.632335096 6113702.632335096 10747618.62660377 0 0 0 0 0 112486136.7184677 6014461.589763328 6014461.589763328 10503432.07706556 0 0 0 0 0 112105014.0468144 5915300.003776895 5915300.003776895 10266716.71406965 0 0 0 0 0 111749869.3278256 5845204.646194374 5845204.646194374 9393424.037126036 0 0 0 0 0 112086182.8229877 6080745.75578289 6080745.75578289 9940681.925066644 0 0 0 0 0 111405356.5884939 5746160.702676899 5746160.702676899 9193293.424770413 0 0 0 0 0 111075686.4544826 5647866.678023814 5647866.678023814 8999015.322913054 0 0 0 0 0 110760009.4438941 5550556.11895267 5550556.11895267 8810788.362594465 0 0 0 0 0 110457628.9918955 5454417.23681582 5454417.23681582 8627912.175294572 0 0 0 0 0 110169137.7201357 5359792.194503956 5359792.194503956 8450211.557295358 0 0 0 0 0 110180207.6243653 5466536.710426705 5466536.710426705 8212399.521120925 0 0 0 0 0 109642916.7143138 5188660.589687943 5188660.589687943 7604237.770937908 0 0 0 0 0 109901234.2840343 5368134.307926991 5368134.307926991 8038009.071902269 0 0 0 0 0 109413853.1929879 5107513.536197317 5107513.536197317 7479907.696653446 0 0 0 0 0 109219919.6204716 5038442.732360314 5038442.732360314 7297590.947635937 0 0 0 0 0 114753922.2664836 6349107.446131347 6349107.446131347 13465395.22937654 0 0 0 0 0 280046466.6756674 -485520.1708466545 -485520.1708466545 5317527.676503212 0 0 0 0 0 275634397.2863652 -6164400.910847117 -6164400.910847117 11282631.1119711 0 0 0 0 0 242001333.6897481 -9808893.826908449 -9808893.826908449 17917380.42395425 0 0 0 0 0 255502609.2159483 -5844311.059551572 -5844311.059551572 18583141.42535714 0 0 0 0 0 228434823.0387138 -8557658.35771527 -8557658.35771527 23843310.7679363 0 0 0 0 0 216337018.0321646 -7646055.553899377 -7646055.553899377 27223620.15282511 0 0 0 0 0 208181927.8244301 -6304577.700329304 -6304577.700329304 30999390.41408336 0 0 0 0 0 200358566.2104875 -8307367.09560343 -8307367.09560343 31793084.20836553 0 0 0 0 0 184576321.3706156 -3883879.859404977 -3883879.859404977 34240355.7803876 0 0 0 0 0 190887193.4337229 -6576114.996604781 -6576114.996604781 33478385.66333212 0 0 0 0 0 166558187.9637397 -2322227.470242287 -2322227.470242287 34699043.55912393 0 0 0 0 0 177141680.2847579 -2398682.679249834 -2398682.679249834 34766331.54352502 0 0 0 0 0 170621489.4874162 -1117814.199008806 -1117814.199008806 34947613.81768511 0 0 0 0 0 161300579.3834828 -1101320.447278536 -1101320.447278536 34535015.63332029 0 0 0 0 0 156634475.0612455 -47966.91371474363 -47966.91371474363 34193018.83052805 0 0 0 0 0 152486836.9235327 856470.5892212823 856470.5892212823 33715304.8967446 0 0 0 0 0 148775966.1408549 1636951.454237972 1636951.454237972 33139280.75303535 0 0 0 0 0 145442988.9847726 2308143.176064934 2308143.176064934 32489876.11047836 0 0 0 0 0 142445017.1105282 2884443.659179937 2884443.659179937 31783185.07249172 0 0 0 0 0 139735224.0330335 3377899.118142713 3377899.118142713 31038323.72502625 0 0 0 0 0 137279810.8335425 3797972.584741278 3797972.584741278 30270461.19793797 0 0 0 0 0 135737092.1076665 5265965.816856342 5265965.816856342 28899107.56639606 0 0 0 0 0 134318673.1455662 4662534.426636071 4662534.426636071 28102457.22965289 0 0 0 0 0 132381250.3081622 4953235.359429596 4953235.359429596 27339956.01780645 0 0 0 0 0 130606814.7248624 5192792.171592033 5192792.171592033 26583688.97831555 0 0 0 0 0 128978479.8177966 5388114.092856191 5388114.092856191 25838563.78727978 0 0 0 0 0 127076945.1579284 5947405.558061196 5947405.558061196 23772775.86970425 0 0 0 0 0 128074400.6981756 6450879.742859545 6450879.742859545 24638777.27221781 0 0 0 0 0 125745770.5104145 6053400.136657058 6053400.136657058 23100573.99776674 0 0 0 0 0 124515388.4298522 6132317.031864588 6132317.031864588 22446234.04475729 0 0 0 0 0 123374420.6846312 6187573.789436993 6187573.789436993 21811181.75080049 0 0 0 0 0 122314791.602313 6221143.638680379 6221143.638680379 21188534.96985299 0 0 0 0 0 121328367.4907944 6236468.794616587 6236468.794616587 20584974.50509728 0 0 0 0 0 120408342.2693044 6236148.225361629 6236148.225361629 20000679.69202856 0 0 0 0 0 120048945.417505 6856927.265008683 6856927.265008683 19122860.34503058 0 0 0 0 0 119418596.7714005 6482098.907050996 6482098.907050996 18355532.38082939 0 0 0 0 0 118634839.448491 6445366.082570646 6445366.082570646 17846250.13915732 0 0 0 0 0 117899023.8931437 6399368.407924325 6399368.407924325 17354678.58927123 0 0 0 0 0 117207440.1088001 6345490.861201766 6345490.861201766 16880309.03132693 0 0 0 0 0 116556092.7449388 6284504.919282727 6284504.919282727 16421810.04326792 0 0 0 0 0 115943421.60448 6217627.120576942 6217627.120576942 15978069.16862793 0 0 0 0 0 115787094.7536228 6609829.129156999 6609829.129156999 15355705.18283721 0 0 0 0 0 115321477.1985882 6305578.789223054 6305578.789223054 14682867.79384523 0 0 0 0 0 114779560.255413 6224070.144030375 6224070.144030375 14310939.55690244 0 0 0 0 0 114661076.1576978 6638496.943551552 6638496.943551552 12978377.21922846 0 0 0 0 0 114170377.6236411 6531113.367320335 6531113.367320335 12664998.96243257 0 0 0 0 0 113699511.4532464 6483778.62287833 6483778.62287833 11620550.62400083 0 0 0 0 0 113760399.0582482 6251895.966898766 6251895.966898766 12027481.90659548 0 0 0 0 0 113263467.3022616 6374362.496048739 6374362.496048739 11347423.461316 0 0 0 0 0 112848754.0226676 6265687.899759721 6265687.899759721 11083124.78261339 0 0 0 0 0 112453074.114142 6157370.676481093 6157370.676481093 10826715.86508332 0 0 0 0 0 112075444.893512 6049938.387102353 6049938.387102353 10578438.43212946 0 0 0 0 0 111728833.7030185 5973387.201764975 5973387.201764975 9722307.893633565 0 0 0 0 0 111741132.5688488 5816551.499980429 5816551.499980429 10037304.10361976 0 0 0 0 0 111387005.7351662 5867202.858760864 5867202.858760864 9510696.548712546 0 0 0 0 0 111059638.5019485 5762311.52589081 5762311.52589081 9305617.228399614 0 0 0 0 0 110746164.7592273 5658927.238895968 5658927.238895968 9106613.451895583 0 0 0 0 0 110446067.9657834 5556999.196735409 5556999.196735409 8913444.572716143 0 0 0 0 0 110157181.3666293 5458735.413131061 5458735.413131061 8722928.563273178 0 0 0 0 0 109890103.2285308 5269751.947320238 5269751.947320238 8280916.005419725 0 0 0 0 0 109626596.3527838 5266431.11298281 5266431.11298281 7866335.01496328 0 0 0 0 0 109658200.1477053 5193237.677546266 5193237.677546266 8121070.892066786 0 0 0 0 0 109403007.1037069 5173542.906887249 5173542.906887249 7518173.619942053 0 0 0 0 0 114678357.2536886 6544007.995078333 6544007.995078333 13768342.8941165 0 0 0 0 0 264155414.3718837 -802823.6662967353 -802823.6662967353 12824098.73247863 0 0 0 0 0 241834707.5005388 -5221966.880734009 -5221966.880734009 23907811.81174951 0 0 0 0 0 255456488.9636493 -5375966.009190077 -5375966.009190077 18447485.2643994 0 0 0 0 0 228742300.4398364 -5358015.474662825 -5358015.474662825 28516781.04592985 0 0 0 0 0 213712360.0218135 -4451521.935753017 -4451521.935753017 29950290.8988133 0 0 0 0 0 207189468.5416678 -7020826.747849719 -7020826.747849719 31105350.76131458 0 0 0 0 0 197959115.7930544 -4616541.65988816 -4616541.65988816 33362077.86210667 0 0 0 0 0 182702974.913101 -5030438.130879225 -5030438.130879225 34564225.85702096 0 0 0 0 0 188751420.9123854 -3376091.907802659 -3376091.907802659 34540486.83205045 0 0 0 0 0 164874742.0337448 -6713.397647108053 -6713.397647108053 34891152.47082683 0 0 0 0 0 175488173.1715358 -3646182.428846026 -3646182.428846026 35198474.5094718 0 0 0 0 0 169186645.3849426 -2431307.033902078 -2431307.033902078 35493583.88996101 0 0 0 0 0 159795252.6203073 951426.002329965 951426.002329965 34636860.28479616 0 0 0 0 0 155286478.3421128 1777741.475986819 1777741.475986819 34232873.15284659 0 0 0 0 0 151273866.0387211 2487031.751936227 2487031.751936227 33712044.46037319 0 0 0 0 0 147678768.1783414 3094503.209590627 3094503.209590627 33101292.2175699 0 0 0 0 0 144454569.7169925 3613036.66308493 3613036.66308493 32419621.20728656 0 0 0 0 0 141550730.4952478 4057913.747784742 4057913.747784742 31698586.87773625 0 0 0 0 0 138926391.5280648 4434937.616595674 4434937.616595674 30948393.46221536 0 0 0 0 0 136547461.2146671 4751960.645988176 4751960.645988176 30178475.73279945 0 0 0 0 0 135050086.3735449 4154086.440969923 4154086.440969923 29489649.82636911 0 0 0 0 0 133684048.5257281 5524457.905139319 5524457.905139319 28137467.08357734 0 0 0 0 0 131807433.0571472 5734799.755666262 5734799.755666262 27378772.43442219 0 0 0 0 0 130087254.0975701 5902851.262508705 5902851.262508705 26627447.83404741 0 0 0 0 0 128508002.9964452 6034167.676488529 6034167.676488529 25890101.31756885 0 0 0 0 0 126679169.1307528 6536128.209222749 6536128.209222749 23956090.72590505 0 0 0 0 0 127481658.5074439 5542813.062943398 5542813.062943398 25104070.78694753 0 0 0 0 0 125387115.1912519 6591601.578924681 6591601.578924681 23278255.08528306 0 0 0 0 0 124186767.5039219 6623316.9278627 6623316.9278627 22616606.69228062 0 0 0 0 0 123075826.903295 6637169.507027671 6637169.507027671 21973339.96541383 0 0 0 0 0 122043290.2748178 6634315.625986507 6634315.625986507 21349462.51862138 0 0 0 0 0 121081118.6758081 6616857.823071647 6616857.823071647 20744569.58961378 0 0 0 0 0 120182838.291075 6586970.856822953 6586970.856822953 20158508.75769944 0 0 0 0 0 119548750.3012355 6222410.373847451 6222410.373847451 19435122.22469009 0 0 0 0 0 119231610.4489473 6805002.19312053 6805002.19312053 18591090.79658562 0 0 0 0 0 118464436.6069387 6744426.79075608 6744426.79075608 18077123.28172269 0 0 0 0 0 117743555.3809866 6676558.402601331 6676558.402601331 17580399.44331168 0 0 0 0 0 117065676.510281 6602524.068505092 6602524.068505092 17100199.53015935 0 0 0 0 0 116427448.9199355 6523557.038943602 6523557.038943602 16637230.83081377 0 0 0 0 0 115825204.980821 6439402.822773465 6439402.822773465 16197900.92447104 0 0 0 0 0 115364590.16489 6144330.643972489 6144330.643972489 15551790.63418371 0 0 0 0 0 115220987.9361397 6513540.292266228 6513540.292266228 14953185.06096436 0 0 0 0 0 114690186.0908889 6417455.458667943 6417455.458667943 14563950.0996902 0 0 0 0 0 114252025.6274468 6258850.420724289 6258850.420724289 13126831.86763928 0 0 0 0 0 113773119.7832641 6165803.357087712 6165803.357087712 12806725.07187165 0 0 0 0 0 113310288.4436291 6154760.942782036 6154760.942782036 11748792.75281012 0 0 0 0 0 113702709.4521472 6423176.094143705 6423176.094143705 12361635.34795175 0 0 0 0 0 112886785.7885158 6057813.794520764 6057813.794520764 11471293.73952928 0 0 0 0 0 112482154.7689553 5960634.15524827 5960634.15524827 11201852.6815413 0 0 0 0 0 112096940.6720528 5863476.355223916 5863476.355223916 10940831.89860299 0 0 0 0 0 111729488.4515156 5766621.84080925 5766621.84080925 10687943.79741392 0 0 0 0 0 111393427.851285 5718409.371802149 5718409.371802149 9814985.353022438 0 0 0 0 0 111714727.6845766 5943497.08231843 5943497.08231843 10338043.26777289 0 0 0 0 0 111060871.4552926 5620985.058401757 5620985.058401757 9599481.334195642 0 0 0 0 0 110742771.9443156 5524413.213395565 5524413.213395565 9390646.880140785 0 0 0 0 0 110437987.016669 5428810.693688795 5428810.693688795 9188296.408343801 0 0 0 0 0 110146220.4652127 5334658.154619588 5334658.154619588 8992413.190487446 0 0 0 0 0 109874019.2315628 5242890.061200873 5242890.061200873 8801587.056081481 0 0 0 0 0 109884313.0242999 5358644.611280248 5358644.611280248 8529973.138358453 0 0 0 0 0 109438192.9090024 5113054.713449167 5113054.713449167 7900291.736808086 0 0 0 0 0 109655882.9358413 5262139.70757606 5262139.70757606 8325427.200989458 0 0 0 0 0 109141739.973531 5019001.317070608 5019001.317070608 7844768.892370692 0 0 0 0 0 114268913.0248065 6139193.089068983 6139193.089068983 13943699.386027 0 0 0 0 0 237072029.176661 -5151141.799114964 -5151141.799114964 22552872.83674829 0 0 0 0 0 246100520.886801 202121.4644411898 202121.4644411898 19858819.59106188 0 0 0 0 0 217420585.4452234 -3348252.067874549 -3348252.067874549 26927094.82108698 0 0 0 0 0 215755492.5264415 -5582227.469448807 -5582227.469448807 30739715.10080971 0 0 0 0 0 202075394.2808294 -3184517.837485656 -3184517.837485656 32408549.03161935 0 0 0 0 0 195036384.5591888 -5616036.601100154 -5616036.601100154 33337278.62184231 0 0 0 0 0 180724297.0181424 -2173469.699729886 -2173469.699729886 35318588.98183317 0 0 0 0 0 185947319.4457653 -4349985.835503432 -4349985.835503432 34567382.16675876 0 0 0 0 0 163576646.1558692 -1345718.060618488 -1345718.060618488 35488968.16267724 0 0 0 0 0 173695442.4577015 -1098115.772389604 -1098115.772389604 35679114.88579376 0 0 0 0 0 167539617.9862691 -155024.3588940359 -155024.3588940359 35726773.82580325 0 0 0 0 0 158605656.8109074 -394973.0180992658 -394973.0180992658 35265397.7466356 0 0 0 0 0 154196910.9988535 434499.2258382225 434499.2258382225 34871586.85884727 0 0 0 0 0 150262193.5430295 1161331.581127627 1161331.581127627 34355171.66010284 0 0 0 0 0 146739966.1130422 1795418.474611922 1795418.474611922 33744933.06151087 0 0 0 0 0 143580409.4637642 2349160.251838136 2349160.251838136 33065674.68895586 0 0 0 0 0 140725809.9188532 2831930.624977498 2831930.624977498 32332307.13646471 0 0 0 0 0 138142524.1259318 3248338.369166699 3248338.369166699 31565829.48050002 0 0 0 0 0 135803675.4009038 3605541.917821356 3605541.917821356 30778378.41534586 0 0 0 0 0 134385577.4768155 5017678.559646989 5017678.559646989 29398996.98926578 0 0 0 0 0 133018673.8080978 4454944.47702163 4454944.47702163 28704445.54321847 0 0 0 0 0 131161179.547337 4707165.19871008 4707165.19871008 27921628.95153698 0 0 0 0 0 129460542.8288168 4916287.061324778 4916287.061324778 27146453.52365697 0 0 0 0 0 127899655.6053436 5086004.162060914 5086004.162060914 26380679.83787677 0 0 0 0 0 126096124.7382673 5662974.888869261 5662974.888869261 24385825.80052227 0 0 0 0 0 127052339.2147802 6133797.780831336 6133797.780831336 25169142.43975205 0 0 0 0 0 124813314.1674061 5756479.866230438 5756479.866230438 23698166.01262911 0 0 0 0 0 123632864.2210031 5826771.163358991 5826771.163358991 23022630.59286021 0 0 0 0 0 122536926.9475906 5875040.995022321 5875040.995022321 22361414.14723449 0 0 0 0 0 121518642.6617306 5904789.085312868 5904789.085312868 21719165.21831328 0 0 0 0 0 120570638.6581 5918413.503622436 5918413.503622436 21096850.05043089 0 0 0 0 0 119686424.8936747 5918093.108140778 5918093.108140778 20494368.26351994 0 0 0 0 0 119343046.4165068 6546504.912299255 6546504.912299255 19591117.41753852 0 0 0 0 0 118744333.2919089 6197055.279314192 6197055.279314192 18887902.10352354 0 0 0 0 0 117990117.1365899 6161874.822114753 6161874.822114753 18359299.66107366 0 0 0 0 0 117282272.3713477 6118208.027116823 6118208.027116823 17848913.35876882 0 0 0 0 0 116616958.234243 6067159.082184514 6067159.082184514 17356060.0211245 0 0 0 0 0 115990400.6549101 6009841.653217425 6009841.653217425 16880135.68666752 0 0 0 0 0 115400195.0487262 5947486.009414305 5947486.009414305 16422224.07033739 0 0 0 0 0 115246482.3706022 6351037.150308092 6351037.150308092 15771960.53491592 0 0 0 0 0 114810501.199884 6068393.088417975 6068393.088417975 15151310.12785176 0 0 0 0 0 114288615.1148097 5988494.980137741 5988494.980137741 14754090.86175665 0 0 0 0 0 114181339.5789628 6441033.58762719 6441033.58762719 13430337.69046325 0 0 0 0 0 113708121.7219419 6336540.860847519 6336540.860847519 13097602.229638 0 0 0 0 0 113262222.6312913 6315291.690674411 6315291.690674411 12060946.47013271 0 0 0 0 0 113317232.2395491 6071135.413815272 6071135.413815272 12496334.00653253 0 0 0 0 0 112842443.0279943 6208820.659935385 6208820.659935385 11772505.46497172 0 0 0 0 0 112442344.5631166 6102453.015961142 6102453.015961142 11491683.76200948 0 0 0 0 0 112060960.5391115 5996961.557696318 5996961.557696318 11220401.48637721 0 0 0 0 0 111696946.2682964 5892381.734716882 5892381.734716882 10957825.68637126 0 0 0 0 0 111369926.526445 5838207.815580592 5838207.815580592 10105332.92991945 0 0 0 0 0 111378674.0454321 5670295.700502096 5670295.700502096 10443057.83032443 0 0 0 0 0 111040104.1383955 5734126.665788886 5734126.665788886 9880291.281629868 0 0 0 0 0 110724337.1327495 5631443.052206033 5631443.052206033 9662679.736687038 0 0 0 0 0 110421530.6595867 5530133.268795648 5530133.268795648 9449727.440739309 0 0 0 0 0 110133536.2221082 5429990.593710113 5429990.593710113 9244656.671508005 0 0 0 0 0 109851995.8369148 5340565.765245273 5340565.765245273 9025694.854410386 0 0 0 0 0 109587764.547157 5159191.611894924 5159191.611894924 8622967.670289848 0 0 0 0 0 109355694.9338593 5119660.90601971 5119660.90601971 8310642.732628294 0 0 0 0 0 109409834.5162634 5099001.778293739 5099001.778293739 8490038.306692926 0 0 0 0 0 109239254.5401076 5088494.444173728 5088494.444173728 7931785.503648407 0 0 0 0 0 114190037.3919597 6320763.096334021 6320763.096334021 14188552.0113539 0 0 0 0 0 228894602.0125484 357609.4488488836 357609.4488488836 25247341.08047315 0 0 0 0 0 224264760.4939708 -3658829.453508963 -3658829.453508963 28528493.95749912 0 0 0 0 0 208042042.5859798 -1663967.804306625 -1663967.804306625 30614259.92141576 0 0 0 0 0 203641117.6995927 -4426568.868569336 -4426568.868569336 33232011.7525357 0 0 0 0 0 193034083.1300042 -2670173.646455869 -2670173.646455869 34538558.94667615 0 0 0 0 0 178276071.129253 -3299873.777544355 -3299873.777544355 35475346.25847467 0 0 0 0 0 184181144.0755794 -1785137.533585687 -1785137.533585687 35678143.72928932 0 0 0 0 0 162093024.0565946 676046.6602353675 676046.6602353675 35587557.16980191 0 0 0 0 0 171761565.3147527 -2379159.434878182 -2379159.434878182 36019386.59828701 0 0 0 0 0 165858930.5351753 -1468157.728503348 -1468157.728503348 36212932.74327794 0 0 0 0 0 157261784.0386865 1403210.639746487 1403210.639746487 35258361.12803982 0 0 0 0 0 152981427.2757084 2045602.124083009 2045602.124083009 34799273.9403595 0 0 0 0 0 149160390.5055964 2603188.219034804 2603188.219034804 34229454.14994875 0 0 0 0 0 145737343.5016675 3087343.315144294 3087343.315144294 33573652.05585398 0 0 0 0 0 142665791.5787114 3514217.17949953 3514217.17949953 32865105.70553388 0 0 0 0 0 139893842.5931151 3883487.246341724 3883487.246341724 32122549.49213656 0 0 0 0 0 137385969.4410905 4197391.684316466 4197391.684316466 31351349.12905566 0 0 0 0 0 135113213.5355874 4465429.705616781 4465429.705616781 30561968.98243682 0 0 0 0 0 133678888.8633954 3912720.479585725 3912720.479585725 29979713.68110887 0 0 0 0 0 132414826.7490304 5238880.829971509 5238880.829971509 28619144.83287476 0 0 0 0 0 130612294.2998673 5419333.834386826 5419333.834386826 27843177.30368907 0 0 0 0 0 128961481.5553483 5564260.112612799 5564260.112612799 27077455.12331742 0 0 0 0 0 127444293.3529371 5678539.898897476 5678539.898897476 26329474.99765295 0 0 0 0 0 125704223.4268726 6204302.330454369 6204302.330454369 24464441.54222607 0 0 0 0 0 126460323.0844387 5221876.81655278 5221876.81655278 25630987.64137678 0 0 0 0 0 124460422.9290076 6249941.244694646 6249941.244694646 23762769.82758929 0 0 0 0 0 123310222.4177979 6278741.655180833 6278741.655180833 23085153.68835549 0 0 0 0 0 122242125.7909876 6290264.696219501 6290264.696219501 22426411.99777757 0 0 0 0 0 121249215.0791407 6286905.511881898 6286905.511881898 21787100.24232052 0 0 0 0 0 120324138.3432128 6270670.155877286 6270670.155877286 21167362.07843169 0 0 0 0 0 119460589.2614949 6243379.015389978 6243379.015389978 20567138.39655472 0 0 0 0 0 118860221.8435391 5905749.24270348 5905749.24270348 19911484.97846297 0 0 0 0 0 118556005.5550155 6497027.364893863 6497027.364893863 19042836.4821711 0 0 0 0 0 117817800.3883286 6439753.628854095 6439753.628854095 18512754.83311002 0 0 0 0 0 117124508.7547359 6375838.777866941 6375838.777866941 18000585.6223967 0 0 0 0 0 116472217.9184021 6306419.600578662 6306419.600578662 17506050.47708049 0 0 0 0 0 115858095.2893904 6232642.056397178 6232642.056397178 17030446.94580255 0 0 0 0 0 115280957.5915997 6155485.905152694 6155485.905152694 16572129.10454075 0 0 0 0 0 114844579.3523495 5880049.66456398 5880049.66456398 15981743.11858201 0 0 0 0 0 114705916.4428782 6260417.746499282 6260417.746499282 15353315.27780007 0 0 0 0 0 114194183.9735632 6169435.464667256 6169435.464667256 14951736.55746269 0 0 0 0 0 113785345.5657119 6051717.837959689 6051717.837959689 13585993.81891961 0 0 0 0 0 113323380.3133671 5961378.185794924 5961378.185794924 13248995.83445826 0 0 0 0 0 112884851.9976474 5976756.387055658 5976756.387055658 12197838.81985037 0 0 0 0 0 113258407.0701441 6231093.582490649 6231093.582490649 12777938.96361399 0 0 0 0 0 112476262.7789489 5882562.665200558 5882562.665200558 11904341.07020237 0 0 0 0 0 112086702.7576597 5788489.368666389 5788489.368666389 11619591.67684621 0 0 0 0 0 111715605.0369188 5694512.202696772 5694512.202696772 11343030.82945153 0 0 0 0 0 111361883.4982808 5600910.116553094 5600910.116553094 11075426.79575183 0 0 0 0 0 111043449.3657668 5574681.592118561 5574681.592118561 10205935.66534639 0 0 0 0 0 111349373.7831717 5788947.211745633 5788947.211745633 10703790.91601387 0 0 0 0 0 110722692.4309354 5479784.960520618 5479784.960520618 9976283.608078983 0 0 0 0 0 110415555.5051978 5385434.077657745 5385434.077657745 9754132.819191203 0 0 0 0 0 110120826.0449933 5291447.241218037 5291447.241218037 9538790.102191634 0 0 0 0 0 109829624.6212168 5196708.783759017 5196708.783759017 9330616.279211363 0 0 0 0 0 109571833.727182 5113461.791320156 5113461.791320156 9151639.743763598 0 0 0 0 0 109580668.1154874 5232453.015354849 5232453.015354849 8782350.090666687 0 0 0 0 0 109357911.273835 5119595.179898414 5119595.179898414 8311154.325543249 0 0 0 0 0 109045127.9883271 4985328.042279923 4985328.042279923 8339119.715304988 0 0 0 0 0 113794809.9246395 5907665.193625739 5907665.193625739 14372898.40959341 0 0 0 0 0 214885324.1452384 259698.5418685082 259698.5418685082 28821139.61128886 0 0 0 0 0 210896999.7372211 -2749314.788743417 -2749314.788743417 31558804.16009973 0 0 0 0 0 196521196.976315 -1256026.822897343 -1256026.822897343 33107919.60010229 0 0 0 0 0 188929877.3442071 -3072735.601633809 -3072735.601633809 34338674.59172264 0 0 0 0 0 176664280.8429234 -902171.4367519055 -902171.4367519055 36213470.50203582 0 0 0 0 0 181410587.9827029 -2770287.483217083 -2770287.483217083 35609918.57040994 0 0 0 0 0 160545154.6323481 -648404.9123382951 -648404.9123382951 36125781.98052449 0 0 0 0 0 170211426.2020556 -184296.5054537677 -184296.5054537677 36384398.1920106 0 0 0 0 0 164399739.4478092 483293.0438240707 483293.0438240707 36337659.08911719 0 0 0 0 0 155911767.640183 62439.57332463147 62439.57332463147 35839375.20021083 0 0 0 0 0 151754304.0958439 714798.4213606768 714798.4213606768 35395842.42162416 0 0 0 0 0 148041518.5927973 1290791.950971405 1290791.950971405 34840758.75007491 0 0 0 0 0 144731364.7117331 1805473.336349874 1805473.336349874 34197175.22661869 0 0 0 0 0 141737043.1280269 2267806.690926611 2267806.690926611 33489051.89485762 0 0 0 0 0 139023708.2240767 2673217.274953025 2673217.274953025 32735367.49685077 0 0 0 0 0 136574228.9477111 3024508.978702751 3024508.978702751 31952734.10611083 0 0 0 0 0 134362002.129942 3332529.986508963 3332529.986508963 31150616.24146834 0 0 0 0 0 133047275.9090133 4695912.052790833 4695912.052790833 29770401.16485694 0 0 0 0 0 131736261.4319815 4175357.910485024 4175357.910485024 29178641.07236359 0 0 0 0 0 129961937.7145799 4396695.677629093 4396695.677629093 28380997.92362203 0 0 0 0 0 128335571.0849053 4581844.949671696 4581844.949671696 27591100.61574885 0 0 0 0 0 126842093.9070699 4731421.583924585 4731421.583924585 26808962.01267787 0 0 0 0 0 125131430.6511739 5330270.484137702 5330270.484137702 24898723.53701391 0 0 0 0 0 126044664.5097778 5765581.516251621 5765581.516251621 25591253.68587767 0 0 0 0 0 123904451.4072734 5416249.437387408 5416249.437387408 24193403.74816085 0 0 0 0 0 122770989.5904085 5480330.341205731 5480330.341205731 23497530.19234795 0 0 0 0 0 121720098.8431301 5525686.019004654 5525686.019004654 22820295.58286065 0 0 0 0 0 120743085.6323298 5554699.956497416 5554699.956497416 22163097.90986132 0 0 0 0 0 119833323.2337855 5569327.392367711 5569327.392367711 21526268.45441899 0 0 0 0 0 118984693.2743271 5571464.295567702 5571464.295567702 20909750.061193 0 0 0 0 0 118653147.2511159 6206633.675543381 6206633.675543381 19986377.14434606 0 0 0 0 0 118087092.7332507 5883011.335371021 5883011.335371021 19347697.15384339 0 0 0 0 0 117362496.7741726 5851316.48580964 5851316.48580964 18803159.04420821 0 0 0 0 0 116682438.969404 5811906.788224576 5811906.788224576 18277467.93950439 0 0 0 0 0 116043492.6834106 5765928.879103536 5765928.879103536 17770278.75895122 0 0 0 0 0 115442006.0712805 5714484.358972298 5714484.358972298 17280686.64428767 0 0 0 0 0 114875336.1736594 5658315.167685943 5658315.167685943 16808636.62083482 0 0 0 0 0 114727217.3262036 6073410.994255271 6073410.994255271 16132973.18986003 0 0 0 0 0 114312167.1674662 5807831.36268849 5807831.36268849 15556813.81164898 0 0 0 0 0 113809209.3121334 5733445.116692918 5733445.116692918 15145939.18536841 0 0 0 0 0 113711134.6196662 6221728.594391227 6221728.594391227 13834042.6736252 0 0 0 0 0 113254864.659518 6120459.081181135 6120459.081181135 13488529.738965 0 0 0 0 0 112833505.0801383 6126863.252561376 6126863.252561376 12463730.30348346 0 0 0 0 0 112885325.0813695 5870853.339897366 5870853.339897366 12921214.52680158 0 0 0 0 0 112428893.0588229 6023564.744332001 6023564.744332001 12158878.8772574 0 0 0 0 0 112043576.5304087 5920969.995535414 5920969.995535414 11864334.08751058 0 0 0 0 0 111676394.1324919 5819177.541323315 5819177.541323315 11579503.49089478 0 0 0 0 0 111326078.3024135 5718519.529554543 5718519.529554543 11304173.09065517 0 0 0 0 0 111017132.6622491 5686713.61541472 5686713.61541472 10458225.80548502 0 0 0 0 0 111024016.9476135 5507990.655341723 5507990.655341723 10816552.57609628 0 0 0 0 0 110699297.9376426 5585659.994152552 5585659.994152552 10221960.07182465 0 0 0 0 0 110394924.9517574 5485636.98484612 5485636.98484612 9993978.199910557 0 0 0 0 0 110100244.0017389 5387843.068485404 5387843.068485404 9770324.987329686 0 0 0 0 0 109811708.8728958 5294006.07430821 5294006.07430821 9542018.220379956 0 0 0 0 0 109554667.3919684 5173503.023659422 5173503.023659422 9177106.945687359 0 0 0 0 0 109339438.7333986 5018901.385788096 5018901.385788096 8878119.157606149 0 0 0 0 0 109206562.6002498 5060395.7017715 5060395.7017715 8773788.16582448 0 0 0 0 0 109082832.412061 5021475.472285063 5021475.472285063 8385541.21693063 0 0 0 0 0 113712856.1050768 6077000.208030628 6077000.208030628 14561699.38452821 0 0 0 0 0 204029186.2296357 371749.0396587759 371749.0396587759 31813731.90546507 0 0 0 0 0 195431420.4042242 -3194586.266993631 -3194586.266993631 34670592.97455311 0 0 0 0 0 200199717.5776658 -2534461.5812945 -2534461.5812945 34128590.96218236 0 0 0 0 0 187483357.8680705 -1345473.697684353 -1345473.697684353 35697987.62071589 0 0 0 0 0 174534290.2674366 -2200530.35332236 -2200530.35332236 36358666.94356433 0 0 0 0 0 179299811.7038254 -610759.3121975932 -610759.3121975932 36394217.49980727 0 0 0 0 0 159240208.0618245 1075953.334248498 1075953.334248498 36107663.0933579 0 0 0 0 0 168263128.2024774 -1517956.071738453 -1517956.071738453 36813863.39165832 0 0 0 0 0 162593668.6416456 -858873.2594007296 -858873.2594007296 36833282.88650619 0 0 0 0 0 154710954.0430127 1634610.413654929 1634610.413654929 35707914.69246088 0 0 0 0 0 150659984.5386401 2123818.633677677 2123818.633677677 35199894.16588106 0 0 0 0 0 147039028.2247681 2551665.875847871 2551665.875847871 34568906.503581 0 0 0 0 0 143806567.5757083 2951570.363650219 2951570.363650219 33888549.84644585 0 0 0 0 0 140888185.8016923 3307188.24404549 3307188.24404549 33164469.86732462 0 0 0 0 0 138248867.1502777 3610905.378082395 3610905.378082395 32403007.59564121 0 0 0 0 0 135864100.1792552 3872822.311237137 3872822.311237137 31610638.27669813 0 0 0 0 0 133705121.4924831 4112477.819189721 4112477.819189721 30820162.8917068 0 0 0 0 0 132330974.4217806 3603022.74968347 3603022.74968347 30340376.59161117 0 0 0 0 0 131160038.6065857 4886608.467502902 4886608.467502902 28976853.17208961 0 0 0 0 0 129435349.7648407 5044493.475004729 5044493.475004729 28188835.65677672 0 0 0 0 0 127855564.0272057 5173467.362544877 5173467.362544877 27417331.87596694 0 0 0 0 0 126397563.439651 5275928.340084895 5275928.340084895 26663478.97010603 0 0 0 0 0 124749370.1921432 5826379.208761412 5826379.208761412 24864019.94367762 0 0 0 0 0 125459721.3784256 4854460.545257614 4854460.545257614 26052066.73884159 0 0 0 0 0 123556618.7064965 5869909.785956657 5869909.785956657 24153103.28168534 0 0 0 0 0 122452671.8857585 5896978.968180525 5896978.968180525 23462687.48573588 0 0 0 0 0 121427860.7179804 5909254.242568881 5909254.242568881 22792600.37163071 0 0 0 0 0 120474789.3462189 5908253.518518421 5908253.518518421 22142293.68323527 0 0 0 0 0 119586772.934503 5895750.99589252 5895750.99589252 21511863.32512571 0 0 0 0 0 118757837.8985385 5873308.557289082 5873308.557289082 20901451.73277443 0 0 0 0 0 118191680.5807405 5562697.549084449 5562697.549084449 20313283.93645762 0 0 0 0 0 117896932.4885932 6161676.65259529 6161676.65259529 19424844.21232652 0 0 0 0 0 117187710.8182485 6109676.07311855 6109676.07311855 18882170.68452138 0 0 0 0 0 116521644.5421845 6051707.602077155 6051707.602077155 18358248.19916148 0 0 0 0 0 115895073.1458892 5988816.85631089 5988816.85631089 17851198.59975203 0 0 0 0 0 115305711.3174084 5922137.641521718 5922137.641521718 17361887.4251723 0 0 0 0 0 114749941.6170027 5851497.826319185 5851497.826319185 16891682.65953904 0 0 0 0 0 114340178.5500366 5596286.033809071 5596286.033809071 16349808.86265081 0 0 0 0 0 114206027.1948364 5989281.973582243 5989281.973582243 15705045.97856742 0 0 0 0 0 113711849.0893948 5902990.064246039 5902990.064246039 15291646.79171513 0 0 0 0 0 113330209.7949587 5824306.064219199 5824306.064219199 13998775.58442988 0 0 0 0 0 112885542.5571171 5738552.418945882 5738552.418945882 13645612.37251491 0 0 0 0 0 112469267.9940287 5779725.297341473 5779725.297341473 12607305.63644095 0 0 0 0 0 112823206.5841312 6019843.080511355 6019843.080511355 13154183.58257506 0 0 0 0 0 112075525.296901 5689541.450813282 5689541.450813282 12300521.54606248 0 0 0 0 0 111700363.5911681 5599371.834768262 5599371.834768262 12000471.83097409 0 0 0 0 0 111343604.6763442 5509431.024868993 5509431.024868993 11710126.70102711 0 0 0 0 0 111003148.7871194 5420049.391272744 5420049.391272744 11429442.61600434 0 0 0 0 0 110701059.3246156 5415868.510266737 5415868.510266737 10566249.29002053 0 0 0 0 0 110991409.725006 5619024.909019944 5619024.909019944 11037983.85517467 0 0 0 0 0 110392169.9448644 5324441.019000384 5324441.019000384 10323884.91073452 0 0 0 0 0 110097355.6950499 5234496.050317303 5234496.050317303 10091384.14435716 0 0 0 0 0 109821148.2920411 5146477.845169915 5146477.845169915 9864627.071969585 0 0 0 0 0 109557272.5611525 5058697.228376463 5058697.228376463 9628944.436140774 0 0 0 0 0 109326932.5299653 5031478.530132328 5031478.530132328 9473257.849038465 0 0 0 0 0 109278722.5897074 5086636.630813393 5086636.630813393 9159726.688579835 0 0 0 0 0 109093362.8204791 4961113.070234934 4961113.070234934 8732584.003420955 0 0 0 0 0 108916499.8378783 4906830.876451602 4906830.876451602 8731612.840548888 0 0 0 0 0 113333854.0986536 5657822.197524181 5657822.197524181 14752818.92034292 0 0 0 0 0 189622775.9313307 -898352.5767911503 -898352.5767911503 34818928.08588352 0 0 0 0 0 194112855.104459 573470.3246381496 573470.3246381496 34083748.87751815 0 0 0 0 0 185364897.8832044 -2216970.03804126 -2216970.03804126 35435996.36208426 0 0 0 0 0 172564081.8534828 -55361.68751461391 -55361.68751461391 36760533.6239126 0 0 0 0 0 177767937.0247423 -1951993.65558942 -1951993.65558942 36427155.21627627 0 0 0 0 0 157616500.7281615 -228394.1549136709 -228394.1549136709 36572011.0609992 0 0 0 0 0 166736965.9474963 397919.3108489029 397919.3108489029 36906948.65534202 0 0 0 0 0 161231692.2307768 739689.8296376712 739689.8296376712 36619551.71831047 0 0 0 0 0 153239515.7196134 314052.7854498336 314052.7854498336 36246217.84455051 0 0 0 0 0 149316449.0812176 811577.5076106836 811577.5076106836 35760854.12642929 0 0 0 0 0 145894183.4742512 1261799.4637629 1261799.4637629 35165236.89126233 0 0 0 0 0 142755880.525957 1694484.569261871 1694484.569261871 34490108.32680619 0 0 0 0 0 139918523.0064828 2075650.836045004 2075650.836045004 33768010.17528015 0 0 0 0 0 137364166.5794779 2418702.292440523 2418702.292440523 32998649.50964887 0 0 0 0 0 135074302.5387598 2725092.265891344 2725092.265891344 32201086.64727752 0 0 0 0 0 132941538.7575972 2997379.346841238 2997379.346841238 31393249.71488508 0 0 0 0 0 131730413.4229143 4309695.96813623 4309695.96813623 30016329.46436447 0 0 0 0 0 130482877.4893183 3833941.320027855 3833941.320027855 29529194.42852462 0 0 0 0 0 128791873.7946915 4032253.223929872 4032253.223929872 28721921.67680975 0 0 0 0 0 127243048.3271016 4198171.96837627 4198171.96837627 27919252.42818281 0 0 0 0 0 125816038.0558368 4334735.605493269 4334735.605493269 27128384.32802274 0 0 0 0 0 124192232.6686343 4957301.532137796 4957301.532137796 25311698.0827692 0 0 0 0 0 125056961.9936872 5352223.787909723 5352223.787909723 25901980.69041432 0 0 0 0 0 123019242.7939289 5038209.225197396 5038209.225197396 24586727.62113513 0 0 0 0 0 121934259.9462673 5100434.825253018 5100434.825253018 23879280.45312657 0 0 0 0 0 120927491.531838 5145902.203988094 5145902.203988094 23190998.89352466 0 0 0 0 0 119991322.0635255 5176719.95690375 5176719.95690375 22523105.41853669 0 0 0 0 0 119119307.6976795 5194672.381908731 5194672.381908731 21875994.6964393 0 0 0 0 0 118305690.582648 5201314.116336971 5201314.116336971 21249465.6949167 0 0 0 0 0 117982737.1565424 5842226.981967648 5842226.981967648 20310828.95658734 0 0 0 0 0 117449517.1771865 5544502.720420267 5544502.720420267 19736788.89006715 0 0 0 0 0 116753958.245894 5518149.931682033 5518149.931682033 19180055.55871204 0 0 0 0 0 116101394.460636 5484761.499495251 5484761.499495251 18642509.87100872 0 0 0 0 0 115488020.1761291 5445401.445202848 5445401.445202848 18123915.76840368 0 0 0 0 0 114910171.6178328 5400932.228604108 5400932.228604108 17622694.22005994 0 0 0 0 0 114367061.7988648 5351748.20319734 5351748.20319734 17137973.20420932 0 0 0 0 0 114219067.8783142 5777883.819806231 5777883.819806231 16449783.01734481 0 0 0 0 0 113826495.0986688 5529411.437639401 5529411.437639401 15913525.12102901 0 0 0 0 0 113342142.3498356 5460994.958655722 5460994.958655722 15492940.79303757 0 0 0 0 0 113251841.7974109 5982857.781179444 5982857.781179444 14196700.43032571 0 0 0 0 0 112813904.847917 5886992.220279098 5886992.220279098 13839696.54273896 0 0 0 0 0 112413523.9027669 5919905.216389449 5919905.216389449 12826064.49714684 0 0 0 0 0 112463647.7972897 5651659.101368983 5651659.101368983 13306268.9788138 0 0 0 0 0 112024085.7619735 5821071.750988217 5821071.750988217 12507736.3282925 0 0 0 0 0 111653555.8910437 5722967.56909988 5722967.56909988 12200729.87228352 0 0 0 0 0 111300653.0647655 5626079.936826711 5626079.936826711 11904529.76082188 0 0 0 0 0 110963749.8660404 5530183.846701372 5530183.846701372 11618042.57321812 0 0 0 0 0 110671634.7850991 5520685.909607331 5520685.909607331 10781125.06448029 0 0 0 0 0 110677902.2857555 5331331.815751269 5331331.815751269 11158089.07474372 0 0 0 0 0 110365306.3551912 5423528.742731926 5423528.742731926 10533184.43831388 0 0 0 0 0 110073339.6093623 5327178.811256761 5327178.811256761 10290747.42773492 0 0 0 0 0 109795464.3199709 5231044.543815229 5231044.543815229 10057398.44486694 0 0 0 0 0 109506775.9828289 5132228.176893072 5132228.176893072 9845559.663677178 0 0 0 0 0 109355046.5808539 5039123.084905986 5039123.084905986 9485370.294441372 0 0 0 0 0 109220445.4445868 5010481.531260453 5010481.531260453 9112235.533913603 0 0 0 0 0 109077815.2125496 5022720.979610799 5022720.979610799 8952918.417098377 0 0 0 0 0 113248310.4911965 5815877.739569553 5815877.739569553 14889329.01300826 0 0 0 0 0 190084991.4545276 -1818501.435753363 -1818501.435753363 35017119.2323181 0 0 0 0 0 181965955.2129541 -318578.0438234686 -318578.0438234686 36112596.82347164 0 0 0 0 0 171031287.830901 -1550640.709135685 -1550640.709135685 36938155.41817666 0 0 0 0 0 175132116.1185754 167005.0343727671 167005.0343727671 36848417.64053234 0 0 0 0 0 156378960.5962492 1260579.178549862 1260579.178549862 36461994.08069372 0 0 0 0 0 164294904.1445996 -803095.625826653 -803095.625826653 37317934.90059814 0 0 0 0 0 159346102.6932432 -319562.0829162087 -319562.0829162087 37015785.06707588 0 0 0 0 0 152166334.3648556 1680197.25687854 1680197.25687854 36002869.24646584 0 0 0 0 0 148340251.3506196 2009605.911419024 2009605.911419024 35395421.27866157 0 0 0 0 0 144963295.2250912 2383878.941659828 2383878.941659828 34751453.92671718 0 0 0 0 0 141894791.7815783 2719250.808319871 2719250.808319871 34072684.97884021 0 0 0 0 0 139140862.5316934 2998664.756650335 2998664.756650335 33307885.46623359 0 0 0 0 0 136640514.9890354 3244265.196101669 3244265.196101669 32515404.01640044 0 0 0 0 0 134382182.8561341 3498392.432370751 3498392.432370751 31767850.8825982 0 0 0 0 0 132321676.5973473 3693607.36711499 3693607.36711499 30950596.57704725 0 0 0 0 0 131022390.3061913 3232775.556986683 3232775.556986683 30577681.9625502 0 0 0 0 0 129930465.2542148 4478940.405220686 4478940.405220686 29214902.33174744 0 0 0 0 0 128284766.4320388 4620822.750564164 4620822.750564164 28421770.02542025 0 0 0 0 0 126776102.3930949 4738716.624529323 4738716.624529323 27647606.19596224 0 0 0 0 0 125377703.4734443 4832312.798242862 4832312.798242862 26882533.39429004 0 0 0 0 0 123819947.622001 5412766.727315024 5412766.727315024 25167661.402489 0 0 0 0 0 124495689.5062013 4453414.66520841 4453414.66520841 26373199.12147733 0 0 0 0 0 122676941.0819001 5456032.761954905 5456032.761954905 24449889.99425854 0 0 0 0 0 121618997.5919254 5484903.127467608 5484903.127467608 23752913.79317854 0 0 0 0 0 120636922.3975604 5500422.198831669 5500422.198831669 23075627.21354644 0 0 0 0 0 119723370.8228122 5504118.115478024 5504118.115478024 22418424.63571218 0 0 0 0 0 118872033.6985495 5497439.194443889 5497439.194443889 21781289.18151608 0 0 0 0 0 118077268.6096296 5481730.492012091 5481730.492012091 21164330.28963273 0 0 0 0 0 117545289.9567487 5198068.980977877 5198068.980977877 20643443.81455569 0 0 0 0 0 117256900.0195528 5803680.298060622 5803680.298060622 19739778.46529818 0 0 0 0 0 116576403.1016181 5758672.550348519 5758672.550348519 19187599.1892546 0 0 0 0 0 115937396.8926973 5708321.232583898 5708321.232583898 18654098.86674192 0 0 0 0 0 115335801.5724179 5653688.994866285 5653688.994866285 18139393.48768858 0 0 0 0 0 114770002.3464191 5594534.123514129 5594534.123514129 17641161.76937117 0 0 0 0 0 114238363.4361649 5533755.234996932 5533755.234996932 17171594.48167789 0 0 0 0 0 113849357.23334 5294395.711771935 5294395.711771935 16665084.42509229 0 0 0 0 0 113716923.3722772 5699551.378977534 5699551.378977534 16009209.63297397 0 0 0 0 0 113242857.5036426 5619090.273223905 5619090.273223905 15584325.32623039 0 0 0 0 0 112888477.0913011 5580229.034699716 5580229.034699716 14367246.6095383 0 0 0 0 0 112463611.7271152 5499684.485903354 5499684.485903354 14000580.62987333 0 0 0 0 0 112064185.9910122 5565756.116645997 5565756.116645997 12978337.09466799 0 0 0 0 0 112398520.6678689 5791352.984670739 5791352.984670739 13490738.50835762 0 0 0 0 0 111685496.0956861 5480713.403350112 5480713.403350112 12657191.78663029 0 0 0 0 0 111324917.4813799 5395582.596675961 5395582.596675961 12344059.1936339 0 0 0 0 0 110981471.60201 5310337.973613235 5310337.973613235 12042189.72609008 0 0 0 0 0 110653884.5491584 5225795.515353951 5225795.515353951 11750268.36632047 0 0 0 0 0 110366952.8332314 5243165.630279288 5243165.630279288 10895486.98954617 0 0 0 0 0 110641871.3180727 5435216.318150696 5435216.318150696 11341111.84538873 0 0 0 0 0 110069925.8909114 5155533.498977637 5155533.498977637 10641639.19733527 0 0 0 0 0 109785167.3433788 5068316.002389977 5068316.002389977 10397120.0561899 0 0 0 0 0 109519431.095007 4982819.176616249 4982819.176616249 10161945.96418824 0 0 0 0 0 109300414.5086653 4933153.419487888 4933153.419487888 9966379.58524587 0 0 0 0 0 109159659.9723317 4929596.977715532 4929596.977715532 9843974.633607866 0 0 0 0 0 108998682.8164025 4892185.665935596 4892185.665935596 9530038.958299462 0 0 0 0 0 108794749.8658692 4809747.42762412 4809747.42762412 9148013.039369835 0 0 0 0 0 112888185.6461743 5391692.122704812 5391692.122704812 15087838.59136344 0 0 0 0 0 185751451.7216872 645680.3678633595 645680.3678633595 35468351.89930644 0 0 0 0 0 181997797.0952206 -1481189.298882965 -1481189.298882965 36076371.56295437 0 0 0 0 0 168870093.1904105 430671.4240712248 430671.4240712248 37075618.99757275 0 0 0 0 0 174605955.0712097 -1229089.233838486 -1229089.233838486 36899666.71960864 0 0 0 0 0 154862904.0287444 -56823.39434538056 -56823.39434538056 36791497.39276544 0 0 0 0 0 163680337.493144 274523.4833211367 274523.4833211367 37152123.96124987 0 0 0 0 0 157822481.3994799 965880.0680663718 965880.0680663718 36898651.36104621 0 0 0 0 0 150552262.8784588 387584.6701402587 387584.6701402587 36492204.86169254 0 0 0 0 0 147060129.9089041 761289.3499467339 761289.3499467339 35935924.98860057 0 0 0 0 0 143806955.2901089 1133225.724966687 1133225.724966687 35319886.24835567 0 0 0 0 0 140896304.3325872 1483362.18332589 1483362.18332589 34623931.55569589 0 0 0 0 0 138202257.7728173 1815826.667455461 1815826.667455461 33926600.94257717 0 0 0 0 0 135834686.8256055 2102155.932953169 2102155.932953169 33139150.46550565 0 0 0 0 0 133571167.1491123 2365087.657724933 2365087.657724933 32307862.702635 0 0 0 0 0 131576542.2900123 2601368.844960002 2601368.844960002 31513061.02066189 0 0 0 0 0 130447334.2620229 3871588.048210963 3871588.048210963 30143449.17439666 0 0 0 0 0 129265720.6795264 3441051.295674963 3441051.295674963 29760072.68146021 0 0 0 0 0 127657496.4729862 3621778.59412706 3621778.59412706 28947530.87771724 0 0 0 0 0 126182194.3795428 3773836.703665759 3773836.703665759 28139862.95480102 0 0 0 0 0 124820273.2878782 3906572.37517455 3906572.37517455 27352323.27004585 0 0 0 0 0 123282714.3127251 4551014.638537737 4551014.638537737 25621015.53249515 0 0 0 0 0 124096668.3109362 4907880.59443985 4907880.59443985 26119479.83992989 0 0 0 0 0 122162809.0679831 4630509.648528027 4630509.648528027 24887502.33977295 0 0 0 0 0 121125301.4361626 4693378.72712854 4693378.72712854 24171954.09028671 0 0 0 0 0 120161886.9875452 4741396.509520826 4741396.509520826 23476977.82380702 0 0 0 0 0 119265705.8523801 4776289.820146215 4776289.820146215 22802652.22490881 0 0 0 0 0 118430768.3833119 4799550.272567964 4799550.272567964 22149213.00942963 0 0 0 0 0 117651343.0074234 4812552.673328612 4812552.673328612 21516584.18155278 0 0 0 0 0 117334098.1643877 5458093.955871681 5458093.955871681 20567475.76708107 0 0 0 0 0 116833538.3114252 5186098.413948209 5186098.413948209 20057636.450625 0 0 0 0 0 116166413.3700146 5166632.412311829 5166632.412311829 19492067.03612136 0 0 0 0 0 115540194.9649324 5140680.737553486 5140680.737553486 18945849.70345291 0 0 0 0 0 114951539.2485501 5108577.805287534 5108577.805287534 18417453.61878661 0 0 0 0 0 114397186.3690269 5071877.429624703 5071877.429624703 17908648.87582162 0 0 0 0 0 113870368.60525 5026899.113049003 5026899.113049003 17413679.17796823 0 0 0 0 0 113726766.5196044 5466163.310811779 5466163.310811779 16720652.81301157 0 0 0 0 0 113353974.9211726 5233800.008359341 5233800.008359341 16224169.12507363 0 0 0 0 0 112892861.6600713 5173458.108288683 5173458.108288683 15793626.91274226 0 0 0 0 0 112808210.5880767 5728045.589516278 5728045.589516278 14512708.1458267 0 0 0 0 0 112385702.2547289 5638426.667665306 5638426.667665306 14146041.74508347 0 0 0 0 0 112004763.391025 5697064.926253223 5697064.926253223 13148484.6489401 0 0 0 0 0 112056355.9795158 5418313.27238348 5418313.27238348 13650165.26537035 0 0 0 0 0 111630209.5406993 5603692.594602758 5603692.594602758 12818257.9361921 0 0 0 0 0 111273784.5496726 5511193.018763777 5511193.018763777 12502343.04367949 0 0 0 0 0 110934779.5389329 5419718.915053376 5419718.915053376 12196523.16754768 0 0 0 0 0 110610808.8577293 5329116.533284276 5329116.533284276 11900398.57403619 0 0 0 0 0 110334237.9526414 5341098.450011032 5341098.450011032 11073966.00168268 0 0 0 0 0 110340507.7070974 5141715.760658452 5141715.760658452 11467894.21594512 0 0 0 0 0 110039551.2476901 5247557.67294163 5247557.67294163 10815016.39545156 0 0 0 0 0 109758910.6595927 5153782.022153963 5153782.022153963 10565230.93483059 0 0 0 0 0 109490246.6334752 5068322.81840109 5068322.81840109 10292429.4874311 0 0 0 0 0 109273330.4833215 4984916.581596883 4984916.581596883 9935317.839775946 0 0 0 0 0 109101634.5688833 4956103.046184001 4956103.046184001 9628127.546257123 0 0 0 0 0 108943556.1786484 4912501.469045013 4912501.469045013 9324764.292635884 0 0 0 0 0 112797774.8740411 5539563.800264173 5539563.800264173 15171734.51815416 0 0 0 0 0 178149113.1780632 696730.5658115859 696730.5658115859 36427496.25732317 0 0 0 0 0 168015474.517716 -1070886.353829635 -1070886.353829635 37391955.2724917 0 0 0 0 0 171358954.1686027 847105.8870814791 847105.8870814791 36946039.237667 0 0 0 0 0 153735960.3668694 1340652.649190914 1340652.649190914 36717305.08503946 0 0 0 0 0 159604168.2436529 542111.8853732848 542111.8853732848 37330124.41609808 0 0 0 0 0 159044001.7371598 -380931.6772970273 -380931.6772970273 37207875.10934543 0 0 0 0 0 149659726.9355856 1432575.994266103 1432575.994266103 35993479.43724174 0 0 0 0 0 146081324.6291935 1820641.667545213 1820641.667545213 35483149.55429532 0 0 0 0 0 142938227.2065983 2113833.834627511 2113833.834627511 34770237.63994581 0 0 0 0 0 140055210.3483396 2391321.743912853 2391321.743912853 34090326.55192208 0 0 0 0 0 137432762.1545539 2581109.469685636 2581109.469685636 33305908.1291815 0 0 0 0 0 135061237.9316947 2856927.482972481 2856927.482972481 32588271.52569478 0 0 0 0 0 132938379.4651303 3050919.005978802 3050919.005978802 31774140.33023598 0 0 0 0 0 130984584.3536316 3229305.602041885 3229305.602041885 30968666.35624821 0 0 0 0 0 129756421.1650762 2814459.195885179 2814459.195885179 30695248.29358929 0 0 0 0 0 128734420.0539749 4025225.092467719 4025225.092467719 29339361.81795781 0 0 0 0 0 127168248.9419851 4158335.364064456 4158335.364064456 28552067.14964873 0 0 0 0 0 125727529.7903612 4268891.659996961 4268891.659996961 27771391.38531037 0 0 0 0 0 124396663.4365815 4361516.749778571 4361516.749778571 27003181.73676167 0 0 0 0 0 122915842.3449806 4968663.711766426 4968663.711766426 25379318.21796362 0 0 0 0 0 123562275.5388378 4020778.036952039 4020778.036952039 26587012.95703723 0 0 0 0 0 121824248.9867835 5015230.186162637 5015230.186162637 24659306.87509185 0 0 0 0 0 120812303.2058487 5048437.77185115 5048437.77185115 23959697.32091936 0 0 0 0 0 119872370.5622225 5069521.005359847 5069521.005359847 23279394.93132937 0 0 0 0 0 118997698.3791551 5079842.905305167 5079842.905305167 22619028.2739175 0 0 0 0 0 118182381.4402856 5080851.43615232 5080851.43615232 21978943.53271007 0 0 0 0 0 117421038.4152194 5073474.787467547 5073474.787467547 21359179.28517493 0 0 0 0 0 116922653.5299072 4816332.106889391 4816332.106889391 20904554.18131911 0 0 0 0 0 116638092.05613 5427497.483069399 5427497.483069399 19990190.87641117 0 0 0 0 0 115985490.5103502 5391052.508407963 5391052.508407963 19431988.01111844 0 0 0 0 0 115372724.8655536 5349469.256681121 5349469.256681121 18893049.49245279 0 0 0 0 0 114796024.2203331 5303312.860159718 5303312.860159718 18372116.30844091 0 0 0 0 0 114254357.5060136 5254564.34793603 5254564.34793603 17879132.53923455 0 0 0 0 0 113741731.6694546 5198915.249893994 5198915.249893994 17400048.45182845 0 0 0 0 0 113373115.0795362 4976124.210536776 4976124.210536776 16937008.2087153 0 0 0 0 0 113242746.9668135 5392631.082714391 5392631.082714391 16263648.24825919 0 0 0 0 0 112790094.5458658 5322179.238061767 5322179.238061767 15829633.02124432 0 0 0 0 0 112459688.1153567 5320776.861299296 5320776.861299296 14692222.11737066 0 0 0 0 0 112053058.2269612 5247541.850600814 5247541.850600814 14315202.34039863 0 0 0 0 0 111670856.4090233 5337913.748661124 5337913.748661124 13311615.01381166 0 0 0 0 0 111984452.8266631 5548580.599387364 5548580.599387364 13786265.67615269 0 0 0 0 0 111308102.2908592 5259132.404137365 5259132.404137365 12977525.63663279 0 0 0 0 0 110961944.5715026 5179491.066344471 5179491.066344471 12650715.455609 0 0 0 0 0 110629635.3177524 5099313.586161339 5099313.586161339 12339450.62105188 0 0 0 0 0 110313727.0076925 5019843.67236004 5019843.67236004 12038956.38943803 0 0 0 0 0 110040874.6090204 5057899.832217082 5057899.832217082 11194829.39241626 0 0 0 0 0 110301042.9812226 5239091.845692641 5239091.845692641 11614351.20842368 0 0 0 0 0 109754774.7415827 4974389.695827403 4974389.695827403 10931166.76091942 0 0 0 0 0 109478349.4179035 4890376.534135431 4890376.534135431 10674955.08879283 0 0 0 0 0 109243096.0998727 4827224.726981056 4827224.726981056 10461014.34650948 0 0 0 0 0 109050807.9515002 4805055.503581304 4805055.503581304 10252702.51707181 0 0 0 0 0 108869146.4714477 4757397.525453806 4757397.525453806 9945421.677344382 0 0 0 0 0 108698797.6554624 4715101.474376608 4715101.474376608 9647392.927115317 0 0 0 0 0 112458045.8670671 5112792.397325908 5112792.397325908 15379174.3483727 0 0 0 0 0 164539506.6666426 921791.1930744274 921791.1930744274 37464924.62161408 0 0 0 0 0 151371756.0755685 150483.8072882236 150483.8072882236 37039377.45471986 0 0 0 0 0 162898922.0421228 -734312.364476079 -734312.364476079 37466492.47729781 0 0 0 0 0 155086564.5212424 560152.6147622408 560152.6147622408 37295426.78186479 0 0 0 0 0 148263194.7828745 513950.4734520434 513950.4734520434 36481976.06063499 0 0 0 0 0 145172153.6272092 619440.3667934523 619440.3667934523 35875381.64958822 0 0 0 0 0 141879918.4322192 870295.3766381063 870295.3766381063 35349983.13482779 0 0 0 0 0 138986293.1687949 1216037.266220305 1216037.266220305 34692938.14103109 0 0 0 0 0 136561291.4308977 1600862.721012386 1600862.721012386 33907059.07454962 0 0 0 0 0 134446949.1965291 1675462.148933822 1675462.148933822 33038073.89792785 0 0 0 0 0 132136386.0034716 1947056.887313302 1947056.887313302 32330315.97411123 0 0 0 0 0 130246861.7419428 2164278.674756437 2164278.674756437 31514871.25163052 0 0 0 0 0 129204520.8388618 3390061.294055871 3390061.294055871 30153635.34395145 0 0 0 0 0 128094062.2313156 3006865.824660225 3006865.824660225 29876476.39890772 0 0 0 0 0 126566142.5041288 3175322.769034077 3175322.769034077 29060364.03828298 0 0 0 0 0 125161449.7998156 3323222.739042018 3323222.739042018 28260431.82489317 0 0 0 0 0 123866829.4455233 3451252.63267038 3451252.63267038 27470662.31768633 0 0 0 0 0 122407899.9477089 4118178.508342488 4118178.508342488 25832704.55849018 0 0 0 0 0 123173782.4611124 4438316.037069447 4438316.037069447 26240437.93172927 0 0 0 0 0 121338237.7904478 4199350.816120198 4199350.816120198 25096871.4717492 0 0 0 0 0 120346624.9386207 4265207.453812656 4265207.453812656 24379203.24710254 0 0 0 0 0 119425458.6313502 4317734.027719116 4317734.027719116 23682093.78653508 0 0 0 0 0 118568581.4321641 4358651.902797895 4358651.902797895 23005401.44915806 0 0 0 0 0 117769356.3440809 4389014.396878504 4389014.396878504 22349552.17874755 0 0 0 0 0 117022973.0228955 4409695.461769443 4409695.461769443 21714343.95398202 0 0 0 0 0 116708992.8045453 5058629.550021059 5058629.550021059 20759325.38113512 0 0 0 0 0 116240521.9863878 4812034.335158948 4812034.335158948 20313045.54999158 0 0 0 0 0 115600977.9675121 4800641.054851061 4800641.054851061 19741508.61496812 0 0 0 0 0 114999954.1648034 4782713.022628829 4782713.022628829 19188850.19922243 0 0 0 0 0 114435778.1995006 4759641.863360297 4759641.863360297 18656554.01298868 0 0 0 0 0 113900063.943772 4726786.32745952 4726786.32745952 18134232.16799232 0 0 0 0 0 113390615.0857356 4688610.467124322 4688610.467124322 17639279.52486763 0 0 0 0 0 113248750.318979 5137260.685632676 5137260.685632676 16930709.03161986 0 0 0 0 0 112901600.0050884 4926433.852685346 4926433.852685346 16491120.68804174 0 0 0 0 0 112459427.9637149 4875668.032008588 4875668.032008588 16052315.92032304 0 0 0 0 0 112376966.7746779 5459945.397788703 5459945.397788703 14785469.88494114 0 0 0 0 0 111971982.3217677 5377643.231623904 5377643.231623904 14405357.42250138 0 0 0 0 0 111606054.9404176 5459979.049967384 5459979.049967384 13431471.99328177 0 0 0 0 0 111663577.9064798 5173200.415583411 5173200.415583411 13951139.21722784 0 0 0 0 0 111247730.28585 5373553.530847719 5373553.530847719 13091080.63685135 0 0 0 0 0 110905060.6346248 5287957.497842432 5287957.497842432 12768713.42978011 0 0 0 0 0 110578821.4427744 5202169.756613617 5202169.756613617 12455289.73615685 0 0 0 0 0 110267464.3951918 5117050.720093827 5117050.720093827 12151765.22578957 0 0 0 0 0 110004971.1044798 5149588.956998807 5149588.956998807 11337856.55806909 0 0 0 0 0 110012124.4911784 4940926.553057304 4940926.553057304 11747109.28482866 0 0 0 0 0 109721726.664992 5060527.399072574 5060527.399072574 11070667.86968979 0 0 0 0 0 109446202.1304654 4973969.997572218 4973969.997572218 10811125.00357869 0 0 0 0 0 109199043.1566007 4902468.330529748 4902468.330529748 10440718.40177018 0 0 0 0 0 108996448.7554398 4839123.454109049 4839123.454109049 10087637.38448028 0 0 0 0 0 108819364.2767748 4791689.080441436 4791689.080441436 9774196.779896319 0 0 0 0 0 112362700.650523 5251577.52594139 5251577.52594139 15413303.15405808 0 0 0 0 0 154953900.6129964 520656.2684633722 520656.2684633722 36860456.96888698 0 0 0 0 0 151116665.7890945 580741.8481355277 580741.8481355277 36303424.05570453 0 0 0 0 0 159193819.2627814 643892.4371524204 643892.4371524204 37450021.75269198 0 0 0 0 0 157879525.6009807 -560286.3379527464 -560286.3379527464 37546507.50874232 0 0 0 0 0 147222364.807767 1319309.116309306 1319309.116309306 36133048.39681328 0 0 0 0 0 143901114.9522119 1534503.401268761 1534503.401268761 35536009.74737287 0 0 0 0 0 140911133.6635994 1769900.990780327 1769900.990780327 34696657.08048104 0 0 0 0 0 138446494.4504785 1780093.352198741 1780093.352198741 33848691.69073694 0 0 0 0 0 135724760.606718 2253623.597759689 2253623.597759689 33455060.8852025 0 0 0 0 0 133598444.579068 2387692.012950342 2387692.012950342 32515628.82598924 0 0 0 0 0 131536616.4780803 2562357.364277602 2562357.364277602 31665066.68659326 0 0 0 0 0 129689505.2903835 2717794.52776735 2717794.52776735 30872784.6435263 0 0 0 0 0 128553841.2411346 2353991.786532273 2353991.786532273 30699582.89200717 0 0 0 0 0 127580858.0614082 3537050.649144275 3537050.649144275 29357159.07828273 0 0 0 0 0 126089813.9123709 3664491.070274375 3664491.070274375 28575456.03548729 0 0 0 0 0 124716364.8766832 3773859.972404448 3773859.972404448 27796975.54490709 0 0 0 0 0 123448518.6874314 3868665.580938281 3868665.580938281 27032450.17622901 0 0 0 0 0 122046370.2854748 4503013.325920056 4503013.325920056 25503750.42491112 0 0 0 0 0 122669074.4209605 3566555.438780422 3566555.438780422 26709106.24864873 0 0 0 0 0 121002957.3147397 4554421.460692569 4554421.460692569 24786304.82197741 0 0 0 0 0 120035365.2067249 4593593.124520551 4593593.124520551 24087921.75184188 0 0 0 0 0 119136539.4158217 4621765.665434118 4621765.665434118 23407504.54245634 0 0 0 0 0 118299839.114291 4640711.419878692 4640711.419878692 22748171.61106119 0 0 0 0 0 117519494.8314958 4650796.173527643 4650796.173527643 22108812.80008449 0 0 0 0 0 116790552.3519821 4652878.297310378 4652878.297310378 21489401.94511889 0 0 0 0 0 116325095.5237982 4421742.467385876 4421742.467385876 21099774.25604209 0 0 0 0 0 116042136.7847459 5037317.109637449 5037317.109637449 20179054.74423377 0 0 0 0 0 115416685.1421728 5010361.493232133 5010361.493232133 19617974.54191652 0 0 0 0 0 114828671.3971218 4978207.750494076 4978207.750494076 19076403.5413203 0 0 0 0 0 114278160.1044481 4942153.984235462 4942153.984235462 18557797.92039205 0 0 0 0 0 113754275.2636633 4899777.590402616 4899777.590402616 18062291.49825643 0 0 0 0 0 113256740.2608827 4850682.570579818 4850682.570579818 17575236.77310751 0 0 0 0 0 112915964.634364 4650206.553212605 4650206.553212605 17168355.97101633 0 0 0 0 0 112785139.6090264 5075788.71872537 5075788.71872537 16473899.40764987 0 0 0 0 0 112352215.098128 5014576.354943424 5014576.354943424 16032847.95060691 0 0 0 0 0 112046226.7439558 5049165.889436567 5049165.889436567 14972345.52323937 0 0 0 0 0 111655706.909619 4983789.108621912 4983789.108621912 14587376.85285639 0 0 0 0 0 111294284.4090932 5100483.989752607 5100483.989752607 13601538.35815406 0 0 0 0 0 111586304.2530696 5295036.730047188 5295036.730047188 14034863.34278924 0 0 0 0 0 110944334.9579392 5028152.573938168 5028152.573938168 13258328.98510559 0 0 0 0 0 110610675.9887459 4953335.660520463 4953335.660520463 12920785.04718756 0 0 0 0 0 110288363.428088 4878261.643446279 4878261.643446279 12600598.5831828 0 0 0 0 0 109983717.9872372 4804175.062269711 4804175.062269711 12294246.84554767 0 0 0 0 0 109723306.3132392 4861841.946578361 4861841.946578361 11464967.63516413 0 0 0 0 0 109969210.8248673 5032342.487571162 5032342.487571162 11858114.93739011 0 0 0 0 0 109445413.7088971 4782232.890305807 4782232.890305807 11192396.54306688 0 0 0 0 0 109175891.3919233 4706249.428245282 4706249.428245282 10935220.13533703 0 0 0 0 0 108956562.6079714 4658160.188309994 4658160.188309994 10734170.86251833 0 0 0 0 0 108764743.6473566 4628052.359373944 4628052.359373944 10425991.5364512 0 0 0 0 0 108587759.4807569 4598458.833838667 4598458.833838667 10089395.36909216 0 0 0 0 0 112042960.687246 4822830.022436306 4822830.022436306 15625944.47220136 0 0 0 0 0 152720919.0273919 -492795.4864399058 -492795.4864399058 37002842.10785855 0 0 0 0 0 148419675.0698349 947133.9459473656 947133.9459473656 36789586.94401243 0 0 0 0 0 155086040.1444749 609003.6907324444 609003.6907324444 37071059.90922895 0 0 0 0 0 146998583.1504775 103277.0235184096 103277.0235184096 36332043.92270631 0 0 0 0 0 143520049.8349809 258646.5960783599 258646.5960783599 35866509.60613474 0 0 0 0 0 140544156.8892359 352368.6514643151 352368.6514643151 35191971.03229954 0 0 0 0 0 136743538.0634688 1631348.37074313 1631348.37074313 34416997.53329112 0 0 0 0 0 136221231.6190732 1188961.523304365 1188961.523304365 33454628.10451098 0 0 0 0 0 132705812.1565677 1320883.149851979 1320883.149851979 33025963.71507898 0 0 0 0 0 130742829.0950079 1502964.498444 1502964.498444 32172979.04646857 0 0 0 0 0 128996692.1103421 1696181.662824843 1696181.662824843 31395565.77509887 0 0 0 0 0 128014217.3756947 2879995.184363933 2879995.184363933 30050541.94186461 0 0 0 0 0 126969305.0842365 2543531.048752195 2543531.048752195 29883187.64506884 0 0 0 0 0 125518998.9751766 2705100.258194529 2705100.258194529 29073780.27222645 0 0 0 0 0 124187274.8920941 2848354.431545515 2848354.431545515 28280344.05959382 0 0 0 0 0 122956206.8373089 2979052.392984313 2979052.392984313 27498455.74519488 0 0 0 0 0 121567704.1235703 3666412.029235543 3666412.029235543 25957180.03918877 0 0 0 0 0 122285512.2875107 3950314.040373799 3950314.040373799 26276959.32328011 0 0 0 0 0 120546702.1788258 3750715.513483872 3750715.513483872 25222212.1332728 0 0 0 0 0 119600272.7170541 3821157.696982385 3821157.696982385 24505996.32926961 0 0 0 0 0 118720536.5420475 3880415.899688589 3880415.899688589 23810984.57926932 0 0 0 0 0 117900930.6888703 3928939.723125014 3928939.723125014 23135422.82200654 0 0 0 0 0 117136012.6899531 3967476.193568585 3967476.193568585 22480582.12606683 0 0 0 0 0 116421709.1806947 3996870.338466207 3996870.338466207 21846231.69435676 0 0 0 0 0 116108763.8172657 4647923.897076095 4647923.897076095 20889722.63114794 0 0 0 0 0 115671582.400494 4426100.270415213 4426100.270415213 20505428.49340947 0 0 0 0 0 115058382.4984905 4423556.710475741 4423556.710475741 19930845.27931016 0 0 0 0 0 114481230.5045161 4414794.421150069 4414794.421150069 19375485.97732361 0 0 0 0 0 113936620.4096561 4396391.517913272 4396391.517913272 18834854.23879554 0 0 0 0 0 113418972.2916019 4371414.010372971 4371414.010372971 18312380.40068917 0 0 0 0 0 112932756.6886626 4344523.187095866 4344523.187095866 17820713.20301074 0 0 0 0 0 112787564.4745388 4800060.050437327 4800060.050437327 17096395.31125732 0 0 0 0 0 112466489.4911669 4609830.780557736 4609830.780557736 16708641.16565361 0 0 0 0 0 112044192.9062495 4568856.718518257 4568856.718518257 16263248.53754483 0 0 0 0 0 111958457.8882109 5179690.378839456 5179690.378839456 15016155.65081565 0 0 0 0 0 111569365.8543585 5106445.14247203 5106445.14247203 14625912.66914928 0 0 0 0 0 111222490.4169886 5214388.601794405 5214388.601794405 13674360.76201168 0 0 0 0 0 111282101.2967815 4918742.913396283 4918742.913396283 14214264.97628163 0 0 0 0 0 110877827.5292084 5134677.96889372 5134677.96889372 13329627.77141151 0 0 0 0 0 110548394.4837075 5055547.548004652 5055547.548004652 13001749.4159477 0 0 0 0 0 110233788.5806956 4975150.188236427 4975150.188236427 12684756.36624731 0 0 0 0 0 109933979.9001004 4895329.852333358 4895329.852333358 12372159.56399177 0 0 0 0 0 109684146.862894 4948336.40873101 4948336.40873101 11576749.84980615 0 0 0 0 0 109694652.2536784 4731228.137558518 4731228.137558518 11996405.56382138 0 0 0 0 0 109408259.5773203 4867218.151245157 4867218.151245157 11306386.54323126 0 0 0 0 0 109137501.311434 4792020.232999871 4792020.232999871 11023925.36744093 0 0 0 0 0 108891392.6710245 4700519.005245149 4700519.005245149 10546226.95472752 0 0 0 0 0 108694056.6817567 4659708.166015231 4659708.166015231 10191814.32758728 0 0 0 0 0 111942824.1865182 4953643.910864327 4953643.910864327 15611022.62793017 0 0 0 0 0 150930277.178292 719129.7323088428 719129.7323088428 36786481.3183265 0 0 0 0 0 149170525.7342559 -318602.5362490312 -318602.5362490312 36644415.52913257 0 0 0 0 0 145256120.5363397 1065901.459234232 1065901.459234232 36033952.38599189 0 0 0 0 0 141962137.9030805 1243107.924319669 1243107.924319669 35392369.67333677 0 0 0 0 0 138968249.2090581 1311368.15602556 1311368.15602556 34855297.90121271 0 0 0 0 0 138091075.109973 558650.1665503592 558650.1665503592 34253433.86765234 0 0 0 0 0 134591890.7842899 1462982.839137826 1462982.839137826 33872554.13168406 0 0 0 0 0 132124948.4380855 1925494.67295009 1925494.67295009 32282714.66072114 0 0 0 0 0 134294426.7551658 1476005.951825045 1476005.951825045 32864798.29140811 0 0 0 0 0 130207927.1816787 2024528.527058591 2024528.527058591 31430514.87239798 0 0 0 0 0 128454928.4363559 2191149.630766749 2191149.630766749 30703899.8828245 0 0 0 0 0 127414167.3257733 1870080.015039671 1870080.015039671 30591461.46517846 0 0 0 0 0 126472294.2343878 3025724.00126373 3025724.00126373 29277213.77968312 0 0 0 0 0 125054422.9711886 3149538.453801543 3149538.453801543 28503801.28289506 0 0 0 0 0 123750420.9023298 3261221.349611719 3261221.349611719 27731149.63921696 0 0 0 0 0 122546135.0533214 3363765.828778553 3363765.828778553 26976941.14837288 0 0 0 0 0 121210381.3851226 4020878.979882581 4020878.979882581 25547443.29514959 0 0 0 0 0 121815550.9798359 3097511.358697497 3097511.358697497 26741593.81186106 0 0 0 0 0 120214314.4188958 4078438.499783814 4078438.499783814 24835428.49859482 0 0 0 0 0 119290229.4336004 4125329.439909888 4125329.439909888 24140703.56138679 0 0 0 0 0 118431382.8769889 4162892.748293212 4162892.748293212 23465364.25733597 0 0 0 0 0 117631309.973488 4191514.352371929 4191514.352371929 22810258.84647036 0 0 0 0 0 116884590.3006305 4211470.624787793 4211470.624787793 22174577.9219878 0 0 0 0 0 116187046.1278096 4223977.009244966 4223977.009244966 21558568.35932655 0 0 0 0 0 115753525.8732269 4018120.168788252 4018120.168788252 21232192.37009139 0 0 0 0 0 115470037.8701825 4636789.708812421 4636789.708812421 20309614.32053763 0 0 0 0 0 114870372.4409518 4620267.551988573 4620267.551988573 19748659.59523793 0 0 0 0 0 114307602.0948439 4597709.836927911 4597709.836927911 19211692.57862357 0 0 0 0 0 113776388.5029404 4570065.908669579 4570065.908669579 18693635.69818419 0 0 0 0 0 113269906.6290841 4534437.484129155 4534437.484129155 18190025.9130916 0 0 0 0 0 112794638.6462049 4495303.869433356 4495303.869433356 17695197.03468005 0 0 0 0 0 112479477.2021368 4316765.53179583 4316765.53179583 17346516.81200869 0 0 0 0 0 112346433.0482842 4749913.634037171 4749913.634037171 16636254.88064539 0 0 0 0 0 111931617.2759703 4700047.710796238 4700047.710796238 16194771.34487662 0 0 0 0 0 111647706.6861838 4768162.145683943 4768162.145683943 15214021.48014995 0 0 0 0 0 111273187.3255971 4711819.759128281 4711819.759128281 14819639.0124972 0 0 0 0 0 110930194.1059308 4854404.237435371 4854404.237435371 13852360.67481059 0 0 0 0 0 111201896.4239687 5033092.732272537 5033092.732272537 14244512.70347301 0 0 0 0 0 110595468.3529474 4788558.35994371 4788558.35994371 13495434.58612082 0 0 0 0 0 110270643.0303121 4719038.104965807 4719038.104965807 13153084.35647716 0 0 0 0 0 109958461.8660956 4648190.858244573 4648190.858244573 12827887.3359613 0 0 0 0 0 109666029.499023 4579884.296193385 4579884.296193385 12519781.28153355 0 0 0 0 0 109417141.5355015 4658857.915887516 4658857.915887516 11707307.72652321 0 0 0 0 0 109647547.3305738 4817545.756848044 4817545.756848044 12072089.7034987 0 0 0 0 0 109156089.6664876 4588249.45730665 4588249.45730665 11429483.58459333 0 0 0 0 0 108906020.6078265 4512236.907310418 4512236.907310418 11139306.12633221 0 0 0 0 0 108653378.9316409 4500760.626311373 4500760.626311373 10924436.27784024 0 0 0 0 0 108482437.8592691 4469348.406860383 4469348.406860383 10539224.68827317 0 0 0 0 0 111644152.7793957 4525448.518635511 4525448.518635511 15830871.2883766 0 0 0 0 0 147054218.0825688 696897.1628085804 696897.1628085804 36415656.22998746 0 0 0 0 0 145513821.5514824 -238085.6874187126 -238085.6874187126 36155568.22643546 0 0 0 0 0 142278176.5090618 -211938.623024038 -211938.623024038 35658471.43299557 0 0 0 0 0 139378853.552548 -166680.8622987507 -166680.8622987507 35057689.24681114 0 0 0 0 0 136374605.7978761 1185210.411336734 1185210.411336734 34313927.10866363 0 0 0 0 0 135575897.2996311 566428.3425192598 566428.3425192598 33586656.28383549 0 0 0 0 0 131100088.3811673 805556.8148186808 805556.8148186808 32665134.85439334 0 0 0 0 0 133213581.1970775 589203.7093418025 589203.7093418025 33313074.53314146 0 0 0 0 0 129374084.0752326 1125633.780747429 1125633.780747429 31986954.59465291 0 0 0 0 0 127905821.0549111 1268684.468099427 1268684.468099427 31100078.30049384 0 0 0 0 0 126879111.733726 2358629.256173636 2358629.256173636 29838836.39503252 0 0 0 0 0 125883849.6504994 2065470.230953325 2065470.230953325 29785735.41265985 0 0 0 0 0 124525275.1686708 2216461.731437301 2216461.731437301 28993608.17398493 0 0 0 0 0 123271655.436911 2359584.097841727 2359584.097841727 28209393.2550077 0 0 0 0 0 122092499.6266143 2495897.184734466 2495897.184734466 27439030.52892503 0 0 0 0 0 120762913.3425194 3200965.433542084 3200965.433542084 25996873.50536798 0 0 0 0 0 121436756.7506023 3451498.397572006 3451498.397572006 26235140.02065052 0 0 0 0 0 119790500.3691737 3289481.220346769 3289481.220346769 25267581.52072585 0 0 0 0 0 118888044.2596603 3366894.331731999 3366894.331731999 24557864.79616528 0 0 0 0 0 118047627.8403564 3434221.458034185 3434221.458034185 23867423.00331054 0 0 0 0 0 117263116.4591919 3491392.185982415 3491392.185982415 23196794.76824415 0 0 0 0 0 116531832.9412812 3538878.028319146 3538878.028319146 22546333.03505253 0 0 0 0 0 115848295.0843719 3577884.309562474 3577884.309562474 21915850.91337456 0 0 0 0 0 115534383.7150746 4229791.21026217 4229791.21026217 20962186.04842402 0 0 0 0 0 115127446.9724517 4031988.675500599 4031988.675500599 20638114.40115067 0 0 0 0 0 114540209.9378167 4039414.479866218 4039414.479866218 20063710.39145504 0 0 0 0 0 113984281.7412375 4036832.531500492 4036832.531500492 19501248.24293495 0 0 0 0 0 113456708.5388656 4024970.972591468 4024970.972591468 18962417.40143355 0 0 0 0 0 112961095.3018033 4011762.84937983 4011762.84937983 18446875.44869284 0 0 0 0 0 112499563.6827721 3996620.906075842 3996620.906075842 17954069.11325115 0 0 0 0 0 112346086.5994706 4457594.80135563 4457594.80135563 17217897.83287918 0 0 0 0 0 112051115.2395302 4287915.526135698 4287915.526135698 16881051.82024631 0 0 0 0 0 111645882.2492321 4256433.33312247 4256433.33312247 16431157.73778346 0 0 0 0 0 111554824.6585645 4891130.347671133 4891130.347671133 15206848.5154962 0 0 0 0 0 111182454.4821052 4826981.414102798 4826981.414102798 14810760.69847236 0 0 0 0 0 110855703.5180641 4960937.305507 4960937.305507 13875953.98095082 0 0 0 0 0 110915493.4391808 4655269.193984164 4655269.193984164 14436556.00156334 0 0 0 0 0 110524062.2328755 4890221.066035138 4890221.066035138 13539850.47615405 0 0 0 0 0 110204404.5929871 4815146.361304071 4815146.361304071 13207843.06866434 0 0 0 0 0 109900078.6585176 4739030.216515729 4739030.216515729 12881212.73314067 0 0 0 0 0 109612260.3025222 4666108.982630431 4666108.982630431 12563568.28976332 0 0 0 0 0 109373131.5257541 4740512.041440777 4740512.041440777 11782350.5895281 0 0 0 0 0 109388041.5057793 4513513.414517969 4513513.414517969 12215431.76387196 0 0 0 0 0 109116556.4496932 4663860.298849479 4663860.298849479 11505577.8262167 0 0 0 0 0 108862280.4831679 4578279.962825672 4578279.962825672 11335170.61512114 0 0 0 0 0 108709109.3256495 4491786.994313641 4491786.994313641 10923023.37132778 0 0 0 0 0 108558160.3243345 4509159.142159816 4509159.142159816 10603191.49144113 0 0 0 0 0 111538769.4540755 4648780.537092784 4648780.537092784 15771009.06151948 0 0 0 0 0 143602030.6925225 657473.9128774423 657473.9128774423 35885981.74151944 0 0 0 0 0 140662769.4567599 658435.7042903607 658435.7042903607 35310916.90354303 0 0 0 0 0 137965981.982881 672576.0083167104 672576.0083167104 34693561.37543619 0 0 0 0 0 136748465.2809461 -72859.02634098451 -72859.02634098451 34295388.74027349 0 0 0 0 0 134418129.4065834 1131383.370127679 1131383.370127679 33564393.52971853 0 0 0 0 0 130687532.8500335 1198937.001434104 1198937.001434104 31752093.9158753 0 0 0 0 0 132486434.2793422 1217136.567582339 1217136.567582339 32725077.6917594 0 0 0 0 0 128969274.7800593 1450360.524755021 1450360.524755021 31043475.62808716 0 0 0 0 0 127227492.6190786 1755100.163877656 1755100.163877656 30645681.53416283 0 0 0 0 0 126399283.3668206 1352695.877425013 1352695.877425013 30406147.83406538 0 0 0 0 0 125410636.8208755 2495369.196956659 2495369.196956659 29111112.17976422 0 0 0 0 0 124071615.2657069 2621635.197326268 2621635.197326268 28341795.90927674 0 0 0 0 0 122833464.0279546 2743049.101892357 2743049.101892357 27589380.36120843 0 0 0 0 0 121685138.7107776 2853344.152288967 2853344.152288967 26846352.46702408 0 0 0 0 0 120410242.5233221 3527187.046886591 3527187.046886591 25514763.74276261 0 0 0 0 0 120995535.4320231 2620320.57920508 2620320.57920508 26693457.26846793 0 0 0 0 0 119460299.8734591 3592860.522990153 3592860.522990153 24811342.08645617 0 0 0 0 0 118578965.891158 3649487.082041235 3649487.082041235 24124072.68252908 0 0 0 0 0 117758214.6091511 3697588.162392634 3697588.162392634 23457533.84563142 0 0 0 0 0 116992735.9609826 3736005.360957015 3736005.360957015 22809088.65873216 0 0 0 0 0 116278661.3553539 3766851.957826999 3766851.957826999 22180159.35220472 0 0 0 0 0 115611301.2732062 3790546.052754965 3790546.052754965 21570677.56228174 0 0 0 0 0 115208381.0239786 3608973.690352934 3608973.690352934 21305162.89373716 0 0 0 0 0 114922621.3819737 4229536.332249045 4229536.332249045 20384679.53389355 0 0 0 0 0 114349286.4967139 4223190.755479622 4223190.755479622 19826541.04174647 0 0 0 0 0 113805810.0680127 4210822.486238657 4210822.486238657 19303020.46826834 0 0 0 0 0 113292193.4104835 4189159.359054734 4189159.359054734 18774343.45894382 0 0 0 0 0 112806810.9965893 4163611.600336717 4163611.600336717 18267146.09953264 0 0 0 0 0 112353316.7904963 4138311.478297112 4138311.478297112 17774236.4499578 0 0 0 0 0 112065505.9698393 3980768.315625959 3980768.315625959 17476629.26592889 0 0 0 0 0 111925938.6821018 4419834.408511872 4419834.408511872 16759889.47960162 0 0 0 0 0 111528608.2877169 4380167.795776278 4380167.795776278 16318336.17493403 0 0 0 0 0 111264356.6249772 4479436.47875235 4479436.47875235 15413312.52559882 0 0 0 0 0 110904785.8401742 4432376.618074965 4432376.618074965 15014366.54312738 0 0 0 0 0 110577271.0739077 4599800.367767307 4599800.367767307 14068120.0773768 0 0 0 0 0 110830294.4639668 4763272.418429888 4763272.418429888 14426044.64564504 0 0 0 0 0 110253949.9947429 4538449.032098325 4538449.032098325 13699079.17516226 0 0 0 0 0 109940492.8327298 4474179.992832202 4474179.992832202 13355895.40560608 0 0 0 0 0 109643600.9369103 4410831.889228638 4410831.889228638 13027107.72857817 0 0 0 0 0 109359843.2099864 4349276.953165029 4349276.953165029 12713502.0662211 0 0 0 0 0 109120613.6973985 4446773.877568151 4446773.877568151 11918983.86746969 0 0 0 0 0 109336981.7299427 4594900.544403192 4594900.544403192 12257978.86000898 0 0 0 0 0 108865089.1747795 4380272.330026871 4380272.330026871 11638617.52604586 0 0 0 0 0 108637623.1083013 4324762.909401909 4324762.909401909 11363609.23195846 0 0 0 0 0 108512477.3680701 4335430.971671088 4335430.971671088 11291270.04596479 0 0 0 0 0 108379311.1700188 4319230.384407296 4319230.384407296 10980973.02129031 0 0 0 0 0 111261641.4950889 4221710.69651626 4221710.69651626 15994579.35670665 0 0 0 0 0 135451503.7079607 639167.7966861827 639167.7966861827 34013981.03383447 0 0 0 0 0 134362117.9428294 -14785.76562770219 -14785.76562770219 33602307.99338382 0 0 0 0 0 129447348.5785179 649200.2889452579 649200.2889452579 32314292.24714577 0 0 0 0 0 132179320.8976856 1874.770465028349 1874.770465028349 32833143.99469559 0 0 0 0 0 127945216.7944693 969416.7131574186 969416.7131574186 31542721.86847269 0 0 0 0 0 127621308.4739677 821255.3704685416 821255.3704685416 30582918.03277807 0 0 0 0 0 125821225.9929646 1797653.994340409 1797653.994340409 29606923.4539749 0 0 0 0 0 124924267.7174526 1537384.483160582 1537384.483160582 29642613.2500858 0 0 0 0 0 123619896.9087964 1714950.231174492 1714950.231174492 28839742.60527987 0 0 0 0 0 122389872.418708 1871980.97476109 1871980.97476109 28056262.85410171 0 0 0 0 0 121258472.5134277 2007577.156479214 2007577.156479214 27293063.5968818 0 0 0 0 0 119997774.3871191 2726238.909363656 2726238.909363656 25958506.89895954 0 0 0 0 0 120624181.7732749 2943293.362806206 2943293.362806206 26118304.35830575 0 0 0 0 0 119072918.0087226 2821555.515088124 2821555.515088124 25238809.91533868 0 0 0 0 0 118210806.2913709 2907613.061617482 2907613.061617482 24539043.42277201 0 0 0 0 0 117405374.0716615 2983646.034246794 2983646.034246794 23856786.60274475 0 0 0 0 0 116656670.4875871 3049641.363039606 3049641.363039606 23194216.103349 0 0 0 0 0 115957445.1601839 3107034.485060255 3107034.485060255 22550799.36598049 0 0 0 0 0 115303026.5848982 3156220.400643203 3156220.400643203 21926815.10807183 0 0 0 0 0 114986484.5855845 3807561.183240414 3807561.183240414 20980135.56494641 0 0 0 0 0 114608654.7151094 3632942.832961802 3632942.832961802 20714290.49868551 0 0 0 0 0 114044504.2423103 3649952.721357422 3649952.721357422 20142323.56446151 0 0 0 0 0 113507164.0561444 3651404.112090275 3651404.112090275 19572198.31588896 0 0 0 0 0 112998504.6114784 3649888.795831841 3649888.795831841 19048563.6534518 0 0 0 0 0 112530271.0390393 3650216.205601639 3650216.205601639 18536931.33091633 0 0 0 0 0 112088708.9101935 3648385.776274434 3648385.776274434 18043673.59911076 0 0 0 0 0 111927088.650509 4113494.321154873 4113494.321154873 17301145.82409648 0 0 0 0 0 111654738.0850817 3961802.843621471 3961802.843621471 17009397.71990471 0 0 0 0 0 111265388.8281637 3939454.094555526 3939454.094555526 16557032.06772497 0 0 0 0 0 111166338.5445485 4595348.622431033 4595348.622431033 15360138.42318809 0 0 0 0 0 110811134.9484305 4541251.40819108 4541251.40819108 14961561.57653751 0 0 0 0 0 110500991.41674 4700825.475082773 4700825.475082773 14061236.24973719 0 0 0 0 0 110563284.9541326 4384994.189605825 4384994.189605825 14625996.16122928 0 0 0 0 0 110182232.7830859 4635591.864472359 4635591.864472359 13717311.61682598 0 0 0 0 0 109873678.838216 4565437.38138597 4565437.38138597 13376356.18105869 0 0 0 0 0 109579853.3131135 4497515.843202782 4497515.843202782 13047383.24719601 0 0 0 0 0 109301837.2885173 4431547.337173929 4431547.337173929 12726655.6406127 0 0 0 0 0 109071277.9357425 4523725.035700542 4523725.035700542 11958573.05062339 0 0 0 0 0 109089630.3736981 4288817.407170118 4288817.407170118 12405820.12467822 0 0 0 0 0 108823054.4842801 4455269.879667268 4455269.879667268 11653352.16048178 0 0 0 0 0 108635664.9892465 4391667.136921987 4391667.136921987 11383439.87874845 0 0 0 0 0 108423490.289882 4327117.792843044 4327117.792843044 10991655.68241855 0 0 0 0 0 111151692.7409094 4338454.639710424 4338454.639710424 15892824.96957787 0 0 0 0 0 133339967.7706402 636561.1072532075 636561.1072532075 33217608.19382469 0 0 0 0 0 129103089.1269418 765049.0283382281 765049.0283382281 31191715.43860084 0 0 0 0 0 130332857.9961136 84886.76753751349 84886.76753751349 31897260.1729372 0 0 0 0 0 131076436.7046819 609513.1892879248 609513.1892879248 32576837.02891004 0 0 0 0 0 126580401.9956728 988213.7391418585 988213.7391418585 30883232.30994092 0 0 0 0 0 125256604.5061031 970729.5970129488 970729.5970129488 30247336.3577962 0 0 0 0 0 124412599.9866964 1943405.004251835 1943405.004251835 28838040.57086643 0 0 0 0 0 123147695.1367414 2093728.884965872 2093728.884965872 28120913.29005639 0 0 0 0 0 121959258.6243212 2228137.342277664 2228137.342277664 27383819.20772441 0 0 0 0 0 120863113.0933475 2334186.583185649 2334186.583185649 26623979.80679478 0 0 0 0 0 119648429.2195612 3027508.404406384 3027508.404406384 25410227.1835975 0 0 0 0 0 120217283.1339921 2138283.664271164 2138283.664271164 26567109.21455528 0 0 0 0 0 118743521.0307922 3103773.934963087 3103773.934963087 24720643.61560281 0 0 0 0 0 117901785.6298456 3171661.586394296 3171661.586394296 24045722.79334365 0 0 0 0 0 117116257.670863 3228466.398210559 3228466.398210559 23387425.77874693 0 0 0 0 0 116385109.1608386 3278229.229759797 3278229.229759797 22749049.54459626 0 0 0 0 0 115702404.7396274 3320684.541528037 3320684.541528037 22129747.84768197 0 0 0 0 0 115063675.0654854 3356000.916765715 3356000.916765715 21529412.0904323 0 0 0 0 0 114689945.4611337 3197742.307713024 3197742.307713024 21322561.13429897 0 0 0 0 0 114400770.9539209 3818507.022797028 3818507.022797028 20408109.24298256 0 0 0 0 0 113851740.5748526 3823178.075741871 3823178.075741871 19862351.75549498 0 0 0 0 0 113324746.0157889 3818285.950960894 3818285.950960894 19345876.20121236 0 0 0 0 0 112830407.6068356 3802585.435053316 3802585.435053316 18800820.50444759 0 0 0 0 0 112370082.4330749 3793531.719987786 3793531.719987786 18300340.25661986 0 0 0 0 0 111937168.7199695 3782396.203279973 3782396.203279973 17815004.90767666 0 0 0 0 0 111670946.0168486 3642544.953206509 3642544.953206509 17562451.92334364 0 0 0 0 0 111524735.7416876 4086305.780308503 4086305.780308503 16844127.20245891 0 0 0 0 0 111143281.0654911 4056887.024429886 4056887.024429886 16404905.43744585 0 0 0 0 0 110897163.6152667 4185025.709071275 4185025.709071275 15575035.8706731 0 0 0 0 0 110551972.1754699 4146900.046560028 4146900.046560028 15171184.80408619 0 0 0 0 0 110236896.5456762 4334367.237922773 4334367.237922773 14247137.38915568 0 0 0 0 0 110476134.5782495 4486737.739484409 4486737.739484409 14577842.96121306 0 0 0 0 0 109924974.6017653 4279760.314059146 4279760.314059146 13878714.47306496 0 0 0 0 0 109624814.8494868 4224921.32527939 4224921.32527939 13533728.79288185 0 0 0 0 0 109340368.7021884 4168710.747596335 4168710.747596335 13198889.37933773 0 0 0 0 0 109065266.7403915 4114148.067731645 4114148.067731645 12877697.12458799 0 0 0 0 0 108825032.4725305 4224450.020088655 4224450.020088655 12100790.7234602 0 0 0 0 0 109034459.4749671 4366672.66546244 4366672.66546244 12416187.18658433 0 0 0 0 0 108590031.938724 4169885.275185429 4169885.275185429 11820346.93209768 0 0 0 0 0 108381760.2542173 4139216.836835983 4139216.836835983 11563728.5191241 0 0 0 0 0 108270712.0731666 4152527.818085957 4152527.818085957 11384910.70830983 0 0 0 0 0 110895901.1592986 3913974.865511359 3913974.865511359 16120043.94162057 0 0 0 0 0 128347710.3520338 68308.6352221423 68308.6352221423 31586452.4125322 0 0 0 0 0 129299001.4260876 439457.3950360811 439457.3950360811 31844442.19326768 0 0 0 0 0 126802181.7931927 49678.02956943617 49678.02956943617 30687793.91861862 0 0 0 0 0 126255603.9727202 895053.1499911398 895053.1499911398 29840342.89346055 0 0 0 0 0 124808837.5137545 1284106.809595607 1284106.809595607 29266681.41470326 0 0 0 0 0 124077866.2486179 1080962.266531594 1080962.266531594 29379662.15281422 0 0 0 0 0 122793420.3731947 1225192.08802837 1225192.08802837 28578243.00135114 0 0 0 0 0 121598565.7791119 1351700.129716731 1351700.129716731 27802419.14876157 0 0 0 0 0 120503643.7701231 1507525.657965899 1507525.657965899 27098952.42800153 0 0 0 0 0 119275984.2085106 2248793.38438036 2248793.38438036 25848960.68871615 0 0 0 0 0 119853996.1678486 2433592.765698847 2433592.765698847 25936538.20837978 0 0 0 0 0 118392468.1208623 2354470.550219567 2354470.550219567 25141927.84619944 0 0 0 0 0 117562538.2767558 2447395.008943244 2447395.008943244 24453947.7212397 0 0 0 0 0 116797622.9264129 2530884.478791426 2530884.478791426 23784067.36735329 0 0 0 0 0 116081863.5569619 2607499.620591199 2607499.620591199 23131415.15634503 0 0 0 0 0 115412995.8341769 2675384.660573475 2675384.660573475 22497737.87074762 0 0 0 0 0 114785945.7663969 2735286.874524534 2735286.874524534 21883094.34974567 0 0 0 0 0 114465448.6926065 3384470.955424769 3384470.955424769 20947115.7254568 0 0 0 0 0 114115448.2001257 3232177.093458541 3232177.093458541 20737541.93913538 0 0 0 0 0 113573825.5081343 3256094.467129576 3256094.467129576 20164729.33073935 0 0 0 0 0 113056855.2149718 3265046.295011326 3265046.295011326 19597752.63120833 0 0 0 0 0 112569542.3517505 3279236.099045529 3279236.099045529 19094655.31160169 0 0 0 0 0 112121002.5520969 3291833.532926393 3291833.532926393 18581633.11201305 0 0 0 0 0 111696531.3553992 3299595.534205084 3299595.534205084 18086485.20158776 0 0 0 0 0 111528415.2986773 3768241.428061683 3768241.428061683 17345823.8656847 0 0 0 0 0 111276287.3584414 3633199.076323267 3633199.076323267 17096600.74529203 0 0 0 0 0 110902157.2176714 3619886.6041191 3619886.6041191 16643835.39006149 0 0 0 0 0 110794101.124271 4294542.02944957 4294542.02944957 15479977.83541204 0 0 0 0 0 110455232.2510004 4249708.889719752 4249708.889719752 15081354.24718308 0 0 0 0 0 110157519.0584409 4431038.681459798 4431038.681459798 14212075.79239449 0 0 0 0 0 110223051.7701049 4106416.565765196 4106416.565765196 14778486.58396095 0 0 0 0 0 109848210.9304892 4371817.883767784 4371817.883767784 13860543.10056379 0 0 0 0 0 109553477.0193713 4310997.4651433 4310997.4651433 13517852.48189639 0 0 0 0 0 109271549.4251326 4251631.537514097 4251631.537514097 13185123.63190061 0 0 0 0 0 109003121.854621 4192538.434807963 4192538.434807963 12864459.65588501 0 0 0 0 0 108772936.9342325 4297609.405618628 4297609.405618628 12113940.7373317 0 0 0 0 0 108798755.1255936 4056266.169127745 4056266.169127745 12559921.32071186 0 0 0 0 0 108541293.5282178 4244734.984165388 4244734.984165388 11792754.934137 0 0 0 0 0 108329111.4213673 4167873.22984382 4167873.22984382 11402927.08535986 0 0 0 0 0 110781574.7039671 4024400.674457054 4024400.674457054 15978700.70660532 0 0 0 0 0 127706570.7052609 510873.580269641 510873.580269641 31064452.25268317 0 0 0 0 0 126240924.7131366 518695.0019025454 518695.0019025454 30276832.68347381 0 0 0 0 0 125385078.8309903 289583.0978641622 289583.0978641622 30366291.32243972 0 0 0 0 0 124387586.7917874 539676.591628114 539676.591628114 29892184.56345198 0 0 0 0 0 123526875.4416356 1471623.578975851 1471623.578975851 28614597.35886982 0 0 0 0 0 122279544.186943 1595928.347418977 1595928.347418977 27899215.72961048 0 0 0 0 0 121132893.4226594 1705651.920848918 1705651.920848918 27091214.53591355 0 0 0 0 0 120089758.2517104 1815263.864470969 1815263.864470969 26330094.21734075 0 0 0 0 0 118928993.3259704 2528824.456028218 2528824.456028218 25239643.71400525 0 0 0 0 0 119508214.127688 1654584.558275639 1654584.558275639 26382341.13762804 0 0 0 0 0 118064150.4146139 2619942.036077606 2619942.036077606 24576841.35741246 0 0 0 0 0 117256234.9393964 2691069.375178323 2691069.375178323 23906049.80922925 0 0 0 0 0 116507635.9177918 2759982.169999422 2759982.169999422 23259198.78833035 0 0 0 0 0 115809127.6150413 2821830.14845767 2821830.14845767 22634278.60057541 0 0 0 0 0 115156085.567776 2876417.893883298 2876417.893883298 22027145.43634631 0 0 0 0 0 114544404.6043928 2923748.901809823 2923748.901809823 21439491.51115528 0 0 0 0 0 114197412.1121173 2787211.409653049 2787211.409653049 21287954.37368492 0 0 0 0 0 113905534.8624464 3406174.046902693 3406174.046902693 20384450.60318752 0 0 0 0 0 113377722.8636893 3420655.690174465 3420655.690174465 19850647.24232792 0 0 0 0 0 112867097.6279655 3423409.298489507 3423409.298489507 19329961.84580897 0 0 0 0 0 112394040.3105927 3422570.479970827 3422570.479970827 18792137.68006876 0 0 0 0 0 111956229.0141878 3427084.250684233 3427084.250684233 18298224.21673143 0 0 0 0 0 111541230.9416774 3426428.042363366 3426428.042363366 17817654.34246941 0 0 0 0 0 111295599.9177842 3303347.37300415 3303347.37300415 17607678.57360968 0 0 0 0 0 111142295.0455809 3751300.879308904 3751300.879308904 16892019.21454258 0 0 0 0 0 110776078.5231501 3731435.92820211 3731435.92820211 16454372.943671 0 0 0 0 0 110546065.8774128 3886335.02198973 3886335.02198973 15699750.24577565 0 0 0 0 0 110213915.7021523 3856201.753327128 3856201.753327128 15292780.36120574 0 0 0 0 0 109909284.4895711 4063235.590818226 4063235.590818226 14397177.26383785 0 0 0 0 0 110132802.027876 4203303.310435456 4203303.310435456 14697103.79717661 0 0 0 0 0 109610556.6645771 4019184.099329248 4019184.099329248 14031768.83542845 0 0 0 0 0 109323025.5519348 3972132.162582656 3972132.162582656 13678919.5151261 0 0 0 0 0 109050346.1890192 3923069.349617797 3923069.349617797 13340397.01670698 0 0 0 0 0 108786427.3809315 3876183.392375462 3876183.392375462 13012950.45661087 0 0 0 0 0 108536384.314836 3993535.061221023 3993535.061221023 12248709.05437462 0 0 0 0 0 108738842.3577907 4129912.448991804 4129912.448991804 12558420.16723279 0 0 0 0 0 108311188.8463629 3942623.420629853 3942623.420629853 11989568.58779663 0 0 0 0 0 108160708.5771573 3970593.219681357 3970593.219681357 11760453.27209474 0 0 0 0 0 110547313.0475339 3603782.163606371 3603782.163606371 16208404.0061716 0 0 0 0 0 125081335.6983914 383443.6907207927 383443.6907207927 29382065.75682437 0 0 0 0 0 123954893.1205937 833527.3540783967 833527.3540783967 28999763.99631877 0 0 0 0 0 123222225.7022806 650690.5495233476 650690.5495233476 29011618.52417033 0 0 0 0 0 122000782.396491 722953.1463129142 722953.1463129142 28236389.93885263 0 0 0 0 0 120889088.6648835 798467.6967837051 798467.6967837051 27541029.16615582 0 0 0 0 0 119773210.0041983 976037.6004205411 976037.6004205411 26900744.60932901 0 0 0 0 0 118605478.2655388 1780329.369012298 1780329.369012298 25680879.01105656 0 0 0 0 0 119137124.6097528 1929513.484836872 1929513.484836872 25709290.30043709 0 0 0 0 0 117731490.8102864 1894082.280703968 1894082.280703968 24974296.12477705 0 0 0 0 0 116952818.0622495 1987912.685033491 1987912.685033491 24308897.59279533 0 0 0 0 0 116223454.3471855 2081106.140579138 2081106.140579138 23651653.50173425 0 0 0 0 0 115538159.6050483 2168685.578125789 2168685.578125789 23012111.43052147 0 0 0 0 0 114898320.5728052 2246821.693616067 2246821.693616067 22391698.11579734 0 0 0 0 0 114293249.3927068 2316569.847824745 2316569.847824745 21790219.77732107 0 0 0 0 0 113971191.2050806 2962249.819863354 2962249.819863354 20866941.52026076 0 0 0 0 0 113647986.1446127 2831129.345638904 2831129.345638904 20710569.00619962 0 0 0 0 0 113127218.3248871 2865462.272961418 2865462.272961418 20143738.28452125 0 0 0 0 0 112638588.6851865 2888481.035162427 2888481.035162427 19590512.08968199 0 0 0 0 0 112166694.9365975 2913003.692266814 2913003.692266814 19086530.69793582 0 0 0 0 0 111731975.7277918 2933765.614952319 2933765.614952319 18577791.86371915 0 0 0 0 0 111324614.6323791 2951535.713765452 2951535.713765452 18089633.92512885 0 0 0 0 0 111149120.5886525 3422757.605258582 3422757.605258582 17353484.27627226 0 0 0 0 0 110915992.6596185 3303379.236822162 3303379.236822162 17144250.86612283 0 0 0 0 0 110556290.6810112 3299826.507066016 3299826.507066016 16695175.75476262 0 0 0 0 0 110438879.7043225 3989971.524636114 3989971.524636114 15566578.17837684 0 0 0 0 0 110113004.5866825 3953922.640163497 3953922.640163497 15167695.05019378 0 0 0 0 0 109824596.3902901 4155537.665352665 4155537.665352665 14325998.23739703 0 0 0 0 0 109897403.9038994 3824074.292632938 3824074.292632938 14898936.19254667 0 0 0 0 0 109530299.2595014 4105964.979933271 4105964.979933271 13971047.27861913 0 0 0 0 0 109247965.9301283 4054302.670189578 4054302.670189578 13635050.11127372 0 0 0 0 0 108976940.3508436 4001788.275544535 4001788.275544535 13293737.77990978 0 0 0 0 0 108715371.5503055 3951608.010825106 3951608.010825106 12962734.90786446 0 0 0 0 0 108482512.4357404 4066273.564028418 4066273.564028418 12275730.74950136 0 0 0 0 0 108526001.9036708 3828321.271936006 3828321.271936006 12694722.91127677 0 0 0 0 0 108237756.2800184 3990393.697253112 3990393.697253112 11785484.14559217 0 0 0 0 0 110428824.7757985 3708632.072015394 3708632.072015394 16030519.68333854 0 0 0 0 0 124428145.0838926 448902.3394688657 448902.3394688657 29709840.95900148 0 0 0 0 0 123836366.215065 83776.49862523712 83776.49862523712 29226360.17633783 0 0 0 0 0 122717165.8790292 1003693.748197731 1003693.748197731 28383577.17821584 0 0 0 0 0 121480512.3413461 1090675.041005266 1090675.041005266 27694131.1228054 0 0 0 0 0 120367116.8177211 1177353.902177706 1177353.902177706 26769473.20997585 0 0 0 0 0 119390924.3030708 1211403.330913957 1211403.330913957 25941102.61369457 0 0 0 0 0 118248015.6658736 2050910.992328487 2050910.992328487 25030890.75623692 0 0 0 0 0 118831226.9800202 1191853.737606652 1191853.737606652 26181180.17944513 0 0 0 0 0 117413834.836584 2132824.364576013 2132824.364576013 24374370.70814377 0 0 0 0 0 116646601.565229 2215824.710268687 2215824.710268687 23713516.41695919 0 0 0 0 0 115932661.3200169 2296380.414597681 2296380.414597681 23077766.67718133 0 0 0 0 0 115264363.7582879 2370892.037711828 2370892.037711828 22470592.44289167 0 0 0 0 0 114639587.9046898 2438545.981757725 2438545.981757725 21881665.16211012 0 0 0 0 0 114051557.4651679 2491657.501270203 2491657.501270203 21300149.52642502 0 0 0 0 0 113734748.2426236 2378251.711793739 2378251.711793739 21205932.49150015 0 0 0 0 0 113435463.4616922 2995745.196034672 2995745.196034672 20313963.33001105 0 0 0 0 0 112928030.5344754 3021120.410402791 3021120.410402791 19786879.31427829 0 0 0 0 0 112441727.9936632 3039226.371301298 3039226.371301298 19276305.2226145 0 0 0 0 0 111985333.829615 3050521.749457682 3050521.749457682 18754765.78682286 0 0 0 0 0 111563971.5764225 3062086.597478713 3062086.597478713 18257816.33503804 0 0 0 0 0 111165479.3112964 3072322.23206629 3072322.23206629 17784452.194742 0 0 0 0 0 110939091.7140823 2965190.08217347 2965190.08217347 17615314.30694599 0 0 0 0 0 110777873.7994501 3415996.686395961 3415996.686395961 16904481.9522086 0 0 0 0 0 110426262.922224 3405907.153703624 3405907.153703624 16470308.70591428 0 0 0 0 0 110210629.1339702 3584810.403083925 3584810.403083925 15787911.65135321 0 0 0 0 0 109890907.1859571 3563825.282714984 3563825.282714984 15382279.11300319 0 0 0 0 0 109595887.9080741 3790914.999289334 3790914.999289334 14519443.7071711 0 0 0 0 0 109802036.9159347 3917047.407306633 3917047.407306633 14783885.67610498 0 0 0 0 0 109309289.7467161 3755674.653201043 3755674.653201043 14151331.14694768 0 0 0 0 0 109035537.7576442 3716017.168739967 3716017.168739967 13792315.79212309 0 0 0 0 0 108786373.5366613 3677559.933402018 3677559.933402018 13455894.24663721 0 0 0 0 0 108526217.3962863 3652510.127032038 3652510.127032038 13131334.16306958 0 0 0 0 0 108291530.4142928 3754142.502911964 3754142.502911964 12338372.03839483 0 0 0 0 0 108474891.4494453 3885337.631239254 3885337.631239254 12691746.84336137 0 0 0 0 0 108070392.946802 3783074.475369643 3783074.475369643 12173822.00523436 0 0 0 0 0 110215172.8135821 3292876.483692552 3292876.483692552 16261781.14499847 0 0 0 0 0 123197121.258779 431512.7066732308 431512.7066732308 28840168.51725744 0 0 0 0 0 122568227.5820218 106771.2206763694 106771.2206763694 28570362.02766692 0 0 0 0 0 121381347.3237442 130883.0693123812 130883.0693123812 27835622.12320697 0 0 0 0 0 120281562.281931 162108.0927975269 162108.0927975269 27188580.34284323 0 0 0 0 0 118907465.1385599 791521.0995452424 791521.0995452424 26613917.91957681 0 0 0 0 0 117940739.1110284 1325364.493528867 1325364.493528867 25405390.32162234 0 0 0 0 0 118450530.2572891 1457384.512308618 1457384.512308618 25411196.08067836 0 0 0 0 0 117111944.9260035 1447595.372469957 1447595.372469957 24742739.47666463 0 0 0 0 0 116389142.2337107 1538002.431203158 1538002.431203158 24097651.54378862 0 0 0 0 0 115680239.7841389 1646192.70791267 1646192.70791267 23458334.09739758 0 0 0 0 0 115027436.7346249 1740117.17679084 1740117.17679084 22833656.74504738 0 0 0 0 0 114399069.9678966 1822752.93680988 1822752.93680988 22236717.70057442 0 0 0 0 0 113839164.3913011 1901398.675712982 1901398.675712982 21658162.50478738 0 0 0 0 0 113504485.8056981 2546374.651261192 2546374.651261192 20744358.83624048 0 0 0 0 0 113202019.5962717 2434074.69634043 2434074.69634043 20638024.91642951 0 0 0 0 0 112703878.2637044 2481177.868774015 2481177.868774015 20088012.74748655 0 0 0 0 0 112231917.4971238 2515546.737519028 2515546.737519028 19544392.2962659 0 0 0 0 0 111784310.0024994 2546722.613074346 2546722.613074346 19029955.02557649 0 0 0 0 0 111364287.7454346 2578769.324254626 2578769.324254626 18536640.25167008 0 0 0 0 0 110972556.9151237 2606462.862765104 2606462.862765104 18055751.24813536 0 0 0 0 0 110788781.4399803 3079211.22845214 3079211.22845214 17326913.45161478 0 0 0 0 0 110573791.1358014 2974844.30809469 2974844.30809469 17156159.90144269 0 0 0 0 0 110227805.3691979 2980663.268848517 2980663.268848517 16711771.27859911 0 0 0 0 0 110099042.9024065 3683706.384033561 3683706.384033561 15620544.24965923 0 0 0 0 0 109785607.9827641 3657194.74910604 3657194.74910604 15223525.74049847 0 0 0 0 0 109506374.8476905 3878314.104999677 3878314.104999677 14412100.16945273 0 0 0 0 0 109586822.552601 3540708.880765709 3540708.880765709 14988307.19277739 0 0 0 0 0 109226279.1250142 3837323.07962838 3837323.07962838 14055301.62649067 0 0 0 0 0 108957209.5443455 3791294.422574441 3791294.422574441 13706990.16642764 0 0 0 0 0 108695938.1732994 3757000.785048943 3757000.785048943 13337435.75535403 0 0 0 0 0 108451890.2991879 3710240.898565852 3710240.898565852 13001170.28909504 0 0 0 0 0 108231986.6913014 3800486.178681346 3800486.178681346 12574337.77576554 0 0 0 0 0 108273174.0558463 3596401.707789925 3596401.707789925 12767781.32994255 0 0 0 0 0 108055279.7225955 3712911.355733525 3712911.355733525 12074537.97871426 0 0 0 0 0 110092530.2348186 3392946.851551743 3392946.851551743 16049973.73193457 0 0 0 0 0 121974781.0306857 469122.0315650924 469122.0315650924 28128738.60347598 0 0 0 0 0 120812936.4253427 492029.1733016665 492029.1733016665 27426702.7772604 0 0 0 0 0 119703056.7321943 520261.5149257034 520261.5149257034 26808571.49981584 0 0 0 0 0 119278966.7270065 198577.4686864233 198577.4686864233 26165367.31656134 0 0 0 0 0 118612226.8868907 887731.5322323674 887731.5322323674 25689194.6478468 0 0 0 0 0 117602549.6371322 1567100.600948236 1567100.600948236 24713673.87743555 0 0 0 0 0 118095850.230161 747174.034665175 747174.034665175 25662596.28612623 0 0 0 0 0 116809332.2215922 1660561.285988268 1660561.285988268 24140261.92349115 0 0 0 0 0 116078412.749554 1755733.612975481 1755733.612975481 23469026.61284414 0 0 0 0 0 115390500.8500892 1846859.543404376 1846859.543404376 22855100.50843501 0 0 0 0 0 114752927.5088283 1939449.535775478 1939449.535775478 22283090.91150312 0 0 0 0 0 114146580.1958038 1993399.302526458 1993399.302526458 21681678.31705564 0 0 0 0 0 113590254.4367783 2073190.287040537 2073190.287040537 21125661.17192028 0 0 0 0 0 113292029.3789068 1977867.708579783 1977867.708579783 21079675.3435095 0 0 0 0 0 112986799.9392411 2590876.608855924 2590876.608855924 20204509.14308809 0 0 0 0 0 112504957.1993912 2627483.58605819 2627483.58605819 19686790.84849627 0 0 0 0 0 112040389.540474 2655292.342773759 2655292.342773759 19173251.1443276 0 0 0 0 0 111600926.7203685 2680338.47153691 2680338.47153691 18672080.62966533 0 0 0 0 0 111192880.6354413 2701077.37124583 2701077.37124583 18182969.60200978 0 0 0 0 0 110809760.3584698 2722211.360954181 2722211.360954181 17718335.39728157 0 0 0 0 0 110600957.5374265 2629930.37064528 2629930.37064528 17587702.13862052 0 0 0 0 0 110431960.9831247 3082308.942084486 3082308.942084486 16883723.17537631 0 0 0 0 0 110093895.9415871 3082072.846849724 3082072.846849724 16454708.94541492 0 0 0 0 0 109891351.5797355 3283169.292146545 3283169.292146545 15843280.62443753 0 0 0 0 0 109583731.019652 3271176.578213497 3271176.578213497 15439035.35951495 0 0 0 0 0 109296166.2269969 3515840.041388708 3515840.041388708 14608351.71814747 0 0 0 0 0 109487265.2345429 3629317.992917485 3629317.992917485 14840135.56173639 0 0 0 0 0 109018384.7080501 3487521.648349683 3487521.648349683 14240564.74504399 0 0 0 0 0 108747354.72511 3456385.366638671 3456385.366638671 13887759.57368187 0 0 0 0 0 108499144.143543 3432303.231257936 3432303.231257936 13564627.86337559 0 0 0 0 0 108314331.861993 3457070.403244622 3457070.403244622 13235673.06396379 0 0 0 0 0 108065637.6048162 3533226.681536665 3533226.681536665 12501236.81890929 0 0 0 0 0 108232031.1603921 3639830.462594631 3639830.462594631 12920500.81091709 0 0 0 0 0 107966485.5859805 3571066.187586064 3571066.187586064 12510088.29506068 0 0 0 0 0 109899557.0516141 2983046.975811077 2983046.975811077 16282226.60042094 0 0 0 0 0 118865277.5380421 424627.6615036665 424627.6615036665 26147472.04595252 0 0 0 0 0 118364683.7181598 138258.5768203762 138258.5768203762 25827495.86363254 0 0 0 0 0 117242095.7476603 894973.8339002734 894973.8339002734 25091676.7686747 0 0 0 0 0 117780321.3395801 994577.9920336639 994577.9920336639 25035770.04899304 0 0 0 0 0 116602205.3227664 1038317.89690048 1038317.89690048 24482073.74473614 0 0 0 0 0 115899498.3135703 1127457.841267488 1127457.841267488 23825329.47501094 0 0 0 0 0 115216466.1897669 1194741.979428038 1194741.979428038 23214494.35070183 0 0 0 0 0 114530513.8795486 1268166.815088257 1268166.815088257 22620815.73310671 0 0 0 0 0 113969993.7920281 1388651.078780093 1388651.078780093 22089688.21565608 0 0 0 0 0 113393156.9913184 1503263.729437612 1503263.729437612 21471912.90495368 0 0 0 0 0 113060263.4903373 2136536.687485 2136536.687485 20580272.25062278 0 0 0 0 0 112781883.0570478 2043907.06103935 2043907.06103935 20524265.58746894 0 0 0 0 0 112303855.5899374 2096458.420576684 2096458.420576684 19974166.3185541 0 0 0 0 0 111848221.7210097 2143377.479516046 2143377.479516046 19450109.43181651 0 0 0 0 0 111417696.834471 2185281.078317704 2185281.078317704 18945496.06321623 0 0 0 0 0 111017633.9429707 2228062.411478381 2228062.411478381 18462470.81827292 0 0 0 0 0 110638708.497522 2266116.199238841 2266116.199238841 17987640.92981262 0 0 0 0 0 110447242.0678526 2738934.780085737 2738934.780085737 17268264.38174115 0 0 0 0 0 110249441.4390541 2649000.665049703 2649000.665049703 17134771.63679527 0 0 0 0 0 109916338.5714123 2664070.807312516 2664070.807312516 16696037.96556306 0 0 0 0 0 109775545.894819 3377645.320766863 3377645.320766863 15643072.79300939 0 0 0 0 0 109474090.289712 3360626.861621324 3360626.861621324 15249474.92688441 0 0 0 0 0 109203238.3248233 3599234.85390549 3599234.85390549 14472516.16229267 0 0 0 0 0 109291596.8536815 3257296.467001203 3257296.467001203 15047450.77574845 0 0 0 0 0 108931253.3764485 3567453.036140906 3567453.036140906 14117492.17549511 0 0 0 0 0 108662190.9541669 3536800.090578449 3536800.090578449 13776426.53724948 0 0 0 0 0 108397596.51807 3472078.282869983 3472078.282869983 13255300.18967448 0 0 0 0 0 108185371.1324845 3471271.350563429 3471271.350563429 12807904.80094615 0 0 0 0 0 108023336.1102811 3587012.357683913 3587012.357683913 12524037.91561946 0 0 0 0 0 109772962.8626394 3078841.682569247 3078841.682569247 16039082.37916478 0 0 0 0 0 117995175.5526625 426527.0095701751 426527.0095701751 25429334.34025597 0 0 0 0 0 116972454.9885017 991755.7196496608 991755.7196496608 24239458.84257126 0 0 0 0 0 117472661.3969135 168403.2807280089 168403.2807280089 25194294.25989372 0 0 0 0 0 116252552.6962757 1270139.216581417 1270139.216581417 23906406.82090167 0 0 0 0 0 115558403.2524166 1351151.53974177 1351151.53974177 23316639.9165494 0 0 0 0 0 114884275.4502799 1426932.062566754 1426932.062566754 22728273.71667787 0 0 0 0 0 114264958.5433724 1432622.831374322 1432622.831374322 21972081.99588852 0 0 0 0 0 113687635.7824789 1567357.600084602 1567357.600084602 21434941.28009756 0 0 0 0 0 113146597.3244249 1661675.38335864 1661675.38335864 20897292.29862259 0 0 0 0 0 112872091.6842147 1587622.246228179 1587622.246228179 20906466.85584843 0 0 0 0 0 112565912.0032169 2190692.39040226 2190692.39040226 20054150.59873069 0 0 0 0 0 112098523.8242191 2238699.814704134 2238699.814704134 19548131.20468142 0 0 0 0 0 111653944.3628517 2278432.994227999 2278432.994227999 19049637.76506573 0 0 0 0 0 111233917.0962462 2310447.313416512 2310447.313416512 18546725.11409514 0 0 0 0 0 110842066.332504 2345938.711221774 2345938.711221774 18075997.08953872 0 0 0 0 0 110472954.7128637 2376807.765035558 2376807.765035558 17620735.26880252 0 0 0 0 0 110281072.0619668 2298960.318418138 2298960.318418138 17527595.86430383 0 0 0 0 0 110104107.388292 2751890.297353733 2751890.297353733 16832230.64594055 0 0 0 0 0 109778811.9067201 2761282.807774225 2761282.807774225 16409484.57886864 0 0 0 0 0 109587892.0594298 2982512.840623555 2982512.840623555 15866979.83348811 0 0 0 0 0 109291624.5791844 2979188.662022932 2979188.662022932 15465186.13003873 0 0 0 0 0 109012868.6363501 3242111.64607395 3242111.64607395 14668314.37331372 0 0 0 0 0 109187098.4916543 3341562.067206758 3341562.067206758 14863808.93260056 0 0 0 0 0 108750785.1715698 3227414.020941076 3227414.020941076 14305165.61903222 0 0 0 0 0 108490366.9380633 3186193.944849825 3186193.944849825 13897714.36139122 0 0 0 0 0 108223885.0224499 3269397.049719867 3269397.049719867 13618735.08029927 0 0 0 0 0 108036569.7726464 3313869.860709465 3313869.860709465 13194242.10143442 0 0 0 0 0 107859281.9967818 3331606.480362146 3331606.480362146 12799695.02216554 0 0 0 0 0 109600408.2044637 2675631.015049924 2675631.015049924 16271534.77986557 0 0 0 0 0 116566897.2787483 885511.7630356991 885511.7630356991 24636710.90343316 0 0 0 0 0 117085449.8340828 447694.8879851909 447694.8879851909 24829087.10069266 0 0 0 0 0 116220393.1555707 660908.9826277322 660908.9826277322 24049956.33208528 0 0 0 0 0 115515073.9048233 658368.1384440043 658368.1384440043 23552870.88045916 0 0 0 0 0 114844260.2434595 654155.0750562194 654155.0750562194 22854080.08102712 0 0 0 0 0 114021338.1334964 993544.8831950831 993544.8831950831 22463014.02398429 0 0 0 0 0 113492074.2697018 1044706.396809162 1044706.396809162 21756309.90147118 0 0 0 0 0 112980205.4357083 1118210.770708563 1118210.770708563 21209700.02270933 0 0 0 0 0 112642206.8951457 1735849.948304171 1735849.948304171 20380213.8298012 0 0 0 0 0 112384888.8311436 1660557.364756481 1660557.364756481 20368359.4065791 0 0 0 0 0 111931365.5094653 1722212.772160858 1722212.772160858 19832134.1416198 0 0 0 0 0 111492600.7857421 1777134.260337589 1777134.260337589 19310895.38716212 0 0 0 0 0 111073221.818158 1834418.745958378 1834418.745958378 18831767.05748922 0 0 0 0 0 110688386.080861 1883969.51379801 1883969.51379801 18352909.31289792 0 0 0 0 0 110324093.6397363 1931559.120021537 1931559.120021537 17887480.89354555 0 0 0 0 0 110124247.6150684 2403513.952318018 2403513.952318018 17179918.12506642 0 0 0 0 0 109942376.3470255 2327189.875103103 2327189.875103103 17081871.43009167 0 0 0 0 0 109621822.3210598 2351320.032532481 2351320.032532481 16650082.11573495 0 0 0 0 0 109468219.3094585 3073077.910732128 3073077.910732128 15637042.12782141 0 0 0 0 0 109177666.9638366 3065013.804324344 3065013.804324344 15244779.18148594 0 0 0 0 0 108914011.6354493 3322152.724663743 3322152.724663743 14494459.2870554 0 0 0 0 0 109009567.4972691 2974707.51848666 2974707.51848666 15077492.97642811 0 0 0 0 0 108663292.6833732 3298909.897072522 3298909.897072522 14158426.58412095 0 0 0 0 0 108403960.5985008 3249217.577629221 3249217.577629221 13928757.67071706 0 0 0 0 0 108075815.0291394 3264202.747626763 3264202.747626763 13122305.00535514 0 0 0 0 0 108254430.1187296 3167679.622930701 3167679.622930701 13508338.26353869 0 0 0 0 0 107910862.2613032 3325516.950130909 3325516.950130909 12772857.59864243 0 0 0 0 0 109470107.7964508 2767681.478647072 2767681.478647072 16000020.03310422 0 0 0 0 0 116672223.6699074 180419.0512375866 180419.0512375866 24396572.94238145 0 0 0 0 0 115863675.2246004 860162.1458047677 860162.1458047677 23806095.80593094 0 0 0 0 0 115174339.2727979 876370.3587935151 876370.3587935151 23248289.58748363 0 0 0 0 0 114498558.3941191 847458.4771799878 847458.4771799878 22673870.13789116 0 0 0 0 0 114229550.0451129 674027.0981506236 674027.0981506236 22105513.65950279 0 0 0 0 0 113773189.2138796 1092277.848605309 1092277.848605309 21714696.56845599 0 0 0 0 0 113252284.4538336 1196172.446288639 1196172.446288639 21214712.81977276 0 0 0 0 0 112740146.7465493 1269267.740906187 1269267.740906187 20636992.10918686 0 0 0 0 0 112477170.7963147 1210738.898196026 1210738.898196026 20694047.67130246 0 0 0 0 0 112169168.4150426 1798826.429722856 1798826.429722856 19871494.80265149 0 0 0 0 0 111723332.5883446 1858570.335465168 1858570.335465168 19374004.18756273 0 0 0 0 0 111291914.0812705 1911345.057894342 1911345.057894342 18891110.32861366 0 0 0 0 0 110886736.4377848 1953489.308106506 1953489.308106506 18406799.87666526 0 0 0 0 0 110510113.1993771 1996536.096876716 1996536.096876716 17937142.75700609 0 0 0 0 0 110155361.8441676 2038365.057309211 2038365.057309211 17494863.99699976 0 0 0 0 0 109978271.1891285 1973719.169684214 1973719.169684214 17436837.37192654 0 0 0 0 0 109793902.0661323 2425879.04128619 2425879.04128619 16751905.0448493 0 0 0 0 0 109480973.2561277 2444819.27138548 2444819.27138548 16336861.42719035 0 0 0 0 0 109299972.6976084 2683967.22306831 2683967.22306831 15860584.12920422 0 0 0 0 0 109013943.7597073 2690041.889546673 2690041.889546673 15463565.81791312 0 0 0 0 0 108742156.2501098 2968559.431578434 2968559.431578434 14698695.58744075 0 0 0 0 0 108900797.0714644 3055576.583232633 3055576.583232633 14863387.53379892 0 0 0 0 0 108485485.8972025 2953921.836542557 2953921.836542557 14330601.15600622 0 0 0 0 0 108254316.5931153 2935966.431606541 2935966.431606541 13986263.33593887 0 0 0 0 0 107941093.0704158 3045800.487203102 3045800.487203102 13513539.93538278 0 0 0 0 0 108108941.099258 3003113.394418661 3003113.394418661 13835116.36276854 0 0 0 0 0 107781998.5544696 3092505.890521463 3092505.890521463 13149640.47861526 0 0 0 0 0 109317470.1379028 2371698.527018846 2371698.527018846 16231410.69007329 0 0 0 0 0 116297436.828614 398818.7582468771 398818.7582468771 24221673.07254068 0 0 0 0 0 115914169.8709537 156311.3259910971 156311.3259910971 23828099.06683412 0 0 0 0 0 115197028.6024446 141806.0167600177 141806.0167600177 23229946.17756389 0 0 0 0 0 114524712.5443866 134776.7862664653 134776.7862664653 22714508.94866801 0 0 0 0 0 113958847.0499665 761174.0486578705 761174.0486578705 22210140.48562529 0 0 0 0 0 113639539.6441029 583228.0496007411 583228.0496007411 21922869.98504904 0 0 0 0 0 113109528.7168144 626658.3440932143 626658.3440932143 21442128.23449245 0 0 0 0 0 112564146.9045817 716654.095852423 716654.095852423 20973472.36730036 0 0 0 0 0 112252061.9084318 1347455.086778169 1347455.086778169 20151835.08650414 0 0 0 0 0 112013869.7654587 1290859.437162604 1290859.437162604 20178126.15840828 0 0 0 0 0 111580881.6921904 1361299.432336488 1361299.432336488 19657159.75880015 0 0 0 0 0 111142580.552363 1428848.719000775 1428848.719000775 19151635.86229533 0 0 0 0 0 110746170.8889307 1486453.50104854 1486453.50104854 18676135.39214115 0 0 0 0 0 110383581.8438169 1545295.970992598 1545295.970992598 18213106.96435715 0 0 0 0 0 110024915.2684267 1605400.213842113 1605400.213842113 17757346.61551736 0 0 0 0 0 109818999.6369152 2073879.349114924 2073879.349114924 17064065.55646979 0 0 0 0 0 109652532.5576858 2010610.978343201 2010610.978343201 16999906.90706711 0 0 0 0 0 109344009.3611706 2043561.098450896 2043561.098450896 16575964.13654306 0 0 0 0 0 109176205.0045637 2771432.731722001 2771432.731722001 15602660.17605876 0 0 0 0 0 108895747.6896861 2772831.65422775 2772831.65422775 15215741.63317422 0 0 0 0 0 108643037.2417786 3041411.251735834 3041411.251735834 14497742.55835861 0 0 0 0 0 108742015.5144981 2694575.918175472 2694575.918175472 15079530.06021113 0 0 0 0 0 108399527.6459553 3021786.779300397 3021786.779300397 14155996.11404382 0 0 0 0 0 108184237.1041777 2995779.110312216 2995779.110312216 13801600.42343254 0 0 0 0 0 107809060.230777 3050171.840360065 3050171.840360065 13071786.00961453 0 0 0 0 0 107992691.9565741 3006187.637558492 3006187.637558492 13442626.67703307 0 0 0 0 0 109183486.3309298 2460808.511620299 2460808.511620299 15934559.13930424 0 0 0 0 0 115546618.7230254 368201.4367424592 368201.4367424592 23596860.52463362 0 0 0 0 0 114865132.612837 342762.4500334224 342762.4500334224 23005316.96291908 0 0 0 0 0 114197809.1640587 336613.8131689932 336613.8131689932 22451508.59595911 0 0 0 0 0 113904910.7147195 153555.8919377001 153555.8919377001 22116060.60029423 0 0 0 0 0 113398275.1993771 747582.3023684454 747582.3023684454 21535829.04053982 0 0 0 0 0 112843533.2919643 808859.3552258218 808859.3552258218 20986009.33939836 0 0 0 0 0 112334735.424129 815255.6922056774 815255.6922056774 20294862.33797054 0 0 0 0 0 112104335.4189626 856813.2869286978 856813.2869286978 20480252.81659845 0 0 0 0 0 111798843.2880648 1422416.088414981 1422416.088414981 19668111.22028805 0 0 0 0 0 111369004.8304984 1498086.656649802 1498086.656649802 19178981.75001431 0 0 0 0 0 110949585.1339258 1548551.509651518 1548551.509651518 18697274.24581062 0 0 0 0 0 110560698.893185 1598464.981880782 1598464.981880782 18226788.55632147 0 0 0 0 0 110199294.552293 1657128.059440969 1657128.059440969 17768387.60993169 0 0 0 0 0 109855073.1000008 1707121.564655736 1707121.564655736 17343093.18375011 0 0 0 0 0 109692719.9978313 1655115.89870923 1655115.89870923 17318048.73417289 0 0 0 0 0 109501208.583654 2105539.9988685 2105539.9988685 16645117.85648208 0 0 0 0 0 109199947.3378385 2134300.798293609 2134300.798293609 16239511.87611876 0 0 0 0 0 109027399.5730622 2389109.473285936 2389109.473285936 15826395.49393641 0 0 0 0 0 108750633.4079681 2403956.238151272 2403956.238151272 15434781.5288788 0 0 0 0 0 108480368.6896067 2695807.986204246 2695807.986204246 14703041.88833396 0 0 0 0 0 108629368.9211603 2771684.537226102 2771684.537226102 14835743.23162667 0 0 0 0 0 108231933.8622501 2692220.523782719 2692220.523782719 14337789.04824721 0 0 0 0 0 108033318.8917907 2715448.854035201 2715448.854035201 14036715.23719327 0 0 0 0 0 107704210.7546779 2837619.880332036 2837619.880332036 13454969.96482147 0 0 0 0 0 107849367.1786217 2769441.607658057 2769441.607658057 13765886.49238429 0 0 0 0 0 109049326.5844622 2072726.491909956 2072726.491909956 16164500.11055305 0 0 0 0 0 113638500.503787 316915.107348653 316915.107348653 21879963.21384262 0 0 0 0 0 113345168.3493381 146959.1112442406 146959.1112442406 21657736.48985469 0 0 0 0 0 112781293.6558411 157603.9877335973 157603.9877335973 21069116.9542321 0 0 0 0 0 112126079.2200189 498967.6777059247 498967.6777059247 20704416.48341988 0 0 0 0 0 111877889.8696229 955712.9900595149 955712.9900595149 19816119.49117648 0 0 0 0 0 111671349.6543666 962750.5510587868 962750.5510587868 19932121.2885196 0 0 0 0 0 111221986.633293 1007890.66149475 1007890.66149475 19421179.4331621 0 0 0 0 0 110832137.2439127 1070440.939210933 1070440.939210933 18963837.86352724 0 0 0 0 0 110442749.9779843 1156923.959767255 1156923.959767255 18497892.57044177 0 0 0 0 0 110092746.1984355 1219710.851534168 1219710.851534168 18039489.633962 0 0 0 0 0 109739289.1039173 1289668.144000623 1289668.144000623 17598575.31762653 0 0 0 0 0 109531453.4601555 1750996.313587095 1750996.313587095 16922438.65704397 0 0 0 0 0 109380569.6035301 1700508.971350676 1700508.971350676 16890915.87003441 0 0 0 0 0 109080708.6921069 1741987.235544564 1741987.235544564 16475164.51316623 0 0 0 0 0 108899868.2016887 2473722.87752723 2473722.87752723 15542955.08166685 0 0 0 0 0 108628683.1076798 2484726.711883341 2484726.711883341 15163808.93577629 0 0 0 0 0 108375234.5962381 2768343.022487091 2768343.022487091 14477126.20950721 0 0 0 0 0 108485354.0923926 2416546.793565344 2416546.793565344 15056247.58547518 0 0 0 0 0 108130973.2399646 2764617.919842836 2764617.919842836 14122319.03577409 0 0 0 0 0 107929658.3116591 2755265.15851163 2755265.15851163 13713026.52032095 0 0 0 0 0 107724575.7524437 2778512.098655176 2778512.098655176 13350205.5507556 0 0 0 0 0 108912496.31161 2158793.165739536 2158793.165739536 15844616.12818647 0 0 0 0 0 113068028.1814437 331054.4228919937 331054.4228919937 21331941.92617461 0 0 0 0 0 112504340.6288862 324645.5429616232 324645.5429616232 20836239.58370434 0 0 0 0 0 111885533.7403472 538470.8232357195 538470.8232357195 19914569.14447304 0 0 0 0 0 112259720.9406221 164694.8922580041 164694.8922580041 20381168.82258652 0 0 0 0 0 111685880.619313 658069.6991997153 658069.6991997153 20149476.97980112 0 0 0 0 0 111448438.7856923 1110427.290301292 1110427.290301292 19538643.37420549 0 0 0 0 0 111029810.9822392 1123137.532214172 1123137.532214172 18962527.79737303 0 0 0 0 0 110626048.1573362 1189472.411570492 1189472.411570492 18450146.40574047 0 0 0 0 0 110256311.8472658 1267896.652070063 1267896.652070063 18048750.54512371 0 0 0 0 0 109904941.9974248 1328539.110439831 1328539.110439831 17569216.63923363 0 0 0 0 0 109571958.6727351 1383601.841653531 1383601.841653531 17169814.61939971 0 0 0 0 0 109428295.6342113 1344249.846736233 1344249.846736233 17173609.48879861 0 0 0 0 0 109226228.2559616 1793264.516338015 1793264.516338015 16515668.35524197 0 0 0 0 0 108934178.4180051 1830003.447217265 1830003.447217265 16118909.5192575 0 0 0 0 0 108769372.2735853 2098315.81902046 2098315.81902046 15765865.38686017 0 0 0 0 0 108502160.6319099 2121263.312575875 2121263.312575875 15380187.61046503 0 0 0 0 0 108230936.3105819 2423970.627381827 2423970.627381827 14682869.46953315 0 0 0 0 0 108369429.0552374 2491998.034722449 2491998.034722449 14794960.43041294 0 0 0 0 0 107996679.080774 2432275.178299425 2432275.178299425 14328290.56316325 0 0 0 0 0 107788039.9733318 2469590.788894305 2469590.788894305 14025487.69235455 0 0 0 0 0 107628767.5354385 2570330.646738155 2570330.646738155 13721853.3734169 0 0 0 0 0 108795475.0502533 1779109.613292366 1779109.613292366 16072512.32873787 0 0 0 0 0 111796861.4441028 129341.4495300948 129341.4495300948 20167138.99014111 0 0 0 0 0 112037542.6462252 252672.3413014726 252672.3413014726 20342868.34272607 0 0 0 0 0 111487460.4029001 598226.008930643 598226.008930643 19523633.75208186 0 0 0 0 0 110914002.3061643 713518.7012210255 713518.7012210255 19254303.96463523 0 0 0 0 0 110539644.4185198 793998.3357636263 793998.3357636263 18729721.62401168 0 0 0 0 0 110153497.2883466 835365.553271959 835365.553271959 18247244.41968104 0 0 0 0 0 109812007.601349 878714.5590354007 878714.5590354007 17852793.59439973 0 0 0 0 0 109502672.1906742 962012.940748687 962012.940748687 17439181.80827231 0 0 0 0 0 109263814.8729213 1439584.077093212 1439584.077093212 16762082.49482691 0 0 0 0 0 109122410.8757222 1398381.808338087 1398381.808338087 16756512.27065215 0 0 0 0 0 108831573.3185477 1447424.711767557 1447424.711767557 16351473.95570053 0 0 0 0 0 108638781.1186302 2180358.00822254 2180358.00822254 15460346.23387499 0 0 0 0 0 108376427.7749286 2200430.280383366 2200430.280383366 15086442.25887415 0 0 0 0 0 108121847.7414171 2496678.350278419 2496678.350278419 14441538.26660375 0 0 0 0 0 108240879.9157533 2142517.661541084 2142517.661541084 15009632.65585321 0 0 0 0 0 107885258.2845321 2505325.264812396 2505325.264812396 14069975.59614608 0 0 0 0 0 107652138.7086999 2487925.086030047 2487925.086030047 13576844.67299366 0 0 0 0 0 108656426.1465747 1862340.279491998 1862340.279491998 15733414.80491912 0 0 0 0 0 111558589.2893428 279606.2962816852 279606.2962816852 19833562.09036566 0 0 0 0 0 111249467.7037823 649768.5869770802 649768.5869770802 19586312.9466318 0 0 0 0 0 110703878.5389443 847500.0686791248 847500.0686791248 18767899.43857539 0 0 0 0 0 111050979.7590344 553384.5773853373 553384.5773853373 19024727.29852673 0 0 0 0 0 110345911.3217536 915744.9059212041 915744.9059212041 18323317.95879979 0 0 0 0 0 109974188.9203374 955149.3071188327 955149.3071188327 17919969.26018342 0 0 0 0 0 109625778.8188035 970129.8155418794 970129.8155418794 17333254.6798595 0 0 0 0 0 109314146.0447743 1068112.481173208 1068112.481173208 16958349.3381413 0 0 0 0 0 109178122.4517805 1044317.435068653 1044317.435068653 17009302.88309141 0 0 0 0 0 108966142.9783585 1488630.246567207 1488630.246567207 16364963.67335226 0 0 0 0 0 108683091.983356 1533091.672165585 1533091.672165585 15978604.60466762 0 0 0 0 0 108525512.4976488 1812264.619849137 1812264.619849137 15681779.42130451 0 0 0 0 0 108269494.7971582 1844325.146889715 1844325.146889715 15302736.61596647 0 0 0 0 0 108000412.5128016 2154669.579270977 2154669.579270977 14639087.26255487 0 0 0 0 0 108124486.9889838 2213724.271354995 2213724.271354995 14731839.94902711 0 0 0 0 0 107766338.2256615 2151841.064945845 2151841.064945845 14257864.26339167 0 0 0 0 0 107561772.9736342 2303953.6655277 2303953.6655277 13967552.72646343 0 0 0 0 0 108553554.3917769 1491455.247544954 1491455.247544954 15958037.83291883 0 0 0 0 0 111318553.7144928 129031.043532898 129031.043532898 19533618.92010584 0 0 0 0 0 110693542.2124173 459951.8285624456 459951.8285624456 18857990.88440346 0 0 0 0 0 110916735.4828586 592434.9007693919 592434.9007693919 19129087.56833323 0 0 0 0 0 110312991.5778986 470199.7260118858 470199.7260118858 18460360.05427824 0 0 0 0 0 109936634.3410679 470966.7696055755 470966.7696055755 17950521.44108212 0 0 0 0 0 109526279.3316429 621193.8244181569 621193.8244181569 17704858.45657751 0 0 0 0 0 109251349.817376 684198.60244959 684198.60244959 17229155.35330076 0 0 0 0 0 109010973.6942151 1136598.859634975 1136598.859634975 16577684.11807355 0 0 0 0 0 108882469.265408 1108038.492739219 1108038.492739219 16597617.62343776 0 0 0 0 0 108588766.734175 1164581.527441111 1164581.527441111 16203418.67048847 0 0 0 0 0 108391778.2521452 1891788.879794257 1891788.879794257 15353720.88662056 0 0 0 0 0 108137200.6526813 1920859.406684198 1920859.406684198 14971266.43734321 0 0 0 0 0 107893712.2454275 2227287.302458092 2227287.302458092 14416728.94652919 0 0 0 0 0 108010763.7425559 1879454.99823158 1879454.99823158 14939678.24698051 0 0 0 0 0 107680580.9606533 2214037.608757749 2214037.608757749 14147433.0422633 0 0 0 0 0 107540250.2898477 2136048.682967845 2136048.682967845 13772557.14787974 0 0 0 0 0 108413818.407817 1570678.940824663 1570678.940824663 15602547.63031849 0 0 0 0 0 111086312.6354843 252660.9277585699 252660.9277585699 19377711.70116054 0 0 0 0 0 110505676.562677 574610.4353699138 574610.4353699138 18631843.65857417 0 0 0 0 0 110892653.4893365 127708.6984372757 127708.6984372757 19084553.97226496 0 0 0 0 0 110125374.8119851 588771.586859013 588771.586859013 18200373.22474299 0 0 0 0 0 109808619.6384759 532501.7113809226 532501.7113809226 17974688.17795193 0 0 0 0 0 109338932.2233598 672109.7830309159 672109.7830309159 17107281.74346398 0 0 0 0 0 109610341.8475966 463182.7642283323 463182.7642283323 17356930.33895478 0 0 0 0 0 109070671.8935304 774341.8915036484 774341.8915036484 16728460.39841246 0 0 0 0 0 108945288.2251247 770885.9451168478 770885.9451168478 16811210.96516887 0 0 0 0 0 108722059.7795775 1201139.402867805 1201139.402867805 16200234.75149494 0 0 0 0 0 108443363.6169833 1241972.379232245 1241972.379232245 15816940.58588094 0 0 0 0 0 108296439.9619876 1530846.037466876 1530846.037466876 15575853.78532643 0 0 0 0 0 108035292.3724229 1589297.954744791 1589297.954744791 15219628.7250739 0 0 0 0 0 107791899.0102745 1884418.405577566 1884418.405577566 14566629.95757912 0 0 0 0 0 107902326.0169726 1942692.392390901 1942692.392390901 14672285.41907347 0 0 0 0 0 107580716.8648276 1897776.940473825 1897776.940473825 14275248.68298546 0 0 0 0 0 107491302.0232964 2021964.16042391 2021964.16042391 14149501.53224711 0 0 0 0 0 108332334.860033 1213009.233001255 1213009.233001255 15825521.82515185 0 0 0 0 0 110504081.1289385 116396.782940605 116396.782940605 18665072.76256747 0 0 0 0 0 110702892.022989 237963.8815718406 237963.8815718406 18900094.60154898 0 0 0 0 0 110125110.7797412 120847.8687192538 120847.8687192538 18244674.27661519 0 0 0 0 0 109747915.2678584 112895.2955734232 112895.2955734232 17756835.25607716 0 0 0 0 0 109284305.8042778 365841.4509375035 365841.4509375035 17444710.33165612 0 0 0 0 0 109520691.9024098 230650.7790319379 230650.7790319379 17722448.49808979 0 0 0 0 0 108997880.0282626 439945.1483602728 439945.1483602728 17004112.87627725 0 0 0 0 0 108779508.1875734 867618.8560115264 867618.8560115264 16406588.80089924 0 0 0 0 0 108644151.4963157 827111.453212021 827111.453212021 16395778.38827904 0 0 0 0 0 108374834.1753022 894296.7039093013 894296.7039093013 16036475.97544403 0 0 0 0 0 108153405.4595922 1613342.482235176 1613342.482235176 15216670.3707436 0 0 0 0 0 107902724.6680195 1628966.47345825 1628966.47345825 14800621.76401368 0 0 0 0 0 107693662.5821429 1954529.349830316 1954529.349830316 14357118.34606584 0 0 0 0 0 107799161.1362766 1620572.780424183 1620572.780424183 14821914.68999503 0 0 0 0 0 107467168.136983 1950453.218529129 1950453.218529129 13948421.94153818 0 0 0 0 0 108189197.4491529 1292042.753083477 1292042.753083477 15454480.19911588 0 0 0 0 0 110307841.9665351 233574.7203180687 233574.7203180687 18455134.98096039 0 0 0 0 0 109945976.1222677 234750.4431748966 234750.4431748966 18017889.23227381 0 0 0 0 0 109627477.4551917 205550.9332036677 205550.9332036677 17565774.74520222 0 0 0 0 0 109343428.4425226 209057.1067105725 209057.1067105725 17133756.65484562 0 0 0 0 0 109105067.9112955 438807.0545807966 438807.0545807966 16909249.20785132 0 0 0 0 0 108841402.2168355 522491.0130995555 522491.0130995555 16585719.79934968 0 0 0 0 0 108704375.9790138 470253.7413869475 470253.7413869475 16549983.18533629 0 0 0 0 0 108489409.2508892 907414.9586482387 907414.9586482387 15977645.68208379 0 0 0 0 0 108231218.1246537 970117.3716006599 970117.3716006599 15652481.28576625 0 0 0 0 0 108084511.1618638 1250980.619493843 1250980.619493843 15423241.94272631 0 0 0 0 0 107824567.7155213 1482800.247611067 1482800.247611067 15069722.01223537 0 0 0 0 0 107587633.8304048 1620681.913016607 1620681.913016607 14491875.71443098 0 0 0 0 0 107695375.8404985 1690238.45917805 1690238.45917805 14672255.09237614 0 0 0 0 0 107429920.0823796 1714094.04619354 1714094.04619354 14307061.57261779 0 0 0 0 0 108141113.9098103 957865.856129256 957865.856129256 15689174.59417628 0 0 0 0 0 109251665.3443956 208601.7436666246 208601.7436666246 17271951.12709442 0 0 0 0 0 109088595.958528 107628.6988556052 107628.6988556052 17037824.94380929 0 0 0 0 0 108778099.0498499 112623.424005259 112623.424005259 16675484.6690814 0 0 0 0 0 108542559.6614427 559827.5941968173 559827.5941968173 16125956.8784949 0 0 0 0 0 108415927.591204 554410.6737578096 554410.6737578096 16221085.97701041 0 0 0 0 0 108191751.0747881 660953.0444579737 660953.0444579737 15899462.67431958 0 0 0 0 0 107957921.0334719 1331374.185606008 1331374.185606008 15169050.11701719 0 0 0 0 0 107837633.7674868 1256174.186989269 1256174.186989269 14909602.91510523 0 0 0 0 0 107658010.7258229 1419261.783389694 1419261.783389694 14560308.42992492 0 0 0 0 0 107476107.0288802 1679502.906529642 1679502.906529642 14190777.82653476 0 0 0 0 0 108004941.748505 1028626.93146398 1028626.93146398 15321585.6772895 0 0 0 0 0 108947898.3372325 198437.1858268322 198437.1858268322 16800385.84572503 0 0 0 0 0 108620275.0022931 215247.3113079654 215247.3113079654 16418914.51396284 0 0 0 0 0 108483554.5291456 136677.1904055682 136677.1904055682 16300948.09689066 0 0 0 0 0 108257414.7362657 594377.3803285365 594377.3803285365 15712211.4213896 0 0 0 0 0 108037587.0748926 748631.4710731861 748631.4710731861 15510028.10694719 0 0 0 0 0 107927266.6941553 1011906.867474642 1011906.867474642 15360070.82141316 0 0 0 0 0 107767801.1594133 1187177.819390673 1187177.819390673 15137283.27183676 0 0 0 0 0 107589229.2871366 1322192.686607747 1322192.686607747 14839641.41454448 0 0 0 0 0 107390434.3376842 1411464.863496291 1411464.863496291 14480716.62790127 0 0 0 0 0 107952760.8783114 715068.7762677096 715068.7762677096 15519576.22558854 0 0 0 0 0 108336476.9862723 232504.9853405963 232504.9853405963 16062265.30691601 0 0 0 0 0 108169038.7834603 510609.4722112312 510609.4722112312 15944280.48073202 0 0 0 0 0 108025212.0869435 425291.9702278688 425291.9702278688 15601867.06897464 0 0 0 0 0 107774694.7267607 1073268.698918937 1073268.698918937 14899500.35047273 0 0 0 0 0 107605459.948833 1167015.102103024 1167015.102103024 14600769.68458861 0 0 0 0 0 107429624.9461776 1314807.089972366 1314807.089972366 14301752.63839963 0 0 0 0 0 107807448.0029101 796753.1337543664 796753.1337543664 15149616.75795176 0 0 0 0 0 108194134.8326039 140285.8395912086 140285.8395912086 15801208.13947069 0 0 0 0 0 107905070.6876804 498003.6199198875 498003.6199198875 15454443.5478711 0 0 0 0 0 107732792.9232128 803953.5085408221 803953.5085408221 15240439.20148835 0 0 0 0 0 107546857.80875 972680.9413012107 972680.9413012107 14959635.58102143 0 0 0 0 0 107359364.0601694 1108043.559069145 1108043.559069145 14623660.081113 0 0 0 0 0 107779929.3317073 420386.6507109005 420386.6507109005 15292716.79330756 0 0 0 0 0 108077957.1645408 208240.4393753389 208240.4393753389 15707722.00413623 0 0 0 0 0 107938344.2567975 117393.6647377896 117393.6647377896 15478363.65863663 0 0 0 0 0 107567207.5328062 829344.9787901782 829344.9787901782 14694986.47669462 0 0 0 0 0 107377267.0291165 973464.9770219298 973464.9770219298 14393406.26559483 0 0 0 0 0 107668269.0921033 489427.2337186583 489427.2337186583 15160639.92622408 0 0 0 0 0 107804576.6225596 194275.652932131 194275.652932131 15355135.43768872 0 0 0 0 0 107514097.5290162 666002.4468403931 666002.4468403931 15037672.37744482 0 0 0 0 0 107322903.9310932 794797.7115832824 794797.7115832824 14688356.4014169 0 0 0 0 0 107535819.499772 423530.9259007156 423530.9259007156 14788742.20859611 0 0 0 0 0 107667838.4396198 103684.7768257271 103684.7768257271 15114177.70702109 0 0 0 0 0 107332128.8582766 647420.0484862358 647420.0484862358 14434642.94892075 0 0 0 0 0 107471702.2549088 394664.6825446152 394664.6825446152 14967170.82385448 0 0 0 0 0 107549399.5179086 173778.6687186315 173778.6687186315 15024731.30164619 0 0 0 0 0 107300077.7772789 475632.8622630346 475632.8622630346 14737067.53608756 0 0 0 0 0 107437460.69919 102244.2245980313 102244.2245980313 14822535.59811327 0 0 0 0 0 107332343.7861918 360010.9560366027 360010.9560366027 14519294.65687647 0 0 0 0 0 107359029.6049356 155793.958592247 155793.958592247 14676478.46122503 0 0 0 0 0 107278331.9984054 147535.1826842566 147535.1826842566 14727174.96282716 0 0 0 0 0 </DataArray>
      </CellData>
      <PointData>
        <DataArray type="Int64" IdType="1" Name="vtkOriginalPointIds" format="ascii" RangeMin="0" RangeMax="7057">57 1 6974 58 432 6788 56 59 6033 7048 426 55 6815 60 388 7018 4205 4455 61 6920 54 4204 382 62 6917 6772 4202 7029 4626 63 4206 53 4207 4203 4627 4628 4500 4200 4201 6895 64 6837 52 4198 6836 6771 356 6991 65 66 4540 377 4197 4199 6834 3721 399 67 2848 51 4035 5842 2847 4181 6883 6921 4600 68 69 344 6849 4499 3694 6728 2283 3175 4601 4604 70 2526 50 4034 2011 2614 6831 4105 4602 4603 400 6931 4147 3693 3692 6830 1934 6827 7013 4605 71 2227 49 6733 1814 3709 4104 3177 3449 6564 6870 4927 7031 72 73 6871 350 7037 4146 3691 3690 1935 1808 6814 6910 336 74 6010 48 6739 1664 6825 3137 2835 5931 3134 6090 4135 4133 5012 75 76 77 359 5013 4579 4578 4577 3151 3193 4526 1648 4078 5872 6980 6994 78 1665 47 4044 1563 6809 2834 2642 2639 2638 2640 4112 4111 4113 6292 6840 6890 4208 422 6939 3701 3149 3150 3671 6738 1523 4756 5998 6957 79 6803 46 6742 1467 4286 2833 2641 2367 2366 5900 3483 3522 6133 3718 5856 3975 4167 327 80 5760 6979 4573 3148 2826 5860 6027 1524 1424 3302 3447 6995 81 6802 45 4253 1390 4285 3301 4688 1993 1930 1929 3482 6095 3157 3156 3158 3974 6886 4162 6521 82 83 361 340 4574 3317 2825 2635 2894 3194 6741 1339 3720 2769 6232 4081 6891 84 1391 44 6833 4055 1303 6798 4478 2540 1992 1828 1827 3942 6051 2558 2559 3973 6211 4093 6709 4362 6990 85 86 321 6941 4194 4546 5017 2633 2634 2895 3672 6818 1282 5036 5893 2871 2870 4164 5169 87 6795 43 4066 6819 1230 4474 3880 3879 4632 1826 1732 5995 1996 1997 5714 6188 3360 5819 5777 3593 4163 6644 5170 4195 4067 3135 2631 2632 5978 6075 6748 1283 1186 4471 1730 2816 2815 6851 88 6793 42 3136 4592 1050 4473 4470 5060 2299 1825 1731 1729 1893 3018 6113 5754 5687 2817 3082 3592 6356 3719 363 5171 89 90 6841 420 4315 4449 2630 2039 5761 5653 3471 3472 4591 1038 4472 1609 2305 2306 6914 404 91 1141 41 5840 6750 1013 6791 2831 2682 2681 5855 5132 1608 5904 6018 3954 1901 1902 3081 3540 6347 2850 2849 6952 3178 4155 6958 4972 92 93 314 5594 6842 3795 4456 2038 2007 2214 3001 3470 6749 4593 1004 4889 1526 2254 5709 4973 4980 94 6786 40 5468 4594 925 4373 2830 2683 3274 4564 5251 1525 5567 5792 1649 1650 2230 6322 6328 5775 2520 2629 3186 4082 4183 6757 407 95 96 4981 331 6928 3794 3113 2563 2005 2006 3000 3469 3505 6725 1005 917 3202 1489 3072 6301 3179 7045 6894 348 97 6784 39 2004 4595 902 4372 2832 4562 4563 4866 1591 1486 1484 1483 1487 6030 6063 3538 2013 2012 2014 5101 3187 6404 3762 3761 4040 4982 6605 6959 98 6683 7025 4161 3147 2564 2008 1834 5726 3937 6064 6767 4598 4596 885 4371 1488 6218 3561 3929 6987 6899 4430 406 99 100 6873 903 38 1833 4597 864 6776 4379 5883 2051 1865 1864 1485 1422 1421 5888 3936 3935 2454 1813 1812 5795 6003 4024 6393 2884 2883 5762 5969 3777 312 101 6904 4412 5670 4977 3300 5906 1667 5975 6020 2625 6740 3708 2296 860 3714 5212 6199 3562 5545 3776 4157 4431 7043 6963 102 6775 37 1666 4261 773 4289 3713 5493 1925 1866 2956 4958 1314 1313 5563 3002 3003 4753 1748 1747 5740 2765 6385 3297 2656 2655 2657 5914 3406 7003 6778 4187 103 104 365 7033 375 4237 3828 3827 4447 4978 5711 1600 1787 1922 2624 2924 3706 6744 769 3712 4960 6141 4754 6333 3407 4432 6811 5196 105 2298 36 1597 6745 763 6773 3095 2538 1926 5190 6013 4959 1302 1300 1298 1297 5835 2595 1746 1564 1565 2248 5258 5054 2364 2363 5691 3404 3405 3774 3673 4186 6857 411 106 6868 4142 3155 2948 5600 4949 1595 1599 1889 1923 2781 2925 3707 770 761 3711 4961 6080 4827 3064 6185 7008 6948 6684 6770 35 4238 1596 6813 745 4288 3094 2539 2673 4348 4566 1402 1301 1299 1200 1199 2983 5640 1427 1428 2137 2469 3969 6308 1946 1945 1947 3008 3966 6161 3140 5538 3198 5948 3922 7056 107 108 319 5523 7028 4239 7050 2842 2353 1899 1594 1530 5490 5279 3448 6176 6195 6732 4658 743 3715 4565 5973 3442 3074 3965 5617 4138 7004 109 746 34 6780 5859 4659 733 6746 4885 2674 4347 5629 3362 6144 2710 4775 1041 1040 5791 1310 1311 5565 4930 3075 5321 6297 1807 1887 3007 3501 2989 6140 2582 2583 5885 3921 3190 5303 5304 110 323 6909 2843 6968 2354 1900 1598 1529 1439 6009 6065 6139 3961 3521 4063 2055 731 4682 3932 5721 1189 3995 3375 3191 6897 371 111 6736 33 4154 5550 4271 726 4683 4681 4337 3804 2747 2980 4569 6079 5089 1035 1033 1031 1190 1640 5167 3997 3996 6305 1806 1644 5558 3919 6103 2988 5852 2388 2387 5592 2661 2662 3765 3769 5302 6824 5316 112 5449 7032 4153 6058 3829 5173 2722 5055 1438 1382 3010 5744 5492 2532 2976 4064 6730 724 4341 3941 1030 1138 6285 3897 3192 6893 412 2206 32 3299 1496 6805 718 6731 4338 3805 2436 2435 5827 6077 5207 1184 1034 1032 933 5168 4479 3999 3998 4001 2735 1643 1468 5905 5976 1572 5073 5697 1915 1916 2269 2618 5536 3766 5301 6821 5398 6993 113 418 5133 3176 5264 4411 4481 5951 5056 1380 1381 2148 2150 2256 2531 5778 6721 725 717 4340 6022 932 5907 6267 5698 3767 4103 5325 4254 114 6729 31 2951 2147 4727 711 4343 4339 5229 2036 2035 5541 2759 1619 1618 5233 4970 911 5939 4002 4000 5257 6274 5285 1342 1343 1345 1347 1364 1668 1419 1669 2268 2617 3103 5463 3768 6820 3679 3677 7051 325 115 117 118 373 116 5331 5328 5399 6854 3746 2952 2950 3296 5879 5057 1379 1335 5586 2149 2151 2257 2533 6756 4729 4726 707 4342 5204 910 2764 5623 1425 6498 3676 5326 5599 5356 119 712 30 2585 5252 4728 702 6727 4554 2530 1928 1803 1647 1621 1620 3312 4971 2698 897 4439 4003 4004 6261 1843 1250 1251 1344 1346 1348 1365 1498 1420 5256 5192 3104 4038 6491 6769 3773 3678 2863 5327 6844 6942 5329 5357 120 121 338 368 6949 4091 3747 5080 2584 5627 3374 5418 1333 1334 5996 2456 5283 3080 6369 6714 3689 2057 701 4555 1623 896 5964 1143 1497 1904 2862 6855 7054 5359 122 6726 29 2228 6074 4277 700 4831 4830 5037 1927 1802 1645 1622 5871 5960 4684 5082 895 6180 6207 6223 5467 1006 1144 5514 5180 1547 4769 5802 5483 1641 5508 6472 6477 6482 1809 4349 4214 6586 2680 2867 5330 4114 4115 4116 5358 6863 414 6816 4476 6276 5081 2229 2115 2113 2111 1332 1249 5880 3948 6109 6000 6360 4017 3132 3686 6713 698 3696 1624 882 881 1007 1642 1704 2679 6940 6953 6889 123 2295 28 4139 2116 3946 6782 696 6723 3330 2528 2069 4929 1646 5639 3905 4408 3345 923 894 5540 2743 5522 908 909 2728 4415 5824 4482 3883 5479 2117 1801 6465 3605 3604 5476 1702 1705 3772 6581 2678 5532 3908 3142 3141 5875 5466 4074 4075 5360 5361 124 6937 4184 3164 3958 6268 5032 2114 2112 1407 1248 1183 5611 3027 3947 6327 5487 2789 3131 6712 699 695 3695 1741 880 878 4442 1960 1703 2359 7005 6901 125 6720 27 3163 2958 3527 4854 693 4833 3083 2529 5298 3894 1933 2424 2931 4406 3252 2086 4871 876 874 872 871 5967 4413 3862 5462 3304 2964 1962 6408 1961 3982 3097 2483 1701 1448 2749 6806 3663 2391 2358 3907 2667 5776 2668 2844 3047 6231 6982 3484 4144 346 318 5149 3145 6265 5034 5033 5035 2708 4957 1182 1181 1269 3026 6246 2246 2220 2626 3411 6706 4853 692 4832 2018 879 877 4414 2245 5502 1977 7020 126 694 26 3144 4956 6186 4855 691 6717 3084 3215 4436 4437 5913 2425 5602 6115 6062 4331 4457 875 873 856 855 5994 3861 3308 3305 2965 2479 2478 6395 5280 5085 2792 1742 1397 1396 5503 6560 5100 5253 1976 5497 2315 2314 2669 3046 3990 6170 3138 4127 5365 6407 127 128 129 5370 417 6817 5150 3146 2943 2942 6272 5262 4954 4955 5799 1158 1180 2776 3499 5051 2219 1957 5655 6724 4940 4938 690 3687 2919 6295 1537 5997 6430 5699 1975 2846 358 130 6716 25 2944 3874 6164 4939 689 4068 3216 4300 3450 4012 6481 2920 3477 4314 3814 3815 6288 4896 4905 852 851 1743 3860 3307 3306 5061 3037 3038 5276 6370 3334 3333 5433 1307 1306 6556 4545 3356 2500 1895 1894 1896 5290 3048 6286 6290 2400 3133 6005 5366 6867 6965 6807 131 132 5382 6850 4102 3343 3342 2356 1990 2223 6156 3873 5636 1156 1157 5309 3500 3964 2731 1956 1855 2289 6699 3971 2527 688 3688 3475 4898 4897 4401 3563 1308 1974 2399 4089 7057 385 133 6715 24 5308 3504 6132 4282 687 4298 6040 2911 2910 6476 4465 3476 4313 2907 2906 5683 3361 4899 2709 849 848 6017 3863 5063 5062 3567 3549 3550 3336 6365 3335 4661 5432 1178 1179 6800 4544 2806 2719 1680 1679 5496 5291 6282 3533 5414 2383 5934 4770 4087 4086 5405 4108 6916 5381 134 367 6930 4101 3539 4842 1988 1989 3497 6138 2779 1155 1025 5717 5310 6081 6107 5437 1728 1853 6173 3970 3682 6704 685 4299 4306 6254 4900 4402 3409 6796 5273 2381 4088 7023 429 135 2198 23 1987 2993 3396 6702 684 6677 5108 2620 2566 2565 5539 5448 3915 2752 2429 2675 2677 4901 4902 846 845 6035 6289 6311 6325 6340 6355 6362 3408 5511 4527 2729 1133 1134 1326 4543 2967 2966 3889 1536 1533 5518 6106 3532 3261 2457 2382 2380 5899 3899 3744 3742 3741 4145 5402 6933 6790 136 6398 7038 6225 6227 6447 5274 1781 5597 6117 3939 2594 1024 1002 5917 6036 2209 5794 1590 1727 1854 6152 3681 3680 686 683 4061 1692 3031 6255 6281 6041 6537 5266 2348 5319 6972 2 6676 22 1780 2994 1506 4287 681 4309 3061 2619 1982 1724 1691 5520 5591 1949 2030 2676 3030 4903 4904 844 842 840 2143 5512 850 5507 2234 5510 4528 857 4633 1131 1132 5461 6799 4542 4541 5993 5267 1509 1452 1453 6098 3507 3260 2692 5234 2346 2345 3898 3743 3740 3739 5401 5379 5378 5380 137 5086 4025 3204 3585 6444 1782 1673 2176 6097 3940 5259 1001 1000 1021 1328 1330 1398 1589 5551 6119 5423 3035 3675 6701 680 4059 1689 5392 6120 838 5665 5384 1555 2347 5836 7027 682 21 1672 4559 1504 6761 679 6675 3327 5007 1981 1723 1690 1687 1686 1740 5277 3478 3479 6050 847 843 841 839 836 834 832 830 828 826 5738 824 1129 1130 3379 6797 4085 3844 3843 3901 4621 1451 1395 5519 4422 4421 5469 4384 4423 2341 2340 4809 5271 3737 3736 3738 6912 5377 424 138 330 6880 3203 3162 5460 6238 6436 1560 5837 5526 5816 5499 998 999 1327 1329 1331 1399 5732 6060 5422 3034 3033 6758 2068 678 4060 1688 6172 1744 837 822 5464 5921 6014 2344 6674 20 1559 3370 1505 4933 677 4582 4580 2410 2032 5254 3350 1577 1576 5725 5278 6076 6116 854 853 4662 6502 2062 835 833 831 829 827 825 820 823 819 5605 6794 4084 2869 2542 2977 3920 5965 1394 1292 5417 2761 3255 3257 3468 6183 2339 2338 5678 3745 3735 3734 6822 5375 5376 139 5087 6885 4136 3161 2814 3498 4021 6433 1546 5471 2163 5524 996 997 5686 2750 4812 4755 1538 2767 6001 5421 2403 3032 6700 4932 676 4581 4895 5005 862 4841 821 2541 5220 2342 5613 6673 19 1461 994 1539 4934 675 4583 3054 2411 2685 5810 5115 1493 1492 5892 6034 2775 5495 861 2714 4297 5642 4301 1051 4657 2060 4649 1289 4697 768 2067 767 2162 6520 3655 2868 2488 5525 5870 3349 1264 1241 1239 1240 3256 3258 6134 5287 2336 2335 5300 5299 3732 3733 5374 381 140 5297 4678 4679 6999 2812 2813 4020 6431 1462 1337 1235 1046 993 995 3410 6453 6467 5575 2053 1540 5857 5659 2213 2402 6698 4936 4935 673 4685 5123 890 889 5745 4887 2487 1383 5286 2337 2255 18 1338 990 1541 4894 672 6672 5088 2686 3290 4438 2957 1393 1268 1168 1163 1161 916 4906 4296 3401 3402 3435 6334 4651 4650 4407 4324 6320 759 4888 758 6516 4212 3656 6634 2444 2443 5438 2075 1259 1226 1225 5465 3910 3957 5983 3357 2333 2334 5482 3731 3730 7039 5372 141 402 4674 4677 2811 2376 5431 6427 3503 2270 1236 1047 1003 989 5787 6443 4033 3602 6484 5825 1542 1544 1725 1983 5782 3415 6694 674 671 4058 1502 915 1020 3952 3332 2486 2074 2332 3902 5373 6671 17 6206 984 1543 4893 669 4311 3292 3291 4419 5116 1585 1392 1267 1167 1162 1160 1159 5485 3399 3400 3434 3951 6448 4652 6329 3386 3367 3962 739 4446 738 740 5620 6747 4512 2083 2081 2077 2076 5307 1224 1223 5546 5849 5958 3358 2452 2331 5436 5453 3728 3729 142 5371 4672 4673 4675 6829 2375 2301 5671 6224 6217 4360 1516 6187 6353 983 2174 6434 3564 3560 4302 2037 1583 1545 1726 1984 2623 3028 3206 4892 668 4057 1503 5305 4291 6099 6296 4510 3348 2330 5544 6951 670 16 6201 981 4680 6692 667 6670 3293 4630 1940 1721 1586 4848 4845 1169 4849 2396 2397 3250 3398 5912 5971 6049 6376 2901 5666 2903 2904 3963 730 6338 729 5619 6808 4513 4511 2082 2079 2078 5553 5773 1221 1220 1222 3881 5924 3359 5268 2329 2343 3154 3727 6856 143 354 342 4946 4676 6938 2386 2300 2267 3071 3486 3488 3490 4365 4366 6346 980 5815 6425 3559 3558 5916 4019 4498 4774 1985 1986 2798 3029 6690 4979 666 4388 6616 6121 3249 2748 1324 4509 4536 2327 2553 6663 15 3492 979 3869 4838 665 4394 4393 5494 1938 1722 1924 4847 4846 4264 6588 4273 4318 3248 5728 2099 3903 5818 2572 2573 2575 2577 5618 6277 721 5144 720 2166 6859 4514 6703 4508 2080 2963 4521 5735 1218 1219 3378 5877 4469 5652 2326 2328 2547 3153 4148 5368 144 4622 6828 7035 5984 5481 1921 2144 3385 3487 3489 3491 3541 6336 2093 978 982 6417 3557 3311 5952 6512 3870 2786 2501 5146 3638 3639 6689 2070 664 3667 6639 3251 3247 2172 5140 4507 3324 2325 3152 2285 14 5681 3493 977 3535 4837 663 6659 3050 2515 1939 5634 4270 3779 3778 3780 5986 3781 4440 2398 2098 2097 5715 1786 2173 2574 2576 2578 2979 6258 715 5141 714 5521 5576 2658 6496 4209 4196 4505 3325 1217 1216 5501 5781 3392 3884 6038 2323 5416 3368 5369 416 145 396 6935 4011 4010 5933 1920 1800 5587 5749 4643 4788 3494 5447 6319 5383 975 6399 5311 3310 3099 3098 6026 6045 2799 3111 6566 6574 6668 4840 4836 662 3666 6263 6351 3246 2171 2726 3195 2091 2324 3751 6658 13 4008 3495 976 3536 4839 661 4316 3049 2516 2517 4269 3341 2897 3433 5992 2886 2885 6344 2231 1785 1617 1569 1568 5120 5016 2724 2725 6239 5143 708 5142 703 704 2135 2389 2647 4506 3753 6464 3346 1215 1214 2133 2753 3391 6023 2322 2321 5588 3752 6839 5367 146 4548 7041 4168 4009 4007 5750 1798 1796 1795 1891 4789 3912 3911 3988 6299 974 973 6384 3565 3309 2612 2611 2613 5040 5038 6555 4062 2616 6638 3661 697 660 3669 2875 4625 4624 5708 5145 2649 5231 5386 710 12 4006 3987 5779 5039 4307 659 6655 4829 2518 2874 4268 3340 2560 5786 5408 2015 2597 2981 4910 1693 1579 1437 1436 5894 5014 2751 3052 3545 6221 634 5452 635 2134 2136 2390 2648 2651 2866 4210 6456 1212 1213 2590 2991 5731 5275 2277 2320 5878 5364 343 147 352 6766 6280 6251 3063 1799 1797 1628 1627 4791 4790 6110 4443 6284 5712 971 972 5829 5831 6343 2265 2264 6066 6539 6550 5584 2286 2615 2971 3659 6633 658 4567 2395 6317 3534 1495 629 2650 1211 6896 7010 6653 11 7055 4005 6266 2249 6546 6667 657 4568 3051 2880 6240 4629 5102 2094 5488 1830 1841 2784 4015 2065 2064 4962 1378 1377 5015 3452 3053 3526 6249 1631 630 623 5582 5385 2783 6260 6203 2652 3126 4211 6452 1210 5428 3369 3918 5982 2132 2276 6637 5352 5353 5363 148 4730 6619 4100 3166 6253 3062 3011 5138 1511 1510 6087 6104 1637 6136 2760 969 970 1844 3066 3972 6326 1811 1810 2998 6015 2207 1790 2224 2782 3523 3660 2071 656 4052 1675 6307 2445 5946 624 3057 1208 2179 10 6202 5446 2601 5439 6632 655 6651 3201 3210 5103 1881 1676 1615 1613 1612 5704 4016 6324 2066 5610 5863 1194 1193 5974 3520 5106 6226 5435 568 637 569 6178 6209 6242 3989 6213 6781 6789 6785 1207 1209 5771 5915 5962 2130 2131 2807 5350 5351 5362 149 4731 4733 6955 3165 2665 3506 3906 4525 3344 1309 1195 1029 992 988 986 967 968 4757 4701 3067 6318 3543 1700 1357 5891 5662 1571 1789 5296 3960 6215 6627 4850 654 4259 1616 2990 2446 2175 5651 6779 1206 7015 6503 9 6143 966 3068 1455 4851 653 5105 5104 4260 5484 1879 1878 1614 1482 1481 5746 6271 5019 2712 3877 5111 760 555 6105 6179 6197 2142 566 567 6159 2593 3517 5505 3529 3511 6774 5269 3700 5281 1204 5515 3914 5459 2128 2129 5528 6908 5349 5348 415 150 380 4732 3167 2664 2309 5928 6086 4823 4822 1196 1039 1015 991 987 985 965 5861 5846 3994 3992 6302 5660 1355 1356 1359 1375 1570 5789 6167 6196 2961 5806 775 652 3588 5282 5018 2713 5677 6124 3710 1205 776 8 6853 2589 964 3993 1454 4312 651 6424 2797 2440 1965 1880 3366 5041 1371 1370 1514 6245 3956 3278 3878 5112 551 552 5472 3377 5579 564 565 5548 3516 6092 3036 5413 2536 2537 6423 2824 2140 1202 1203 2120 2122 2124 2127 2374 6783 5346 5347 5355 151 4484 6864 4243 5943 2308 1905 1706 5953 5434 1284 1227 4664 6039 2040 5970 5205 963 2772 6128 6182 6269 2232 1353 1354 1358 1360 1376 3015 6083 3467 2405 2960 3211 6609 650 3586 5044 3280 3279 554 3519 3645 2119 6416 7 6848 1588 962 6212 5445 4022 649 3983 2796 2437 1966 5654 5748 5042 1257 1256 6230 4703 3955 5244 5533 548 549 553 557 559 561 563 5624 5950 3013 4965 2225 2226 2535 6768 3887 2805 1201 1192 5555 2121 2123 2125 5506 5344 5343 5345 334 152 425 7006 4242 4241 2355 1942 1824 1663 1550 1423 1323 5932 4425 4535 4435 6053 3934 960 5821 5808 2221 5454 1351 1352 5766 4736 1411 1412 6029 5407 2222 2404 2962 3632 6606 648 3587 5043 3841 4428 556 4964 3886 5812 6400 6 6718 1587 959 5864 5874 6646 647 4433 5263 2438 2439 2953 5989 1409 1019 1018 2180 6208 4399 1697 546 547 5705 4870 558 560 562 627 5645 3006 2217 5589 2218 2534 3124 6418 4611 5442 1175 1191 3380 5876 2126 2318 5500 5342 5341 5354 153 6624 6925 4240 4029 6082 2349 5947 1850 1549 1456 1573 4424 4404 3416 3262 5784 5830 958 961 1277 1279 1349 1350 2933 4737 3331 1512 1513 5648 2210 2211 5574 6046 6597 1136 646 4434 6151 4986 4987 2084 1954 4950 3909 7002 1290 5 7047 4028 4654 956 1281 1709 4868 645 6368 4911 2441 2442 5680 4382 6166 927 533 5843 5242 2746 544 545 2745 4869 4480 5644 5295 1140 1270 1474 1476 1955 1558 5663 3125 6765 4951 2092 1152 1174 2164 3381 5918 2319 2548 3096 5339 6903 5340 154 6961 430 4235 4236 4027 6037 4377 6160 5801 4655 1574 1683 2691 4403 3234 2694 2434 954 957 1276 1278 1280 1317 5832 4641 4640 5478 1707 1708 1711 1815 5798 5954 3453 3646 4867 644 4912 4383 5626 542 5322 1777 1150 5394 6361 0 3852 4656 955 1316 1710 6594 643 4914 2999 2581 2918 3817 4381 5260 527 528 532 535 537 543 5245 4427 3853 3315 3876 5294 1274 1401 1475 1535 3403 1736 6762 6764 3705 5249 1148 1151 5593 3628 6571 2730 2549 2660 6760 374 5338 155 309 4234 6945 4026 3850 3848 3847 5887 5235 1684 1839 4333 3276 2915 2571 953 952 4750 2736 4668 1580 1418 4642 3298 2699 2033 1971 5656 1712 1816 2208 2506 3105 3647 2085 642 4913 2720 539 541 3313 5590 1149 6580 2197 308 386 3851 2938 6373 4746 5489 6589 641 6332 4915 2937 3816 4368 5241 524 525 531 534 536 538 5853 6148 3943 3316 3314 2974 1639 1417 5529 5208 1737 6759 1884 4080 3703 1271 1146 1147 1361 6559 6567 3629 6569 3118 3183 5336 5337 156 307 6763 7026 3849 3749 3172 2939 1903 1840 5635 4389 3277 4725 5404 950 951 4334 4332 6256 4748 4745 4744 2700 2505 2504 3326 4524 1972 1973 2287 2627 5716 6635 4989 640 4552 522 540 550 2975 2499 6552 4032 6323 306 4276 6892 2357 5288 4747 2717 4991 505 4553 3819 3818 5240 1440 520 523 5396 5395 1883 5470 5121 2177 4821 3944 6312 6279 1842 1699 3364 5909 2742 1885 6405 2497 3704 3338 1145 1049 6551 6553 4036 3117 3116 6591 6593 7044 5334 157 305 355 5424 3748 3171 2940 1912 1936 2160 4475 5759 3857 949 948 6235 3813 3811 3810 5527 4825 2702 2701 4844 4045 4496 3594 2512 5004 2628 3119 3668 6577 4990 501 4551 521 749 750 3542 6401 4714 5450 5335 6315 304 4229 5685 3865 2912 2802 5504 502 4561 4549 4550 5387 518 519 6250 4391 4390 5628 5122 5090 6189 6273 6300 4013 6291 5166 3553 3591 5320 5065 2498 4671 2820 4670 5206 1037 1048 5980 4037 3337 2645 2644 4065 4092 326 158 303 6861 4699 3683 3842 1937 2019 5724 4327 3858 1435 947 946 6241 3812 3092 3090 2913 2704 2703 5317 6565 6572 6348 3595 5456 3339 3120 3648 6631 1473 499 500 1886 1890 751 752 6354 3699 4713 2659 6929 504 302 393 4749 6247 2706 3642 496 503 507 6294 5388 516 517 4785 4786 3822 3820 3821 5427 1517 1515 5926 3395 3073 5409 6363 6383 6367 5066 3574 2821 6391 3698 2288 1017 1036 6547 5023 4712 5250 2467 2643 3189 4305 159 6874 7001 4182 4120 4444 2311 2312 2898 4310 3859 4669 945 944 1745 4686 3091 3089 3088 2705 3106 6505 3590 2800 6358 4056 4547 3649 4942 6630 5473 494 497 5411 509 4778 753 754 3087 4079 5022 3188 506 301 6812 2822 4687 4792 6603 495 4916 508 511 513 515 6298 4779 3823 2954 2923 5664 4909 4908 5886 3900 2995 2470 2471 5633 2787 6375 6386 3575 6753 6388 6755 938 1016 1312 5942 5024 2468 2465 2466 5601 4188 413 160 7046 6846 6971 2495 2496 5755 4369 6419 2088 943 942 6264 3630 3619 4835 4793 3107 3622 6501 2161 479 6596 6598 6614 6621 6625 3384 492 493 6310 4364 510 4777 756 757 2473 6752 5224 4189 1447 300 335 4219 6943 6494 4794 1242 1888 4363 5457 512 514 526 6309 6321 4776 2696 2695 3270 5172 4907 5805 5071 1958 1959 2472 2475 2477 2790 6711 6751 5226 930 1185 937 6536 6540 5184 5182 2463 2464 2865 6843 4304 161 4225 4220 2550 2551 2896 6403 4367 4992 941 529 5851 6500 6509 6513 6526 6542 6543 5684 473 474 476 478 5710 2152 5702 490 491 5306 4826 3808 2723 4780 1026 1042 2474 913 2462 6950 7022 4917 299 4218 4217 2774 6528 481 4695 3806 6102 5480 928 934 1416 4782 3005 2690 2689 5820 3913 1243 1261 1389 1501 5585 3938 2476 2636 5632 6359 5227 5225 929 907 6531 5188 5185 5183 5181 2371 5535 5809 5314 372 162 4275 298 2818 2819 5774 4294 4295 4993 449 450 452 5854 893 5834 2170 3621 469 470 472 475 477 480 483 485 487 489 6378 4696 3809 2945 4865 4781 1043 1260 5477 912 2362 3807 4216 391 3212 454 5826 482 4694 2914 5919 4864 935 1246 6339 6350 4783 2433 2432 5255 1372 1245 1388 1499 5817 5990 6056 2773 3112 3702 6349 5228 901 1228 906 5902 5187 5186 5189 2317 2370 3383 6996 5313 163 297 2854 2887 3231 4293 6507 447 448 451 453 456 458 460 462 467 468 471 6248 2212 4923 940 484 486 488 498 6392 6412 4693 2580 4862 4784 5415 5175 3930 6517 2361 4124 5723 4215 4255 296 6860 455 464 5031 4691 2451 4863 1410 1247 1385 2178 6371 3004 2250 1694 1507 1384 5537 1500 1581 5669 3009 6078 3473 3474 6707 914 884 900 6519 5703 3893 5211 2459 2242 2316 3143 4123 5312 164 2888 3229 4292 1566 445 446 5941 4344 2167 457 459 461 463 466 5578 6377 4925 4924 4922 4921 4278 5649 530 570 2199 4692 3023 2450 4861 6380 5176 2982 6100 4023 5667 6907 2935 295 316 6932 4097 5236 465 3775 4690 2449 5125 4860 1386 1518 5790 3544 5070 2216 1685 1520 2587 6043 1582 1695 1862 2302 2809 3670 4072 6341 868 883 1044 3616 6511 3892 5822 2240 2241 2845 4125 6777 165 320 3230 5210 5074 443 444 5764 4249 4248 4345 1137 5509 5003 706 5668 6012 6578 4926 6602 3228 3226 5030 2139 571 572 6422 6428 4689 2448 4858 6390 6647 5028 6123 3253 7030 5614 294 4156 4098 4346 1244 3225 3603 2431 4859 4857 1519 1713 2600 3115 6445 6415 2290 6665 6666 4610 1696 1856 2291 2808 3239 6708 6705 859 867 5713 6487 3060 5010 5474 2238 2239 5673 5200 5199 5203 166 7011 4290 2284 441 442 2145 5050 3577 3268 3267 6495 4997 4995 1674 5828 3017 6557 4047 6601 3227 3224 4280 5029 573 574 1291 4787 3024 2447 3323 3652 6645 1858 6697 3058 6919 2430 293 6461 4279 6411 1831 3223 3242 2252 5232 1715 1714 2282 3114 3651 3977 6640 6662 4322 4323 2959 1857 5581 3382 6696 6695 1177 818 858 2259 6478 5009 2458 3059 2236 2237 2543 5927 5201 5198 410 167 5406 439 440 5727 4247 3578 3269 3266 2873 4998 4996 1882 1832 2021 2562 2909 4046 6604 4883 3222 5641 1325 575 576 6438 3991 3025 5554 1717 3662 1860 1859 5165 2715 1848 292 390 4179 2872 2020 3221 3568 2251 1719 1716 5549 3372 6617 6623 3978 6257 4320 4321 4609 1863 2524 6688 6691 5163 5164 814 817 5720 6470 3601 5008 2235 3875 1995 5606 5850 7042 5202 5197 168 437 438 886 4477 3580 3579 5991 3265 2741 5002 4999 5000 2022 2561 2908 3782 4274 6146 4884 2771 6504 5021 577 578 6449 6458 3569 5910 1718 6626 1861 5534 812 5223 4110 1847 291 4272 435 2740 5517 3209 3570 5956 1720 2280 6047 6611 4053 2514 6628 4051 4319 2523 2261 1980 6687 5158 5162 2525 810 813 931 6459 3599 3600 5988 1836 5222 1994 3387 3389 6922 366 169 436 6548 6734 4380 4386 4387 6021 4758 2739 3199 5001 5963 4266 4263 6085 5239 1829 5770 2414 2770 3784 5020 579 580 777 4458 3571 4663 5572 5410 2485 6685 811 1818 4109 1849 290 311 434 2738 3770 3432 3572 1970 1952 5985 3953 6205 2513 1821 3122 4050 4325 2522 2521 5736 5157 5155 5154 808 809 5734 6454 3597 3598 4945 1951 1835 1776 2637 3388 3783 6792 170 2271 4370 3581 2891 5813 2010 3868 5333 2737 5757 3826 5426 3205 5516 3347 1611 1783 1943 2412 5785 4378 728 581 582 6471 4459 4416 4560 5804 1822 6314 5159 2247 1817 4152 1953 289 433 4245 2394 2876 5949 4813 5119 2023 3556 3796 6193 936 1632 3121 6649 6652 3129 3130 3685 5156 920 806 807 5742 6439 3596 3040 5692 5898 1774 5694 1775 3393 6612 6882 171 6984 4246 6599 2890 2422 2009 1779 5807 4759 1567 2663 3825 6237 2697 5109 1491 1575 1784 1944 2413 2889 6397 4571 583 584 6479 6492 3322 3320 2791 2763 4070 6304 6432 2365 2281 288 389 6379 1950 1534 6514 4814 2509 2507 3554 6595 922 921 5608 3123 4326 3697 3664 3684 4069 5160 804 805 888 6210 3615 3039 2718 5151 1772 1773 6171 6130 6194 4985 310 172 3566 2892 2423 2073 1778 1610 1508 1479 1478 3446 6216 2947 2588 1472 1490 5945 6007 2415 2416 6466 4531 2072 585 586 1638 4815 3321 3109 2801 3925 6682 5161 4876 6154 2508 287 4265 3759 5763 1471 4532 3650 3108 5630 3555 6175 899 898 5911 3926 6654 6678 6679 6680 6681 802 803 5751 6190 3839 4875 2602 1969 1770 1771 2141 4077 4702 4140 4984 173 3273 3272 5547 4852 1733 1548 1480 1404 1403 6054 4516 4515 4715 1406 5772 3933 6055 2417 2418 2893 4530 4529 587 588 6518 6533 3620 5107 3633 5977 2096 800 5390 3793 7016 3110 286 4221 4222 2168 1288 6413 6541 3627 5903 4042 6157 778 779 781 6019 905 5583 2297 5577 5261 801 2202 6153 3837 3838 2603 2061 1769 1768 6089 6112 4076 3791 6902 174 408 3282 4426 4501 1906 1870 5612 4497 1305 1304 5622 4570 3318 1165 1405 2996 3931 5690 2419 2420 5811 4335 591 589 590 5753 2768 6544 6549 6587 783 798 799 4359 3792 3653 285 315 7009 5793 1287 3583 5701 6554 6576 6592 764 765 780 782 785 787 789 791 793 795 5672 6127 3835 3836 3840 5284 4760 1765 1767 5093 3790 4244 3789 6804 175 4223 4450 2684 2313 1907 2955 6382 4468 1232 1126 3365 5064 1124 1164 1698 2997 6101 5137 2421 2480 3077 4303 4385 592 593 596 598 1234 5674 1630 784 797 5689 6259 5604 6562 284 4262 6962 1118 5847 3582 600 2727 5124 747 748 5767 4575 2169 786 788 790 792 794 796 6088 3834 3833 5737 6233 3329 1763 1764 6052 5092 3787 349 3788 176 6642 4533 2653 2401 5700 4467 4466 1315 1231 1125 1116 1115 1119 2455 3424 3425 6155 2482 2481 3076 3576 6406 6024 594 595 597 599 602 604 741 5420 815 2165 5131 7024 5621 283 392 3771 1117 5848 4405 601 606 734 742 5765 4330 4329 4576 1275 5568 2146 4494 5930 816 5858 3832 3831 5631 1766 1761 1762 1991 5147 3431 3786 4988 6905 177 7049 2921 2670 2671 4994 3240 4317 4502 1941 6270 1107 1106 5743 6057 3426 3524 6191 5270 3093 6389 6442 2707 1052 616 5647 3390 5580 603 605 735 6129 865 5873 1759 608 282 6636 3168 4522 3981 6396 1629 607 610 1477 5862 3800 3798 3799 4493 4491 4490 5936 2090 866 5095 3444 3830 6204 1758 1760 5869 5966 3429 3430 4130 178 409 4224 2922 5059 5058 3237 3238 6044 4336 5556 4410 1099 1098 3441 6145 3979 3980 6330 6410 6372 5049 1625 1054 1053 2118 6455 6468 6402 5596 4768 5923 5676 891 5696 1757 609 281 3674 3169 2693 6214 1056 4766 611 5937 4740 3801 2946 2902 5603 4492 4489 4487 4486 4928 892 2987 3443 5783 2453 1756 5557 5425 3427 3428 5739 6686 179 4226 6489 3802 3217 3218 5972 3439 3440 3824 4361 1086 1085 5756 4834 6243 6219 5084 5047 5046 5048 1058 1055 5455 6446 4030 4031 4767 4763 2721 4741 2905 918 1010 1755 7034 612 280 6946 3755 3754 4445 2063 1057 4764 613 6440 4739 4738 2579 2409 2407 5542 4488 3867 3866 5595 919 2986 3485 6158 4873 1735 2755 2757 2864 3750 6923 180 313 333 6497 2029 2028 5733 3437 3438 3496 3917 6150 1083 1081 1078 1075 5091 1272 5083 2711 5045 1060 1059 1273 6437 3589 3070 6435 6441 4762 4761 6451 2406 1008 2985 1754 614 279 6847 3756 3797 5148 1073 5419 4765 615 2205 3617 3041 2490 2408 2048 2762 5400 3328 2059 1022 1009 6070 6114 4874 1657 1734 2756 2861 5741 6810 4976 181 4227 4667 2027 2025 2024 3373 5968 6091 6122 2050 1082 1080 1077 1074 1071 1069 1067 1065 1062 1061 2754 6420 3618 3069 2608 2609 4953 4952 939 5693 2047 5643 5979 5780 617 278 4284 4283 4441 1096 1072 6394 4724 618 6457 3606 3042 5758 5769 2046 5838 3846 3263 1176 1023 1027 5616 2596 1636 1656 2034 3412 3413 4177 405 182 394 6936 2304 2026 1838 1837 5768 2087 4843 4637 1100 1084 5191 2089 5096 1070 1068 1066 1064 1063 5430 6381 4807 4824 2607 2266 6460 6483 4723 5209 6469 2045 5839 3445 5796 619 277 4083 3259 4872 1097 1079 4805 4720 620 622 3607 3608 4648 2049 2044 5393 5011 3319 5117 1028 1153 5615 1634 1635 6006 6096 3414 4143 4944 183 4228 4623 4392 5072 1465 1336 1229 1121 1112 1105 1104 6200 6236 6283 6313 5248 2716 5179 1076 1087 6198 4806 4804 2610 2253 2196 2484 4721 4718 2058 5443 2043 1413 1415 6137 7000 621 276 3244 3243 3245 2203 6337 4803 4719 625 6475 3609 3610 5961 4931 2042 2949 5247 5118 5006 1154 1252 1458 1593 5944 3923 3502 6165 6918 184 364 347 6947 4117 4615 4614 1459 1322 1197 1120 1111 1110 5844 5747 3551 3530 3573 6357 6366 6342 1088 1089 1633 6181 4802 4795 2195 2194 6488 6490 4717 4716 6485 2041 1414 1457 3525 626 275 2927 2926 5719 6163 5561 4799 4722 628 2258 3611 4517 3864 5293 1877 5625 3845 5246 1254 1253 5675 1592 1845 5646 3101 3102 4132 6801 185 7017 6664 4665 4572 1521 1460 5896 3397 5213 1127 1128 5845 3552 3079 3078 5706 4018 4448 1626 1090 1091 6177 4800 4796 2426 2193 2192 2489 4975 4974 633 4918 1875 3014 5682 4131 631 274 4166 2837 2310 1823 4772 3085 4798 4711 632 6493 4518 3044 2930 2233 1876 1873 1871 1262 1255 5552 5999 1846 1963 2385 3100 5722 4185 186 6719 3760 2838 1551 1522 2215 5889 5214 2744 1187 1188 2978 4771 2605 2604 2606 3967 6352 5098 1092 1093 6174 4963 4797 5451 2191 2190 6499 6508 4710 5230 6506 1874 6093 3508 6985 636 273 4128 2360 2095 1677 5920 3065 4801 4708 638 709 4519 3043 2929 2928 5136 1872 1387 1263 1265 5884 3949 1964 2368 2785 3173 4213 187 322 379 6966 3184 2839 1552 5935 6126 5216 5215 5332 1285 1286 5788 4773 2243 2244 2777 3968 5099 5097 1094 1095 1166 5938 4808 2460 2189 2188 2491 4709 4706 2056 4520 2936 6125 6147 639 272 4886 5940 4698 1678 4941 6111 3928 4707 705 6524 3623 3045 5458 4538 4539 5193 5052 1266 1340 2591 3019 2369 5800 3174 4090 6878 188 4230 4233 3185 3417 1749 5752 6244 5217 5218 1368 1366 1367 1443 1804 1805 5718 6084 6414 6421 1102 1101 1103 5866 3927 6072 4983 2187 2186 6510 6563 4705 4704 6525 5513 3945 6168 713 271 3419 6071 1751 1750 1445 3481 3294 6570 716 2204 3624 4374 4537 3264 5865 5053 4943 1341 1431 2592 3020 6228 6262 6278 5139 189 395 4231 6858 3418 5922 1752 2461 6287 6335 5324 5323 1441 1442 1444 1578 2992 6031 3480 3976 6426 6486 1108 1109 5688 2766 3895 6059 2185 2184 2492 5803 6579 723 4464 3295 5823 3984 7007 719 270 3420 6220 5530 1913 1446 2794 2984 3626 722 6527 4461 3241 2503 2031 1869 5243 1433 1432 5707 3021 3022 3985 4048 6888 362 190 4267 4232 6970 3584 3421 3528 1914 5814 3363 6364 6374 4014 2972 5657 1469 5607 5959 5272 2428 5661 4398 6429 1113 1114 1170 1258 6048 4948 2183 2182 5650 3394 6515 4647 6529 1867 3456 3459 727 269 3422 6275 2275 2273 1470 2793 3436 3625 732 737 4462 3055 2502 1948 1868 1449 1434 5571 3924 3454 3455 3986 4049 6710 191 6960 6976 6558 4126 3423 3546 2274 2569 2788 3086 6387 4612 4613 5562 1561 5573 5318 2201 2427 3235 4397 1135 1122 1123 1171 5569 6032 2778 2181 2159 2493 2934 4646 2054 4463 1584 3457 5833 736 4 6622 5987 6303 6316 2567 1562 2795 6025 6523 744 6582 3643 3056 5491 2052 5152 1450 1463 6016 6067 4828 3458 5981 5114 192 268 428 4460 6978 3547 3548 2568 2570 3016 3855 6229 3871 4937 1662 1658 1660 1791 2200 5881 4395 3236 2970 5391 1172 1173 5897 5178 5177 2157 2158 2494 3518 4645 4644 6573 5153 3460 4134 755 267 4193 4150 6345 4357 1659 5901 5440 6522 762 2272 3644 4409 4534 5292 3856 1464 1553 1655 5841 4666 3461 7021 193 266 384 4099 4149 2823 5679 4356 6234 2511 2379 1911 1910 5389 1661 1792 5560 3916 3612 3303 3882 4856 1237 1238 1320 3371 2155 2156 5444 3959 6192 6618 772 4504 5174 3462 328 4141 766 265 6875 4151 6409 4352 5219 6450 5570 3635 771 6584 4503 3289 3285 3283 2968 1554 1651 6142 3854 3464 3463 194 264 5429 7014 6911 4350 3872 3232 2654 2510 2378 2377 5403 3896 1793 1794 1967 2672 3613 5076 5075 1408 1318 1319 1321 2153 2154 5729 6135 6169 2917 6530 6532 6590 1653 6981 6900 774 263 6826 4353 4351 2732 5078 1373 3634 863 870 4631 3286 3284 2969 1819 1652 1753 5882 3466 3465 5068 5067 195 353 262 4599 4106 3233 3197 2851 5486 2860 3890 5890 2734 1908 1909 1968 6462 5077 2263 2101 2100 5094 1362 1363 1494 3012 6068 3451 2780 2916 4308 2262 4400 1654 6986 869 398 4653 6973 2733 5079 1374 3636 887 6607 3288 3287 5531 4751 1820 5658 6222 6293 3537 3716 6877 360 196 261 260 4165 5475 3763 3764 5129 3891 5237 2840 2836 5238 2303 2899 5195 5194 2103 2102 5559 4880 4878 1429 5498 6004 5289 1932 2598 6535 4617 4616 4041 2108 904 259 339 5397 3275 1430 4618 924 6610 3640 3641 4752 2260 2109 5929 3531 6306 3717 4071 5069 197 258 403 6865 7019 4137 6835 5127 7012 3726 3722 4890 3351 2900 6480 6474 2105 2104 2586 4881 4879 4877 1527 5867 5543 1892 1931 2599 4620 4619 1012 6629 2110 926 257 3355 2107 1528 4376 1011 1139 3657 6656 6661 6641 2292 2294 2552 5695 4180 6832 198 256 6823 6924 329 5128 6838 4891 5026 3352 3353 4358 2545 2106 5598 5895 4882 4919 1605 1601 1603 1606 1788 5638 6620 5441 4375 6162 6613 2293 1014 255 5126 6906 5025 2544 1602 3510 1045 6184 6650 3658 4043 5135 5134 2384 6331 6615 337 199 254 253 252 5130 6545 370 5027 6927 3354 3614 6473 5113 2546 3376 4920 2941 1898 1897 4810 1604 1607 5730 5957 3637 3220 3885 6131 4418 2519 6992 1142 251 4171 2853 4743 3509 1198 6149 3515 3514 6643 6648 4054 2852 3724 4252 6913 200 250 7036 249 317 4073 4107 4969 3196 2932 6008 6028 2351 2350 5609 5412 1681 1682 2138 4947 3219 2882 6252 1294 4417 3654 1233 248 6954 4429 3170 4734 6094 1293 1296 3513 3128 3127 6669 6657 3723 4251 6866 201 247 246 6934 6872 4967 4966 3281 4420 2828 2827 2829 3271 4735 1851 1852 6585 3950 2881 2758 4558 4557 6108 3725 1295 245 7052 4121 2279 3254 1369 6069 3512 2804 2803 2810 4354 4172 401 202 369 6538 419 4968 4122 4818 4816 3159 3160 5564 6118 2278 2554 6583 6575 2688 2687 6002 4556 4639 4173 1400 244 6915 5315 5908 1426 6042 4638 2003 2307 6660 4355 4250 203 243 242 241 324 4819 4817 4129 3207 3208 4159 4396 2555 2877 3904 5265 2017 1979 4634 1532 4742 6926 6988 1466 240 6862 2879 1919 1531 1557 2001 2002 2841 6754 6722 345 204 239 4820 6983 6879 4039 4158 4160 4636 2878 3213 6568 2352 2016 1978 1671 1670 1739 1556 238 4635 1918 4608 1738 2000 6600 6534 4607 4606 205 376 237 5566 6608 6956 6869 6463 3214 3631 6561 5221 2666 4584 1917 5925 1998 6998 4495 332 4096 2392 6011 1999 5868 4258 4257 397 6887 206 236 235 234 5637 421 4281 4094 4095 4589 4586 4585 4700 2393 2973 2372 3888 233 4178 2621 6073 2373 2646 4256 4176 207 6743 232 231 6989 6881 4590 4588 4587 4191 3200 2622 4328 2556 4483 230 341 3139 4485 2557 6061 4175 357 208 229 7040 6944 6852 4190 3665 4660 3803 2855 2857 228 6693 3785 2859 2856 3758 4174 209 423 5797 351 4192 6737 4523 3181 3757 6997 2858 227 7053 6876 3180 5110 4169 6884 210 226 225 224 6967 223 378 4119 4118 6977 3182 6735 4811 4452 383 211 222 221 4170 6964 6969 6898 220 6845 4453 4451 212 219 387 4454 5955 427 213 218 431 217 6787 214 6975 216 215 3 </DataArray>
        <DataArray type="UInt8" Name="vtkGhostType" format="ascii" RangeMin="0" RangeMax="0">0 0 0 0 0 0 0 0 0 0 0 0 0 0 0 0 0 0 0 0 0 0 0 0 0 0 0 0 0 0 0 0 0 0 0 0 0 0 0 0 0 0 0 0 0 0 0 0 0 0 0 0 0 0 0 0 0 0 0 0 0 0 0 0 0 0 0 0 0 0 0 0 0 0 0 0 0 0 0 0 0 0 0 0 0 0 0 0 0 0 0 0 0 0 0 0 0 0 0 0 0 0 0 0 0 0 0 0 0 0 0 0 0 0 0 0 0 0 0 0 0 0 0 0 0 0 0 0 0 0 0 0 0 0 0 0 0 0 0 0 0 0 0 0 0 0 0 0 0 0 0 0 0 0 0 0 0 0 0 0 0 0 0 0 0 0 0 0 0 0 0 0 0 0 0 0 0 0 0 0 0 0 0 0 0 0 0 0 0 0 0 0 0 0 0 0 0 0 0 0 0 0 0 0 0 0 0 0 0 0 0 0 0 0 0 0 0 0 0 0 0 0 0 0 0 0 0 0 0 0 0 0 0 0 0 0 0 0 0 0 0 0 0 0 0 0 0 0 0 0 0 0 0 0 0 0 0 0 0 0 0 0 0 0 0 0 0 0 0 0 0 0 0 0 0 0 0 0 0 0 0 0 0 0 0 0 0 0 0 0 0 0 0 0 0 0 0 0 0 0 0 0 0 0 0 0 0 0 0 0 0 0 0 0 0 0 0 0 0 0 0 0 0 0 0 0 0 0 0 0 0 0 0 0 0 0 0 0 0 0 0 0 0 0 0 0 0 0 0 0 0 0 0 0 0 0 0 0 0 0 0 0 0 0 0 0 0 0 0 0 0 0 0 0 0 0 0 0 0 0 0 0 0 0 0 0 0 0 0 0 0 0 0 0 0 0 0 0 0 0 0 0 0 0 0 0 0 0 0 0 0 0 0 0 0 0 0 0 0 0 0 0 0 0 0 0 0 0 0 0 0 0 0 0 0 0 0 0 0 0 0 0 0 0 0 0 0 0 0 0 0 0 0 0 0 0 0 0 0 0 0 0 0 0 0 0 0 0 0 0 0 0 0 0 0 0 0 0 0 0 0 0 0 0 0 0 0 0 0 0 0 0 0 0 0 0 0 0 0 0 0 0 0 0 0 0 0 0 0 0 0 0 0 0 0 0 0 0 0 0 0 0 0 0 0 0 0 0 0 0 0 0 0 0 0 0 0 0 0 0 0 0 0 0 0 0 0 0 0 0 0 0 0 0 0 0 0 0 0 0 0 0 0 0 0 0 0 0 0 0 0 0 0 0 0 0 0 0 0 0 0 0 0 0 0 0 0 0 0 0 0 0 0 0 0 0 0 0 0 0 0 0 0 0 0 0 0 0 0 0 0 0 0 0 0 0 0 0 0 0 0 0 0 0 0 0 0 0 0 0 0 0 0 0 0 0 0 0 0 0 0 0 0 0 0 0 0 0 0 0 0 0 0 0 0 0 0 0 0 0 0 0 0 0 0 0 0 0 0 0 0 0 0 0 0 0 0 0 0 0 0 0 0 0 0 0 0 0 0 0 0 0 0 0 0 0 0 0 0 0 0 0 0 0 0 0 0 0 0 0 0 0 0 0 0 0 0 0 0 0 0 0 0 0 0 0 0 0 0 0 0 0 0 0 0 0 0 0 0 0 0 0 0 0 0 0 0 0 0 0 0 0 0 0 0 0 0 0 0 0 0 0 0 0 0 0 0 0 0 0 0 0 0 0 0 0 0 0 0 0 0 0 0 0 0 0 0 0 0 0 0 0 0 0 0 0 0 0 0 0 0 0 0 0 0 0 0 0 0 0 0 0 0 0 0 0 0 0 0 0 0 0 0 0 0 0 0 0 0 0 0 0 0 0 0 0 0 0 0 0 0 0 0 0 0 0 0 0 0 0 0 0 0 0 0 0 0 0 0 0 0 0 0 0 0 0 0 0 0 0 0 0 0 0 0 0 0 0 0 0 0 0 0 0 0 0 0 0 0 0 0 0 0 0 0 0 0 0 0 0 0 0 0 0 0 0 0 0 0 0 0 0 0 0 0 0 0 0 0 0 0 0 0 0 0 0 0 0 0 0 0 0 0 0 0 0 0 0 0 0 0 0 0 0 0 0 0 0 0 0 0 0 0 0 0 0 0 0 0 0 0 0 0 0 0 0 0 0 0 0 0 0 0 0 0 0 0 0 0 0 0 0 0 0 0 0 0 0 0 0 0 0 0 0 0 0 0 0 0 0 0 0 0 0 0 0 0 0 0 0 0 0 0 0 0 0 0 0 0 0 0 0 0 0 0 0 0 0 0 0 0 0 0 0 0 0 0 0 0 0 0 0 0 0 0 0 0 0 0 0 0 0 0 0 0 0 0 0 0 0 0 0 0 0 0 0 0 0 0 0 0 0 0 0 0 0 0 0 0 0 0 0 0 0 0 0 0 0 0 0 0 0 0 0 0 0 0 0 0 0 0 0 0 0 0 0 0 0 0 0 0 0 0 0 0 0 0 0 0 0 0 0 0 0 0 0 0 0 0 0 0 0 0 0 0 0 0 0 0 0 0 0 0 0 0 0 0 0 0 0 0 0 0 0 0 0 0 0 0 0 0 0 0 0 0 0 0 0 0 0 0 0 0 0 0 0 0 0 0 0 0 0 0 0 0 0 0 0 0 0 0 0 0 0 0 0 0 0 0 0 0 0 0 0 0 0 0 0 0 0 0 0 0 0 0 0 0 0 0 0 0 0 0 0 0 0 0 0 0 0 0 0 0 0 0 0 0 0 0 0 0 0 0 0 0 0 0 0 0 0 0 0 0 0 0 0 0 0 0 0 0 0 0 0 0 0 0 0 0 0 0 0 0 0 0 0 0 0 0 0 0 0 0 0 0 0 0 0 0 0 0 0 0 0 0 0 0 0 0 0 0 0 0 0 0 0 0 0 0 0 0 0 0 0 0 0 0 0 0 0 0 0 0 0 0 0 0 0 0 0 0 0 0 0 0 0 0 0 0 0 0 0 0 0 0 0 0 0 0 0 0 0 0 0 0 0 0 0 0 0 0 0 0 0 0 0 0 0 0 0 0 0 0 0 0 0 0 0 0 0 0 0 0 0 0 0 0 0 0 0 0 0 0 0 0 0 0 0 0 0 0 0 0 0 0 0 0 0 0 0 0 0 0 0 0 0 0 0 0 0 0 0 0 0 0 0 0 0 0 0 0 0 0 0 0 0 0 0 0 0 0 0 0 0 0 0 0 0 0 0 0 0 0 0 0 0 0 0 0 0 0 0 0 0 0 0 0 0 0 0 0 0 0 0 0 0 0 0 0 0 0 0 0 0 0 0 0 0 0 0 0 0 0 0 0 0 0 0 0 0 0 0 0 0 0 0 0 0 0 0 0 0 0 0 0 0 0 0 0 0 0 0 0 0 0 0 0 0 0 0 0 0 0 0 0 0 0 0 0 0 0 0 0 0 0 0 0 0 0 0 0 0 0 0 0 0 0 0 0 0 0 0 0 0 0 0 0 0 0 0 0 0 0 0 0 0 0 0 0 0 0 0 0 0 0 0 0 0 0 0 0 0 0 0 0 0 0 0 0 0 0 0 0 0 0 0 0 0 0 0 0 0 0 0 0 0 0 0 0 0 0 0 0 0 0 0 0 0 0 0 0 0 0 0 0 0 0 0 0 0 0 0 0 0 0 0 0 0 0 0 0 0 0 0 0 0 0 0 0 0 0 0 0 0 0 0 0 0 0 0 0 0 0 0 0 0 0 0 0 0 0 0 0 0 0 0 0 0 0 0 0 0 0 0 0 0 0 0 0 0 0 0 0 0 0 0 0 0 0 0 0 0 0 0 0 0 0 0 0 0 0 0 0 0 0 0 0 0 0 0 0 0 0 0 0 0 0 0 0 0 0 0 0 0 0 0 0 0 0 0 0 0 0 0 0 0 0 0 0 0 0 0 0 0 0 0 0 0 0 0 0 0 0 0 0 0 0 0 0 0 0 0 0 0 0 0 0 0 0 0 0 0 0 0 0 0 0 0 0 0 0 0 0 0 0 0 0 0 0 0 0 0 0 0 0 0 0 0 0 0 0 0 0 0 0 0 0 0 0 0 0 0 0 0 0 0 0 0 0 0 0 0 0 0 0 0 0 0 0 0 0 0 0 0 0 0 0 0 0 0 0 0 0 0 0 0 0 0 0 0 0 0 0 0 0 0 0 0 0 0 0 0 0 0 0 0 0 0 0 0 0 0 0 0 0 0 0 0 0 0 0 0 0 0 0 0 0 0 0 0 0 0 0 0 0 0 0 0 0 0 0 0 0 0 0 0 0 0 0 0 0 0 0 0 0 0 0 0 0 0 0 0 0 0 0 0 0 0 0 0 0 0 0 0 0 0 0 0 0 0 0 0 0 0 0 0 0 0 0 0 0 0 0 0 0 0 0 0 0 0 0 0 0 0 0 0 0 0 0 0 0 0 0 0 0 0 0 0 0 0 0 0 0 0 0 0 0 0 0 0 0 0 0 0 0 0 0 0 0 0 0 0 0 0 0 0 0 0 0 0 0 0 0 0 0 0 0 0 0 0 0 0 0 0 0 0 0 0 0 0 0 0 0 0 0 0 0 0 0 0 0 0 0 0 0 0 0 0 0 0 0 0 0 0 0 0 0 0 0 0 0 0 0 0 0 0 0 0 0 0 0 0 0 0 0 0 0 0 0 0 0 0 0 0 0 0 0 0 0 0 0 0 0 0 0 0 0 0 0 0 0 0 0 0 0 0 0 0 0 0 0 0 0 0 0 0 0 0 0 0 0 0 0 0 0 0 0 0 0 0 0 0 0 0 0 0 0 0 0 0 0 0 0 0 0 0 0 0 0 0 0 0 0 0 0 0 0 0 0 0 0 0 0 0 0 0 0 0 0 0 0 0 0 0 0 0 0 0 0 0 0 0 0 0 0 0 0 0 0 0 0 0 0 0 0 0 0 0 0 0 0 0 0 0 0 0 0 0 0 0 0 0 0 0 0 0 0 0 0 0 0 0 0 0 0 0 0 0 0 0 0 0 0 0 0 0 0 0 0 0 0 0 0 0 0 0 0 0 0 0 0 0 0 0 0 0 0 0 0 0 0 0 0 0 0 0 0 0 0 0 0 0 0 0 0 0 0 0 0 0 0 0 0 0 0 0 0 0 0 0 0 0 0 0 0 0 0 0 0 0 0 0 0 0 0 0 0 0 0 0 0 0 0 0 0 0 0 0 0 0 0 0 0 0 0 0 0 0 0 0 0 0 0 0 0 0 0 0 0 0 0 0 0 0 0 0 0 0 0 0 0 0 0 0 0 0 0 0 0 0 0 0 0 0 0 0 0 0 0 0 0 0 0 0 0 0 0 0 0 0 0 0 0 0 0 0 0 0 0 0 0 0 0 0 0 0 0 0 0 0 0 0 0 0 0 0 0 0 0 0 0 0 0 0 0 0 0 0 0 0 0 0 0 0 0 0 0 0 0 0 0 0 0 0 0 0 0 0 0 0 0 0 0 0 0 0 0 0 0 0 0 0 0 0 0 0 0 0 0 0 0 0 0 0 0 0 0 0 0 0 0 0 0 0 0 0 0 0 0 0 0 0 0 0 0 0 0 0 0 0 0 0 0 0 0 0 0 0 0 0 0 0 0 0 0 0 0 0 0 0 0 0 0 0 0 0 0 0 0 0 0 0 0 0 0 0 0 0 0 0 0 0 0 0 0 0 0 0 0 0 0 0 0 0 0 0 0 0 0 0 0 0 0 0 0 0 0 0 0 0 0 0 0 0 0 0 0 0 0 0 0 0 0 0 0 0 0 0 0 0 0 0 0 0 0 0 0 0 0 0 0 0 0 0 0 0 0 0 0 0 0 0 0 0 0 0 0 0 0 0 0 0 0 0 0 0 0 0 0 0 0 0 0 0 0 0 0 0 0 0 0 0 0 0 0 0 0 0 0 0 0 0 0 0 0 0 0 0 0 0 0 0 0 0 0 0 0 0 0 0 0 0 0 0 0 0 0 0 0 0 0 0 0 0 0 0 0 0 0 0 0 0 0 0 0 0 0 0 0 0 0 0 0 0 0 0 0 0 0 0 0 0 0 0 0 0 0 0 0 0 0 0 0 0 0 0 0 0 0 0 0 0 0 0 0 0 0 0 0 0 0 0 0 0 0 0 0 0 0 0 0 0 0 0 0 0 0 0 0 0 0 0 0 0 0 0 0 0 0 0 0 0 0 0 0 0 0 0 0 0 0 0 0 0 0 0 0 0 0 0 0 0 0 0 0 0 0 0 0 0 0 0 0 0 0 0 0 0 0 0 0 0 0 0 0 0 0 0 0 0 0 0 0 0 0 0 0 0 0 0 0 0 0 0 0 0 0 0 0 0 0 0 0 0 0 0 0 0 0 0 0 0 0 0 0 0 0 0 0 0 0 0 0 0 0 0 0 0 0 0 0 0 0 0 0 0 0 0 0 0 0 0 0 0 0 0 0 0 0 0 0 0 0 0 0 0 0 0 0 0 0 0 0 0 0 0 0 0 0 0 0 0 0 0 0 0 0 0 0 0 0 0 0 0 0 0 0 0 0 0 0 0 0 0 0 0 0 0 0 0 0 0 0 0 0 0 0 0 0 0 0 0 0 0 0 0 0 0 0 0 0 0 0 0 0 0 0 0 0 0 0 0 0 0 0 0 0 0 0 0 0 0 0 0 0 0 0 0 0 0 0 0 0 0 0 0 0 0 0 0 0 0 0 0 0 0 0 0 0 0 0 0 0 0 0 0 0 0 0 0 0 0 0 0 0 0 0 0 0 0 0 0 0 0 0 0 0 0 0 0 0 0 0 0 0 0 0 0 0 0 0 0 0 0 0 0 0 0 0 0 0 0 0 0 0 0 0 0 0 0 0 0 0 0 0 0 0 0 0 0 0 0 0 0 0 0 0 0 0 0 0 0 0 0 0 0 0 0 0 0 0 0 0 0 0 0 0 0 0 0 0 0 0 0 0 0 0 0 0 0 0 0 0 0 0 0 0 0 0 0 0 0 0 0 0 0 0 0 0 0 0 0 0 0 0 0 0 0 0 0 0 0 0 0 0 0 0 0 0 0 0 0 0 0 0 0 0 0 0 0 0 0 0 0 0 0 0 0 0 0 0 0 0 0 0 0 0 0 0 0 0 0 0 0 0 0 0 0 0 0 0 0 0 0 0 0 0 0 0 0 0 0 0 0 0 0 0 0 0 0 0 0 0 0 0 0 0 0 0 0 0 0 0 0 0 0 0 0 0 0 0 0 0 0 0 0 0 0 0 0 0 0 0 0 0 0 0 0 0 0 0 0 0 0 0 0 0 0 0 0 0 0 0 0 0 0 0 0 0 0 0 0 0 0 0 0 0 0 0 0 0 0 0 0 0 0 0 0 0 0 0 0 0 0 0 0 0 0 0 0 0 0 0 0 0 0 0 0 0 0 0 0 0 0 0 0 0 0 0 0 0 0 0 0 0 0 0 0 0 0 0 0 0 0 0 0 0 0 0 0 0 0 0 0 0 0 0 0 0 0 0 0 0 0 0 0 0 0 0 0 0 0 0 0 0 0 0 0 0 0 0 0 0 0 0 0 0 0 0 0 0 0 0 0 0 0 0 0 0 0 0 0 0 0 0 0 0 0 0 0 0 0 0 0 0 0 0 0 0 0 0 0 0 0 0 0 0 0 0 0 0 0 0 0 0 0 0 0 0 0 0 0 0 0 0 0 0 0 0 0 0 0 0 0 0 0 0 0 0 0 0 0 0 0 0 0 0 0 0 0 0 0 0 0 0 0 0 0 0 0 0 0 0 0 0 0 0 0 0 0 0 0 0 0 0 0 0 0 0 0 0 0 0 0 0 0 0 0 0 0 0 0 0 0 0 0 0 0 0 0 0 0 0 0 0 0 0 0 0 0 0 0 0 0 0 0 0 0 0 0 0 0 0 0 0 0 0 0 0 0 0 0 0 0 0 0 0 0 0 0 0 0 0 0 0 0 0 0 0 0 0 0 0 0 0 0 0 0 0 0 0 0 0 0 0 0 0 0 0 0 0 0 0 0 0 0 0 0 0 0 0 0 0 0 0 0 0 0 0 0 0 0 0 0 0 0 0 0 0 0 0 0 0 0 0 0 0 0 0 0 0 0 0 0 0 0 0 0 0 0 0 0 0 0 0 0 0 0 0 0 0 0 0 0 0 0 0 0 0 0 0 0 0 0 0 0 0 0 0 0 0 0 0 0 0 0 0 0 0 0 0 0 0 0 0 0 0 0 0 0 0 0 0 0 0 0 0 0 0 0 0 0 0 0 0 0 0 0 0 0 0 0 0 0 0 0 0 0 0 0 0 0 0 0 0 0 0 0 0 0 0 0 0 0 0 0 0 0 0 0 0 0 0 0 0 0 0 0 0 0 0 0 0 0 0 0 0 0 0 0 0 0 0 0 0 0 0 0 0 0 0 0 0 0 0 0 0 0 0 0 0 0 0 0 0 0 0 0 0 0 0 0 0 0 0 0 0 0 0 0 0 0 0 0 0 0 0 0 0 0 0 0 0 0 0 0 0 0 0 0 0 0 0 0 0 0 0 0 0 0 0 0 0 0 0 0 0 0 0 0 0 0 0 0 0 0 0 0 0 0 0 0 0 0 0 0 0 0 0 0 0 0 0 0 0 0 0 0 0 0 0 0 0 0 0 0 0 0 0 0 0 0 0 0 0 0 0 0 0 0 0 0 0 0 0 0 0 0 0 0 0 0 0 0 0 0 0 0 0 0 0 0 0 0 0 0 0 0 0 0 0 0 0 0 0 0 0 0 0 0 0 0 0 0 0 0 0 0 0 0 0 0 0 0 0 0 0 0 0 0 0 0 0 0 0 0 0 0 0 0 0 0 0 0 0 0 0 0 0 0 0 0 0 0 0 0 0 0 0 0 0 0 0 0 0 0 0 0 0 0 0 0 0 0 0 0 0 0 0 0 0 0 0 0 0 0 0 0 0 0 0 0 0 0 0 0 0 0 0 0 0 0 0 0 0 0 0 0 0 0 0 0 0 0 0 0 0 0 0 0 0 0 0 0 0 0 0 0 0 0 0 0 0 0 0 0 0 0 0 0 0 0 0 0 0 0 0 0 0 0 0 0 0 0 0 0 0 0 0 0 0 0 0 0 0 0 0 0 0 0 0 0 0 0 0 0 0 0 0 0 0 0 0 0 0 0 0 0 0 0 0 0 0 0 0 0 0 0 0 0 0 0 0 0 0 0 0 0 0 0 0 0 0 0 0 0 0 0 0 0 0 0 0 0 0 0 0 0 0 0 0 0 0 0 0 0 0 0 0 0 0 0 0 0 0 0 0 0 0 0 0 0 0 0 0 0 0 0 0 0 0 0 0 0 0 0 0 0 0 0 0 0 0 0 0 0 0 0 0 0 0 0 0 0 0 0 0 0 0 0 0 0 0 0 0 0 0 0 0 0 0 0 0 0 0 0 0 0 0 0 0 0 0 0 0 0 0 0 0 0 0 0 0 0 0 0 0 0 0 0 0 0 0 0 0 0 0 0 0 0 0 0 0 0 0 0 0 0 0 0 0 0 0 0 0 0 0 0 0 0 0 0 0 0 0 0 0 0 0 0 0 0 0 0 0 0 0 0 0 0 0 0 0 0 0 0 0 0 0 0 0 0 0 0 0 0 0 0 0 0 0 0 0 0 0 0 0 0 0 0 0 0 0 0 0 0 0 0 0 0 0 0 0 0 0 0 0 0 0 0 0 0 0 0 0 0 0 0 0 0 0 0 0 0 0 0 0 0 0 0 0 0 0 0 0 0 0 0 0 0 0 0 0 0 0 0 0 0 0 0 0 0 0 0 0 0 0 0 0 0 0 0 0 0 0 0 0 0 0 0 0 0 0 0 0 0 0 0 0 0 0 0 0 0 0 0 0 0 0 0 0 0 0 0 0 0 0 0 0 0 0 0 0 0 0 0 0 0 0 0 0 0 0 0 0 0 0 0 0 0 0 0 0 0 0 0 0 0 0 0 0 0 0 0 0 0 0 0 0 0 0 0 0 0 0 0 0 0 0 0 0 0 0 0 0 0 0 0 0 0 0 0 0 0 0 0 0 0 0 0 0 0 0 0 0 0 0 0 0 0 0 0 0 0 0 0 0 0 0 0 0 0 0 0 0 0 0 0 0 0 0 0 0 0 0 0 0 0 0 0 0 0 0 0 0 0 0 0 0 0 0 0 0 0 0 0 0 0 0 0 0 0 0 0 0 0 0 0 0 0 0 0 0 0 0 0 0 0 0 0 0 0 0 0 0 0 0 0 0 0 0 0 0 0 0 0 0 0 0 0 0 0 0 0 0 0 0 0 0 0 0 0 0 0 0 0 0 0 0 0 0 0 0 0 0 0 0 0 0 0 0 0 0 0 0 0 0 0 0 0 0 0 0 0 0 0 0 0 0 0 0 0 0 0 0 0 0 0 0 0 0 0 0 0 0 0 0 0 0 0 0 0 0 0 0 0 0 0 0 0 0 0 0 0 0 0 0 0 0 0 0 0 0 0 0 0 0 0 0 0 0 0 0 0 0 0 0 0 0 0 0 0 0 0 0 0 0 0 0 0 0 0 0 0 0 0 0 0 0 0 0 0 0 0 0 0 0 0 0 0 0 0 0 0 0 0 0 0 0 0 0 0 0 0 0 0 0 0 0 0 0 0 0 0 0 0 0 0 0 0 0 0 0 0 0 0 0 0 0 0 0 0 0 0 0 0 0 0 0 0 0 0 0 0 0 0 0 0 0 0 0 0 0 0 0 0 0 0 0 0 0 0 0 0 0 0 0 0 0 0 0 0 0 0 0 0 0 0 0 0 0 0 0 0 0 0 0 0 0 0 0 0 0 0 0 0 0 0 0 0 0 0 0 0 0 0 0 0 0 0 0 0 0 0 0 0 0 0 0 0 0 0 0 0 0 0 0 0 0 0 0 0 0 0 0 0 0 0 0 0 0 0 0 0 0 0 0 0 0 0 0 0 0 0 0 0 0 0 0 0 0 0 0 0 0 0 0 0 0 0 0 0 0 0 0 0 0 0 0 0 0 0 0 0 0 0 0 0 0 0 0 0 0 0 0 0 0 0 0 0 0 0 0 0 0 0 0 0 0 0 0 0 0 0 0 0 0 0 0 0 0 0 0 0 0 0 0 0 0 0 0 0 0 0 0 0 0 0 0 0 0 0 0 0 0 0 0 0 0 0 0 0 0 0 0 0 0 0 0 0 0 0 0 0 0 0 0 0 0 0 0 0 0 0 0 0 0 0 0 0 0 0 0 0 0 0 0 0 0 0 0 0 0 0 0 0 0 0 0 0 0 0 0 0 0 0 0 0 0 0 0 0 0 0 0 0 0 0 0 0 0 0 0 0 0 0 0 0 0 0 0 0 0 0 0 0 0 0 0 0 0 0 0 0 0 0 0 0 0 0 0 0 0 0 0 0 0 0 0 0 0 0 0 0 0 0 0 0 0 0 0 0 0 0 0 0 0 0 0 0 0 0 0 0 0 0 0 0 0 0 0 0 0 0 0 0 0 0 0 0 0 0 0 0 0 0 0 0 0 0 0 0 0 0 0 0 0 0 0 0 0 0 0 0 0 0 0 0 0 0 0 0 0 0 0 0 0 0 0 0 0 0 0 0 0 0 0 0 0 0 0 0 0 0 0 0 0 0 0 0 0 0 0 0 0 0 0 0 0 0 0 0 0 0 0 0 0 0 0 0 0 0 0 0 0 0 0 0 0 0 0 0 0 0 0 0 0 0 0 0 0 0 0 0 0 0 0 0 0 0 0 0 0 0 0 0 0 0 0 0 0 0 0 0 0 0 0 0 0 0 0 0 0 0 0 0 0 0 0 0 0 0 0 0 0 0 0 0 0 0 0 0 0 0 0 0 0 0 0 0 0 0 0 0 0 0 0 0 0 0 0 0 0 0 0 0 0 0 0 0 0 0 0 0 0 0 0 0 0 0 0 0 0 0 0 0 0 0 0 0 0 0 0 0 0 0 0 0 0 0 0 0 0 0 0 0 0 0 0 0 0 0 0 0 0 0 0 0 0 0 0 0 0 0 0 0 0 0 0 0 0 0 0 0 0 0 0 0 0 0 0 0 0 0 0 0 0 0 0 0 0 0 0 0 0 0 0 0 0 0 0 0 0 0 0 0 0 0 0 0 0 0 0 0 0 0 0 0 0 0 0 0 0 0 0 0 0 0 0 0 0 0 0 0 0 0 0 0 0 0 0 0 0 0 0 0 0 0 0 0 0 0 0 0 0 0 0 0 0 0 0 0 0 0 0 0 0 0 0 0 0 0 0 0 0 0 0 0 0 0 0 0 0 0 0 0 0 0 0 0 0 0 0 0 0 0 0 0 0 0 0 0 0 0 0 0 0 0 0 0 0 0 0 0 0 0 0 0 0 0 0 0 0 0 0 0 0 0 0 0 0 0 0 0 0 0 0 0 0 0 0 0 0 0 0 0 0 0 0 0 0 0 0 0 0 0 0 0 0 0 0 0 0 0 0 0 0 0 0 0 0 0 0 0 0 0 0 0 0 0 0 0 0 0 0 0 0 0 0 0 0 0 0 0 0 0 0 0 0 0 0 0 0 0 0 0 0 0 0 0 0 0 0 0 0 0 0 0 0 0 0 0 0 0 0 0 0 0 0 0 0 0 0 0 0 0 0 0 0 0 0 0 0 0 0 0 0 0 0 0 0 0 0 0 0 0 0 0 0 0 0 0 0 0 0 0 0 0 0 0 0 0 0 0 0 0 0 0 0 0 0 0 0 0 0 0 0 0 0 0 0 0 0 0 0 0 0 0 0 0 0 0 0 0 0 0 0 0 0 0 0 0 0 0 0 0 0 0 0 0 0 0 0 0 0 0 0 0 0 0 0 0 0 0 0 0 0 0 0 0 0 0 0 0 0 0 0 0 0 0 0 0 0 0 0 0 0 0 0 0 0 0 0 0 0 0 0 0 0 0 0 0 0 0 0 0 0 0 0 0 0 0 0 0 0 0 0 0 0 0 0 0 0 0 0 0 0 0 0 0 0 0 0 0 0 0 0 0 0 0 0 0 0 0 0 0 0 0 0 0 0 0 0 0 0 0 0 0 0 0 0 0 0 0 0 0 0 0 0 0 0 0 0 0 0 0 0 0 0 0 0 0 0 0 0 0 0 0 0 0 0 0 0 0 0 0 0 0 0 0 0 0 0 0 0 0 0 0 0 0 0 0 0 0 0 0 0 0 0 0 0 0 0 0 0 0 0 0 0 0 0 0 0 0 0 0 0 0 0 0 0 0 0 0 0 0 0 0 0 0 0 0 0 0 0 0 0 0 0 0 0 0 0 0 0 0 0 0 0 0 0 0 0 0 0 0 0 0 0 0 0 0 0 0 0 0 0 0 0 0 0 0 0 0 0 0 0 0 0 0 0 0 0 0 0 0 0 0 0 0 0 0 0 0 0 0 0 0 0 0 0 0 0 0 0 0 0 0 0 0 0 0 0 0 0 0 0 0 0 0 0 0 0 0 0 0 0 0 0 0 0 0 0 0 0 0 0 0 0 0 0 0 0 0 0 0 0 0 0 0 0 0 0 0 0 0 0 0 0 0 0 0 0 0 0 0 0 0 0 0 0 0 0 0 0 0 0 0 0 0 0 0 0 0 0 0 0 0 0 0 0 0 0 0 0 0 0 0 0 0 0 0 0 0 0 0 0 0 0 0 0 0 0 0 0 0 0 0 0 0 0 0 0 0 0 0 0 0 0 0 0 0 0 0 0 0 0 0 0 0 0 0 0 0 0 0 0 0 0 0 0 0 0 0 0 0 0 0 0 0 0 0 0 0 0 0 0 0 0 0 0 0 0 0 0 0 0 0 0 0 0 0 0 0 0 0 0 0 0 0 0 0 0 0 0 0 0 0 0 0 0 0 0 0 0 0 0 0 0 0 0 0 0 0 0 0 0 0 0 0 0 0 0 0 0 0 0 0 0 0 0 0 0 0 0 0 0 0 0 0 0 0 0 0 0 0 0 0 0 0 0 0 0 0 0 0 0 0 0 0 0 0 0 0 0 0 0 0 0 0 0 0 0 0 0 0 0 0 0 0 0 0 0 0 0 0 0 0 0 0 0 0 0 0 0 0 0 0 0 0 0 0 0 0 0 0 0 0 0 0 0 0 0 0 0 0 0 0 0 0 0 0 0 0 0 0 0 0 0 0 0 0 0 0 0 0 0 0 0 0 0 0 0 0 0 0 0 0 0 0 0 0 0 0 0 0 0 0 0 0 0 0 0 0 0 0 0 0 0 0 0 0 0 0 0 0 0 0 0 0 0 0 0 0 0 0 0 0 0 0 0 0 0 0 0 0 0 0 0 0 0 0 0 0 0 0 0 0 0 0 0 0 0 0 0 0 0 0 0 0 0 0 0 0 0 0 0 0 0 0 0 0 0 0 0 0 0 0 0 0 0 0 0 0 0 0 0 0 0 0 0 0 0 0 0 0 0 0 0 0 0 0 0 0 0 0 0 0 0 0 0 0 0 0 0 0 0 0 0 0 0 0 0 0 0 0 0 0 0 0 0 0 0 0 0 0 0 0 0 0 0 0 0 0 0 0 0 0 0 0 0 0 0 0 0 0 0 0 0 0 0 0 0 0 0 0 0 0 0 0 0 0 0 0 0 0 0 0 0 0 0 0 0 0 0 0 0 0 0 0 0 0 0 0 0 0 0 0 0 0 0 0 0 0 0 0 0 0 0 0 0 0 0 0 0 0 0 0 0 0 0 0 0 0 0 0 0 0 0 0 0 0 0 0 0 0 0 0 0 0 0 0 0 0 0 0 0 0 0 0 0 0 0 0 0 0 0 0 0 0 0 0 0 0 0 0 0 0 0 0 0 0 0 0 0 0 0 0 0 0 0 0 0 0 0 0 0 0 0 0 0 0 0 0 0 0 0 0 0 0 0 0 0 0 0 0 0 0 0 0 0 0 0 0 0 0 0 0 0 0 0 0 0 0 0 0 0 0 0 0 0 0 0 0 0 0 0 0 0 0 0 0 0 0 0 0 0 0 0 0 0 0 0 0 0 0 0 0 0 0 0 0 0 0 0 0 0 0 0 0 0 0 0 0 0 0 0 0 0 0 0 0 0 0 0 0 0 0 0 0 0 0 0 0 0 0 0 0 0 0 0 0 0 0 0 0 0 0 0 0 0 0 0 0 0 0 0 0 0 0 0 0 0 0 0 0 0 0 0 0 0 0 0 0 0 0 0 0 0 0 0 0 0 0 0 0 0 0 0 0 0 0 0 0 0 0 0 0 0 0 0 0 0 0 0 0 0 0 0 0 0 0 0 0 0 0 0 0 0 0 0 0 0 0 0 0 0 0 0 0 0 0 0 0 0 0 0 0 0 0 0 0 0 0 0 0 0 0 0 0 0 0 0 0 0 0 0 0 0 0 0 0 0 0 0 0 0 0 0 0 0 0 0 0 0 0 0 0 0 0 0 0 0 0 0 0 0 0 0 0 0 0 0 0 0 0 0 0 0 0 0 0 0 0 0 0 0 0 0 0 0 0 0 0 0 0 0 0 0 0 0 0 0 0 0 0 0 0 0 0 0 0 0 0 0 0 0 0 0 0 0 0 0 0 0 0 0 0 0 0 0 0 0 0 0 0 0 0 0 0 0 0 0 0 0 0 0 0 0 0 0 0 0 0 0 0 0 0 0 0 0 0 0 0 0 0 0 0 0 0 0 0 0 0 0 0 0 0 0 0 0 0 0 0 0 0 0 0 </DataArray>
      </PointData>
    </Piece>
  </UnstructuredGrid>
</VTKFile>
