<?xml version="1.0"?>
<VTKFile type="UnstructuredGrid" version="2.2">
  <UnstructuredGrid>
    <Piece NumberOfPoints="146" NumberOfCells="250">
      <Points>
        <DataArray type="Float64" NumberOfComponents="3" format="ascii">0.100000000000416 1 0 0 1 0 0.07242270094929616 0.928716154658712 0 0 0.9042857142860055 0 0.1504496488130419 0.920529655141374 0 0.08949214017363682 0.8499193320733645 0 0.2000000000008322 1 0 0 0.8085714285720079 0 0.2499721953898767 0.9185928771667902 0 0.1985034546005834 0.8442209309135895 0 0.07981914983849681 0.755185374622403 0 0.3000000000012483 1 0 0.164717243748273 0.7772037251075432 0 0 0.7128571428580415 0 0.3498228780407905 0.9196059642995654 0 0.2982782210013579 0.8494663949300399 0 0.2569918718770645 0.7888812511183692 0 0.07928054190150086 0.6639934880864441 0 0.1576018681843648 0.6958879033296574 0 0.4000000000016644 1 0 0.2419461962806138 0.7223495853150373 0 0 0.6171428571437529 0 0.4518775995166425 0.9201756489681184 0 0.3974942312305073 0.8548415168053 0 0.3344732598930564 0.7636851316684055 0 0.07947867006930193 0.5692879274260041 0 0.1512795608421133 0.6093594627621804 0 0.2341354436611462 0.6391200623658055 0 0.5000000000020587 1 0 0.3187788313469124 0.6664952827700944 0 0 0.5214285714291634 0 0.5501260307163521 0.9157080124063748 0 0.4982783550828405 0.828329070997229 0 0.4270018182566807 0.7748455101960321 0 0.403454463212996 0.6976365325937561 0 0.07539619259043898 0.4768398233241385 0 0.1430235002238064 0.5157881957001368 0 0.2175071670863923 0.5477913784148303 0 0.3009805024402901 0.5741244053762113 0 0.6000000000013869 1 0 0.3874961043643119 0.6045058592691973 0 0 0.4257142857145927 0 0.6547996067038543 0.9007657124885795 0 0.5904037090422989 0.8429143001779457 0 0.4913158036475584 0.728620835027767 0 0.4745187976455848 0.6356120107071158 0 0.08017840601838515 0.3963300372633093 0 0.1336105785134736 0.4361702689209301 0 0.2005261161267241 0.4579553458730796 0 0.2845914509771853 0.4848763822095441 0 0.3706525466147028 0.5134749220451614 0 0.7000000000006934 1 0 0.5766230053158811 0.7565871942768899 0 0.457563969842983 0.5427700263048028 0 0 0.33 0 0.7543567317362885 0.9205245603071642 0 0.6561937266592245 0.7952487040793246 0 0.5631276294683252 0.6660590631089182 0 0.5449520634070173 0.5736116873632144 0 0.0854102851163888 0.3187555226130791 0 0.1640593670546961 0.3719448044930115 0 0.2643248175621772 0.3987638366763465 0 0.3539299266278165 0.4249789750790705 0 0.4393289521948476 0.4527926136921333 0 0.7999999999999998 1 0 0.733735753435246 0.8320636705894819 0 0.6531478674828473 0.7030485185081183 0 0.5264916765091932 0.482014321178542 0 0.8469936203143578 0.9266230858757655 0 0.8112077680452559 0.8636996853036778 0 0.7394722959120849 0.743280875603507 0 0.6374023866986617 0.6062433926805764 0 0.6148622751821855 0.511310542384763 0 0.1650000004351555 0.2857883829976276 0 0.2462583129076185 0.3160366088497618 0 0.336583731679023 0.3367909035536117 0 0.4214663514767306 0.3644860394694711 0 0.5075735779823183 0.3921138039661038 0 0.8999999999995836 1 0 0.8192566252405327 0.7890860953933757 0 0.7391175425474389 0.634750871670913 0 0.5953929619133022 0.4201954587110724 0 0.9267949192429046 0.9267949192429458 0 0.9016961094998543 0.8502010143526014 0 0.8288651147246973 0.6986797578076659 0 0.7022966507725719 0.5383879928347231 0 0.6812846140412887 0.446044915447124 0 0.2333452383548381 0.2333452372282832 0 0.3251853837121149 0.2418990257178654 0 0.4070425547712776 0.2792204871089636 0 0.4889892423138357 0.3038076761249733 0 0.5758076665880539 0.3296092558990193 0 1 1 0 0.9105973158607927 0.7479451577263729 0 0.8337113423553407 0.5996960087499144 0 0.7760953731115515 0.549932349965911 0 0.6649137529579177 0.3577436959955139 0 1 0.8999999999997368 0 1 0.7999999999994734 0 0.913766045699672 0.649704078805911 0 0.764090628624565 0.4727193297685514 0 0.7509658874862277 0.3837908846492591 0 0.2857883835161864 0.1649999995369853 0 0.4035780771799723 0.2107049125048627 0 0.4711446761746212 0.2206591250436209 0 0.5533431996313982 0.2396037875354144 0 0.643608435054521 0.2642353863415702 0 1 0.69999999999921 0 0.9143104164693288 0.5502457745856388 0 0.8396680954007476 0.5041237028824694 0 0.7333924435874725 0.2993780894363457 0 0.3648957752606031 0.1555527535858053 0 1 0.5999999999989468 0 0.8342331509350035 0.4140361328318219 0 0.8263642251709326 0.3235072125777746 0 0.3187555227431477 0.08541028463096596 0 0.4407949287895321 0.1503338094757088 0 0.5280186054028274 0.15706471926695 0 0.6132366197277308 0.1702836710930531 0 0.7180649978892393 0.1971965142324815 0 1 0.4999999999986943 0 0.916368709783832 0.4515076337375429 0 0.7983682599267166 0.2535536781211906 0 0.3966376598822499 0.07841900855448648 0 0.912755831832754 0.3564464450364736 0 0.8955554812928541 0.2551442917568861 0 0.33 0 0 0.4804947788369185 0.07960233789852754 0 0.5713844803892864 0.08071061624839423 0 0.6649999999991136 0.08289100293350836 0 0.8239593393238148 0.175865982407799 0 1 0.3999999999989749 0 0.4257142857140301 0 0 0.7614399244630436 0.1024449365784281 0 1 0.2999999999992664 0 0.9177753013045606 0.1474028499237799 0 0.521428571427989 0 0 0.6171428571420018 0 0 0.7128571428562255 0 0 0.8564285714281221 0.08289100293390847 0 1 0.1999999999995579 0 0.808571428570815 0 0 1 0.09999999999981467 0 0.9307084157825726 0.07051582244471351 0 0.904285714285429 0 0 1 0 0 </DataArray>
      </Points>
      <Cells>
        <DataArray type="Int32" Name="connectivity" format="ascii">0 1 2 1 3 2 4 0 2 3 5 2 6 0 4 5 4 2 3 7 5 6 4 8 9 4 5 7 10 5 11 6 8 8 4 9 9 5 12 7 13 10 5 10 12 14 11 8 8 9 15 9 12 16 10 13 17 10 18 12 19 11 14 14 8 15 15 9 16 12 20 16 13 21 17 10 17 18 18 20 12 19 14 22 14 15 23 24 15 16 20 24 16 21 25 17 18 17 26 18 27 20 28 19 22 22 14 23 15 24 23 29 24 20 21 30 25 17 25 26 27 18 26 27 29 20 31 28 22 32 22 23 24 33 23 34 24 29 25 30 35 26 25 36 37 27 26 27 38 29 39 28 31 31 22 32 33 32 23 34 33 24 40 34 29 30 41 35 25 35 36 37 26 36 37 38 27 38 40 29 39 31 42 31 32 43 33 44 32 34 44 33 45 34 40 35 41 46 36 35 47 48 37 36 49 38 37 38 50 40 51 39 42 42 31 43 32 52 43 32 44 52 45 44 34 53 45 40 41 54 46 35 46 47 48 36 47 49 37 48 49 50 38 50 53 40 55 51 42 56 42 43 52 56 43 44 57 52 45 57 44 58 45 53 54 59 46 46 60 47 60 48 47 49 48 61 62 50 49 50 63 53 64 51 55 55 42 65 42 56 65 66 56 52 57 66 52 58 57 45 67 58 53 59 60 46 48 60 61 62 49 61 62 63 50 63 67 53 64 55 68 55 65 69 56 70 65 66 70 56 57 71 66 58 71 57 67 72 58 59 73 60 60 74 61 75 62 61 62 76 63 63 77 67 78 64 68 68 55 69 65 79 69 70 79 65 66 80 70 66 71 80 58 72 71 67 81 72 60 73 74 74 75 61 75 76 62 63 76 77 67 77 81 78 68 82 83 68 69 79 83 69 70 84 79 80 84 70 71 85 80 71 72 85 72 81 86 73 87 74 74 88 75 75 89 76 77 76 90 81 77 91 92 78 82 68 83 82 83 79 93 79 84 93 94 84 80 80 85 95 85 72 86 81 96 86 87 88 74 75 88 89 76 89 90 91 77 90 81 91 96 97 92 82 83 97 82 98 83 93 84 99 93 94 99 84 94 80 95 85 100 95 85 86 100 96 101 86 87 102 88 89 88 103 90 89 104 105 91 90 96 91 106 98 97 83 107 98 93 99 107 93 108 99 94 109 94 95 100 109 95 86 101 100 96 110 101 88 102 111 88 111 103 104 89 103 105 90 104 106 91 105 96 106 110 112 107 99 112 99 108 108 94 109 113 109 100 101 113 100 101 110 114 102 115 111 111 116 103 116 104 103 105 104 117 106 105 118 110 106 119 120 112 108 121 108 109 121 109 113 101 114 113 114 110 122 111 115 123 111 123 116 117 104 116 118 105 117 119 106 118 110 119 122 121 120 108 124 121 113 114 124 113 125 114 122 115 126 123 123 127 116 127 117 116 128 118 117 129 119 118 119 130 122 131 120 121 131 121 124 114 125 124 130 125 122 126 132 123 132 127 123 127 128 117 128 129 118 119 129 133 119 133 130 134 131 124 125 134 124 125 130 135 132 136 127 127 136 128 137 129 128 129 138 133 133 139 130 140 134 125 140 125 135 130 139 135 136 137 128 137 138 129 138 141 133 141 139 133 142 140 135 135 139 143 141 144 139 142 135 143 139 144 143 145 142 143 144 145 143 </DataArray>
        <DataArray type="Int32" Name="offsets" format="ascii">3 6 9 12 15 18 21 24 27 30 33 36 39 42 45 48 51 54 57 60 63 66 69 72 75 78 81 84 87 90 93 96 99 102 105 108 111 114 117 120 123 126 129 132 135 138 141 144 147 150 153 156 159 162 165 168 171 174 177 180 183 186 189 192 195 198 201 204 207 210 213 216 219 222 225 228 231 234 237 240 243 246 249 252 255 258 261 264 267 270 273 276 279 282 285 288 291 294 297 300 303 306 309 312 315 318 321 324 327 330 333 336 339 342 345 348 351 354 357 360 363 366 369 372 375 378 381 384 387 390 393 396 399 402 405 408 411 414 417 420 423 426 429 432 435 438 441 444 447 450 453 456 459 462 465 468 471 474 477 480 483 486 489 492 495 498 501 504 507 510 513 516 519 522 525 528 531 534 537 540 543 546 549 552 555 558 561 564 567 570 573 576 579 582 585 588 591 594 597 600 603 606 609 612 615 618 621 624 627 630 633 636 639 642 645 648 651 654 657 660 663 666 669 672 675 678 681 684 687 690 693 696 699 702 705 708 711 714 717 720 723 726 729 732 735 738 741 744 747 750 </DataArray>
        <DataArray type="Int8" Name="types" format="ascii">69 69 69 69 69 69 69 69 69 69 69 69 69 69 69 69 69 69 69 69 69 69 69 69 69 69 69 69 69 69 69 69 69 69 69 69 69 69 69 69 69 69 69 69 69 69 69 69 69 69 69 69 69 69 69 69 69 69 69 69 69 69 69 69 69 69 69 69 69 69 69 69 69 69 69 69 69 69 69 69 69 69 69 69 69 69 69 69 69 69 69 69 69 69 69 69 69 69 69 69 69 69 69 69 69 69 69 69 69 69 69 69 69 69 69 69 69 69 69 69 69 69 69 69 69 69 69 69 69 69 69 69 69 69 69 69 69 69 69 69 69 69 69 69 69 69 69 69 69 69 69 69 69 69 69 69 69 69 69 69 69 69 69 69 69 69 69 69 69 69 69 69 69 69 69 69 69 69 69 69 69 69 69 69 69 69 69 69 69 69 69 69 69 69 69 69 69 69 69 69 69 69 69 69 69 69 69 69 69 69 69 69 69 69 69 69 69 69 69 69 69 69 69 69 69 69 69 69 69 69 69 69 69 69 69 69 69 69 69 69 69 69 69 69 69 69 69 69 69 69 </DataArray>
      </Cells>
      <CellData Tensors="stress">
        <DataArray type="UInt8" Name="vtkGhostType" format="ascii" RangeMin="0" RangeMax="1">0 0 0 0 0 0 0 0 0 0 0 0 0 0 0 0 0 0 0 0 0 0 0 0 0 0 0 0 0 0 0 0 0 0 0 0 0 0 0 0 0 0 0 0 0 0 0 0 0 0 0 0 0 0 0 0 0 0 0 0 0 0 0 0 0 0 0 0 0 0 0 0 0 0 0 0 0 0 0 0 0 0 0 0 0 0 0 0 0 0 0 0 0 0 0 0 0 0 0 0 0 0 0 0 0 0 0 0 0 0 0 0 0 0 0 0 0 0 0 0 0 0 0 0 0 0 0 0 0 0 0 0 0 0 0 0 0 0 0 0 0 0 0 0 0 0 0 0 0 0 0 0 0 0 0 0 0 0 0 0 0 0 0 0 0 0 0 0 0 0 0 0 0 0 0 0 0 0 0 0 0 0 0 0 0 0 0 0 0 0 0 0 0 0 0 0 0 0 0 0 0 0 0 0 0 0 0 0 0 0 0 0 0 0 0 0 0 0 0 0 0 0 0 0 0 0 0 0 0 0 0 0 0 0 0 0 0 0 0 0 0 0 0 0 0 0 0 0 0 0 </DataArray>
        <DataArray type="Int64" IdType="1" Name="vtkOriginalCellIds" format="ascii" RangeMin="0" RangeMax="249">0 1 2 3 4 5 6 7 8 9 10 11 12 13 14 15 16 17 18 19 20 21 22 23 24 25 26 27 28 29 30 31 32 33 34 35 36 37 38 39 40 41 42 43 44 45 46 47 48 49 50 51 52 53 54 55 56 57 58 59 60 61 62 63 64 65 66 67 68 69 70 71 72 73 74 75 76 77 78 79 80 81 82 83 84 85 86 87 88 89 90 91 92 93 94 95 96 97 98 99 100 101 102 103 104 105 106 107 108 109 110 111 112 113 114 115 116 117 118 119 120 121 122 123 124 125 126 127 128 129 130 131 132 133 134 135 136 137 138 139 140 141 142 143 144 145 146 147 148 149 150 151 152 153 154 155 156 157 158 159 160 161 162 163 164 165 166 167 168 169 170 171 172 173 174 175 176 177 178 179 180 181 182 183 184 185 186 187 188 189 190 191 192 193 194 195 196 197 198 199 200 201 202 203 204 205 206 207 208 209 210 211 212 213 214 215 216 217 218 219 220 221 222 223 224 225 226 227 228 229 230 231 232 233 234 235 236 237 238 239 240 241 242 243 244 245 246 247 248 249 </DataArray>
        <DataArray type="Float64" Name="stress" format="ascii" NumberOfComponents="9">107371412.2769889 989094.1321057897 989094.1321057897 14392299.36005614 0 0 0 0 0 108687903.7428027 1464726.996599501 1464726.996599501 14815942.82490025 0 0 0 0 0 108472865.7419256 3080897.530056889 3080897.530056889 12362714.4280698 0 0 0 0 0 109278675.7164801 862355.6104531572 862355.6104531572 15043042.90221629 0 0 0 0 0 107956760.7907763 3232362.713434968 3232362.713434968 12707565.93233945 0 0 0 0 0 109778241.4734241 3362135.156733121 3362135.156733121 16599323.72002407 0 0 0 0 0 111013511.6475465 1954751.948289403 1954751.948289403 17688414.30670949 0 0 0 0 0 109641465.4940367 4749432.25088077 4749432.25088077 9754235.872090943 0 0 0 0 0 111327296.540246 4448994.971639107 4448994.971639107 12568900.77665864 0 0 0 0 0 112428881.8567594 901177.0197262446 901177.0197262446 18371376.73716805 0 0 0 0 0 108691278.5559218 4395684.079924537 4395684.079924537 9199981.151763981 0 0 0 0 0 110551546.63922 4541802.292110528 4541802.292110528 12826392.03714105 0 0 0 0 0 112229199.0261339 4261271.31079811 4261271.31079811 15686217.40638254 0 0 0 0 0 115063456.507618 2462052.828221379 2462052.828221379 21312267.8732023 0 0 0 0 0 114505964.5180798 5438317.582392666 5438317.582392666 17766443.49000122 0 0 0 0 0 110959651.2855826 5637782.614675432 5637782.614675432 6763109.30687714 0 0 0 0 0 112538838.4345251 6218106.815200439 6218106.815200439 8888875.127398642 0 0 0 0 0 115348597.6145404 6852661.391421987 6852661.391421987 12163928.6825306 0 0 0 0 0 117496526.5558285 852182.7828980334 852182.7828980334 21745596.09955456 0 0 0 0 0 115287295.3347069 3881753.776084836 3881753.776084836 16545997.37717251 0 0 0 0 0 109281220.346574 4501850.705226594 4501850.705226594 4853898.18197335 0 0 0 0 0 111061862.6709334 5208788.48032723 5208788.48032723 7066185.009371812 0 0 0 0 0 112856152.2050805 5497013.650238045 5497013.650238045 9623928.848637149 0 0 0 0 0 115213431.8842435 5715667.891928576 5715667.891928576 10372892.33695319 0 0 0 0 0 121404182.5391551 3217303.918677046 3217303.918677046 25848699.59543886 0 0 0 0 0 119203735.120783 6311500.544112326 6311500.544112326 22173868.03581566 0 0 0 0 0 118696376.6989815 8006276.021297491 8006276.021297491 16604392.75967546 0 0 0 0 0 111622173.9911668 5198393.175611402 5198393.175611402 3336624.203238434 0 0 0 0 0 113576764.446341 5923071.184104576 5923071.184104576 4717079.521793307 0 0 0 0 0 115656067.2999802 6880272.087495131 6880272.087495131 6241590.957454527 0 0 0 0 0 116958086.9629835 7576140.990345993 7576140.990345993 9702880.445688397 0 0 0 0 0 126558982.5903015 198087.5257469008 198087.5257469008 26339589.33065396 0 0 0 0 0 121400163.1480931 3919644.139792332 3919644.139792332 18854839.22555264 0 0 0 0 0 119411684.3883538 5638806.670190474 5638806.670190474 10467701.35086309 0 0 0 0 0 109538161.1389613 3730867.522446133 3730867.522446133 789117.4176333817 0 0 0 0 0 111187537.1321522 4365447.03175993 4365447.03175993 1847396.744259404 0 0 0 0 0 113457626.6651788 5145329.810934467 5145329.810934467 3947606.198648655 0 0 0 0 0 118600551.3880889 5714502.637118473 5714502.637118473 3546812.053882207 0 0 0 0 0 132895587.0832014 3969925.927368527 3969925.927368527 30454521.19711275 0 0 0 0 0 126469361.5390651 7092997.800709123 7092997.800709123 26350207.00012421 0 0 0 0 0 124363774.5382584 8862278.275253789 8862278.275253789 18789032.3588211 0 0 0 0 0 122273576.5105208 8211223.285440856 8211223.285440856 10673940.83291172 0 0 0 0 0 112043494.6921971 3920463.70130862 3920463.70130862 277207.6908888582 0 0 0 0 0 113775765.032642 4440723.885522845 4440723.885522845 358071.1004656282 0 0 0 0 0 116437628.7876642 5821892.041061385 5821892.041061385 1908799.594603064 0 0 0 0 0 119177822.5989441 6053850.022913713 6053850.022913713 3562587.373872963 0 0 0 0 0 144520635.8301279 -2717319.730414112 -2717319.730414112 32200443.33331501 0 0 0 0 0 133335918.9911008 2833568.64291704 2833568.64291704 22483387.36467555 0 0 0 0 0 127035046.7430303 4813640.110686912 4813640.110686912 11694508.48386352 0 0 0 0 0 123771944.6804344 4540019.939780836 4540019.939780836 2302832.476090827 0 0 0 0 0 109336981.2418273 2261405.80794772 2261405.80794772 -2429982.406864075 0 0 0 0 0 111124543.1201605 2659073.150555356 2659073.150555356 -2304748.844875115 0 0 0 0 0 112900910.7492327 3613855.327429372 3613855.327429372 -903403.5649589299 0 0 0 0 0 116025604.8791805 3827147.755958421 3827147.755958421 -1719755.948174287 0 0 0 0 0 121031203.3718332 2935100.773056359 2935100.773056359 -3745620.006203934 0 0 0 0 0 155356438.7165085 3583185.00236629 3583185.00236629 31977595.99337887 0 0 0 0 0 139362369.6702847 6334495.362572188 6334495.362572188 29622228.82157482 0 0 0 0 0 132537325.8592156 8651494.523113145 8651494.523113145 20911691.94915767 0 0 0 0 0 128473387.1960537 7982194.112185352 7982194.112185352 10567176.66591947 0 0 0 0 0 123513337.5719046 4994453.088266869 4994453.088266869 2003861.247584122 0 0 0 0 0 111078336.7575128 2097034.171845947 2097034.171845947 -2244897.470264214 0 0 0 0 0 112852573.0320948 2506502.220124296 2506502.220124296 -2142201.800745248 0 0 0 0 0 115690507.4378358 2835061.390623785 2835061.390623785 -3940842.214753255 0 0 0 0 0 116590002.8001588 3540278.598595913 3540278.598595913 -1365576.539968978 0 0 0 0 0 118978375.8977158 1792786.623303616 1792786.623303616 -3792681.230117171 0 0 0 0 0 182331341.3085134 -9859727.198707547 -9859727.198707547 34771296.4319759 0 0 0 0 0 154647297.6795636 -2810974.412637486 -2810974.412637486 27430768.84280778 0 0 0 0 0 140226500.8473601 1319817.412001388 1319817.412001388 12876473.94352457 0 0 0 0 0 132005587.3728295 1481739.635772964 1481739.635772964 1064979.497017231 0 0 0 0 0 126521603.1841947 164374.568462897 164374.568462897 -6559898.985360034 0 0 0 0 0 108745089.8404216 704703.1396669308 704703.1396669308 -4432570.187918871 0 0 0 0 0 109795287.7314724 711045.1068165954 711045.1068165954 -4965678.553488191 0 0 0 0 0 112646558.5079116 611974.1190699246 611974.1190699246 -5722360.180259494 0 0 0 0 0 113757183.7435451 1298039.87087503 1298039.87087503 -4232783.699449802 0 0 0 0 0 118121721.2474334 914115.8206022831 914115.8206022831 -6679520.182796528 0 0 0 0 0 121614598.0177738 -2031153.277586345 -2031153.277586345 -9707252.627351407 0 0 0 0 0 194134452.1506778 3374567.093101069 3374567.093101069 27028139.13902895 0 0 0 0 0 159538178.2398817 -299965.2800504024 -299965.2800504024 29484560.49967011 0 0 0 0 0 144430870.6589777 4949658.66073825 4949658.66073825 22100764.56354105 0 0 0 0 0 135369993.4120221 4608156.690904738 4608156.690904738 9945542.281558396 0 0 0 0 0 127263439.0778785 1682252.241882736 1682252.241882736 -307369.6381036864 0 0 0 0 0 120617613.7206974 -1837870.516078334 -1837870.516078334 -7172008.739503623 0 0 0 0 0 109319729.2708294 228583.7894307312 228583.7894307312 -3774588.515859814 0 0 0 0 0 112002073.3535706 53136.96385878871 53136.96385878871 -5233407.325361862 0 0 0 0 0 110816809.647013 -538360.6370588939 -538360.6370588939 -5747405.745536605 0 0 0 0 0 115200249.8733993 -1162255.310259246 -1162255.310259246 -7871348.164101887 0 0 0 0 0 115109277.7542784 -938586.1130368968 -938586.1130368968 -6614431.323319567 0 0 0 0 0 115180302.3533527 -4613354.441202221 -4613354.441202221 -10201843.05143897 0 0 0 0 0 284233374.8897172 -31717249.6697257 -31717249.6697257 37122038.52515823 0 0 0 0 0 185727720.5142803 -10726785.90795024 -10726785.90795024 23202671.61871283 0 0 0 0 0 158426414.0698547 -11565084.59617557 -11565084.59617557 19892061.96312478 0 0 0 0 0 143536939.6816593 -6932567.823315207 -6932567.823315207 1369123.600151214 0 0 0 0 0 132008829.3513652 -5653973.040005544 -5653973.040005544 -9540018.382940212 0 0 0 0 0 124293675.8096367 -7148077.212073619 -7148077.212073619 -13089786.34718561 0 0 0 0 0 107888295.5919722 -611308.9741049899 -611308.9741049899 -5232570.418417792 0 0 0 0 0 109547674.0499215 -1298061.283984118 -1298061.283984118 -5933061.434250837 0 0 0 0 0 109193036.3147133 -1458496.176103871 -1458496.176103871 -6127602.409326064 0 0 0 0 0 112877887.841378 -2133506.494731199 -2133506.494731199 -7311834.11003792 0 0 0 0 0 111511863.8471908 -2870486.275787792 -2870486.275787792 -8236232.973676713 0 0 0 0 0 117207241.0600533 -3969351.295134796 -3969351.295134796 -10374137.99218869 0 0 0 0 0 118300842.9541321 -8425049.977258462 -8425049.977258462 -13015997.15658699 0 0 0 0 0 169948994.7464329 -25702903.89796707 -25702903.89796707 4366490.932414426 0 0 0 0 0 141724069.4663092 -5358590.300123571 -5358590.300123571 10537573.28708564 0 0 0 0 0 127421510.9092786 -5985329.076876124 -5985329.076876124 -3228904.91540125 0 0 0 0 0 119040611.326911 -8577421.680711972 -8577421.680711972 -11552663.42698009 0 0 0 0 0 112783841.7981063 -10538197.76754592 -10538197.76754592 -14298571.43106884 0 0 0 0 0 108046794.528303 -1158021.344230358 -1158021.344230358 -4331821.077431355 0 0 0 0 0 107843612.3665301 -2249103.7605823 -2249103.7605823 -5772657.510473842 0 0 0 0 0 110840406.1084329 -2737447.553728228 -2737447.553728228 -6701214.037425254 0 0 0 0 0 108683355.8875877 -4005522.977629595 -4005522.977629595 -8405183.296774287 0 0 0 0 0 113679791.7055584 -4951037.45927569 -4951037.45927569 -9491391.744764017 0 0 0 0 0 110818911.2609927 -6280668.167167522 -6280668.167167522 -10867953.59449896 0 0 0 0 0 108207114.828877 -11315900.38896269 -11315900.38896269 -14132936.37633563 0 0 0 0 0 225880129.3166956 -56383577.04764954 -56383577.04764954 40526776.10638553 0 0 0 0 0 154716422.6570033 -24370899.62453678 -24370899.62453678 8311316.27484693 0 0 0 0 0 133186812.4307467 -15587680.63134539 -15587680.63134539 -11096657.36798953 0 0 0 0 0 123605899.3021746 -14788351.02189044 -14788351.02189044 -15880984.88557768 0 0 0 0 0 116387483.2176229 -14719823.70054386 -14719823.70054386 -15166532.998492 0 0 0 0 0 106793888.3067629 -1813017.334949149 -1813017.334949149 -5418129.242116316 0 0 0 0 0 107695168.8824643 -2417086.359061347 -2417086.359061347 -6248429.127303112 0 0 0 0 0 108830903.455074 -3184073.415450185 -3184073.415450185 -6183741.306692396 0 0 0 0 0 107240369.9249702 -4242435.912181402 -4242435.912181402 -8020677.374052549 0 0 0 0 0 110601883.6469066 -5464341.378098069 -5464341.378098069 -8093810.441651721 0 0 0 0 0 107553785.0862294 -7014457.054744055 -7014457.054744055 -10300946.05397933 0 0 0 0 0 113358273.8877837 -9102170.362479081 -9102170.362479081 -11693778.33082603 0 0 0 0 0 110983193.6453199 -14154207.96135758 -14154207.96135758 -12880432.22896537 0 0 0 0 0 124943014.0878133 -38645386.43876863 -38645386.43876863 10760126.9768542 0 0 0 0 0 114891945.1501912 -20605484.13654733 -20605484.13654733 -4051599.422588324 0 0 0 0 0 110039175.2292421 -19107022.37336691 -19107022.37336691 -15395461.70798989 0 0 0 0 0 105085757.8579686 -19139939.21517197 -19139939.21517197 -18421813.14033371 0 0 0 0 0 101567232.9929437 -18132549.50751565 -18132549.50751565 -17115021.20382384 0 0 0 0 0 106775647.2162226 -2118011.288307852 -2118011.288307852 -4734167.060021428 0 0 0 0 0 107180486.6063371 -2885562.44776632 -2885562.44776632 -5467902.805004045 0 0 0 0 0 106132637.213492 -4277106.288328697 -4277106.288328697 -7272187.068286377 0 0 0 0 0 108623877.9956465 -5102325.094507155 -5102325.094507155 -6776093.400709512 0 0 0 0 0 105492146.1028336 -7224581.600510208 -7224581.600510208 -9611722.306113508 0 0 0 0 0 109322734.4900792 -9381636.768033465 -9381636.768033465 -10290518.00849667 0 0 0 0 0 104854821.3418456 -11137498.95893681 -11137498.95893681 -12523007.91368361 0 0 0 0 0 99358110.39514165 -16513528.29526103 -16513528.29526103 -14549281.31719394 0 0 0 0 0 144449555.1906358 -53856898.31899796 -53856898.31899796 35372844.90677804 0 0 0 0 0 118025308.5213024 -27852084.83877586 -27852084.83877586 -9089713.721161317 0 0 0 0 0 113331497.9891194 -23313737.97758289 -23313737.97758289 -17366334.27399723 0 0 0 0 0 108061285.4488308 -22020967.05986363 -22020967.05986363 -15984775.12466957 0 0 0 0 0 103916726.2237415 -19865008.02168561 -19865008.02168561 -12882039.82173257 0 0 0 0 0 105466805.6571864 -2808671.613647271 -2808671.613647271 -5645369.38085013 0 0 0 0 0 106374203.2240779 -3262130.045829158 -3262130.045829158 -6093683.974572062 0 0 0 0 0 106689536.4109818 -4679360.615215085 -4679360.615215085 -6029068.525109976 0 0 0 0 0 104300964.6290322 -6399223.872380761 -6399223.872380761 -8387972.657437187 0 0 0 0 0 106229106.5527628 -7794603.886973346 -7794603.886973346 -7533993.555606494 0 0 0 0 0 103039550.749587 -10697377.93855589 -10697377.93855589 -9935379.612611193 0 0 0 0 0 107081660.2279269 -13296340.40035331 -13296340.40035331 -10443129.44674947 0 0 0 0 0 101136927.5720254 -17433889.60933605 -17433889.60933605 -9725070.394100273 0 0 0 0 0 71660262.40042824 -37613004.25607041 -37613004.25607041 8519360.300734151 0 0 0 0 0 86730090.29532848 -33160485.34255067 -33160485.34255067 -16400509.05958154 0 0 0 0 0 88618822.39859697 -29499827.93595711 -29499827.93595711 -21386674.76042574 0 0 0 0 0 88968618.38915186 -25897111.9217057 -25897111.9217057 -18783185.30379521 0 0 0 0 0 89793764.65124215 -22287592.50424862 -22287592.50424862 -15128429.27864821 0 0 0 0 0 105777514.4529735 -3056362.141497472 -3056362.141497472 -5036084.787479074 0 0 0 0 0 104820501.1680948 -3877639.239979386 -3877639.239979386 -5861061.622926344 0 0 0 0 0 103520616.328586 -5678661.464221276 -5678661.464221276 -7184526.473006284 0 0 0 0 0 105111221.1348233 -6937543.445344048 -6937543.445344048 -6466043.36330991 0 0 0 0 0 101993502.2666149 -8862602.365763852 -8862602.365763852 -8931478.24615757 0 0 0 0 0 103063194.9376098 -10566604.92530912 -10566604.92530912 -9775427.844519783 0 0 0 0 0 104127008.9908079 -12489478.9593745 -12489478.9593745 -8662943.093961854 0 0 0 0 0 98109214.42610745 -14860746.12065793 -14860746.12065793 -11765322.5103932 0 0 0 0 0 90773341.63212398 -18889495.79389093 -18889495.79389093 -11797644.3453285 0 0 0 0 0 67992184.13304509 -29776284.428317 -29776284.428317 2475238.116696862 0 0 0 0 0 76166560.61576214 -24868071.67118653 -24868071.67118653 -17211350.01219987 0 0 0 0 0 87789391.69440742 -26851600.54010081 -26851600.54010081 -15391464.11551135 0 0 0 0 0 89390101.99869435 -24401476.91914923 -24401476.91914923 -11385230.27807845 0 0 0 0 0 90059500.59356479 -20927295.64084229 -20927295.64084229 -8266524.342707859 0 0 0 0 0 105511957.4233604 -4348017.06623637 -4348017.06623637 -5430353.785817555 0 0 0 0 0 104157064.9935257 -6095564.490596799 -6095564.490596799 -5661806.607225746 0 0 0 0 0 101615064.7388626 -7744305.662789362 -7744305.662789362 -7579257.187463795 0 0 0 0 0 102479100.3023504 -9274773.487059375 -9274773.487059375 -6263729.40372023 0 0 0 0 0 102250819.043292 -10811504.96101176 -10811504.96101176 -7128507.086485633 0 0 0 0 0 97450555.93566664 -13331117.06281872 -13331117.06281872 -10175237.12096226 0 0 0 0 0 99255338.55994439 -15227403.46724133 -15227403.46724133 -7671411.338767842 0 0 0 0 0 91055967.24059843 -17612917.02987394 -17612917.02987394 -5657274.836965909 0 0 0 0 0 27986432.42736493 -22882477.26249808 -22882477.26249808 -9122042.776311347 0 0 0 0 0 66137173.2284695 -33795111.27960394 -33795111.27960394 -19449803.09753153 0 0 0 0 0 66144788.58506288 -34478942.28867786 -34478942.28867786 -18930049.24475648 0 0 0 0 0 70274971.5860981 -31194393.16485721 -31194393.16485721 -17444254.58844111 0 0 0 0 0 75412104.19228573 -26436300.37708296 -26436300.37708296 -13425531.76824665 0 0 0 0 0 81107070.28097333 -21942710.33183623 -21942710.33183623 -9911600.403528949 0 0 0 0 0 101835694.9292353 -7930780.406914609 -7930780.406914609 -5472109.386037802 0 0 0 0 0 98822892.80797836 -9781572.425112128 -9781572.425112128 -7367704.159914189 0 0 0 0 0 98544172.87308151 -11562876.78822893 -11562876.78822893 -8349284.829697437 0 0 0 0 0 97858049.69932432 -13245060.74187811 -13245060.74187811 -6410792.619459812 0 0 0 0 0 91747627.93186553 -16025935.03894261 -16025935.03894261 -9465495.522086155 0 0 0 0 0 84450653.39800012 -17848399.56820865 -17848399.56820865 -7245781.402637799 0 0 0 0 0 22761566.20330859 -4591319.100378773 -4591319.100378773 -47205564.99431242 0 0 0 0 0 34239628.42661526 -31088649.36008867 -31088649.36008867 -18057851.50708155 0 0 0 0 0 64665287.20496648 -28174496.22265134 -28174496.22265134 -15534342.8639474 0 0 0 0 0 68671167.86146221 -25035901.33534231 -25035901.33534231 -8889019.381525638 0 0 0 0 0 73872509.86668663 -21638018.45389779 -21638018.45389779 -5005048.85559825 0 0 0 0 0 77985776.43910374 -18090294.43840396 -18090294.43840396 -3489889.545639268 0 0 0 0 0 98438160.57036206 -9617992.992715383 -9617992.992715383 -4705174.851565612 0 0 0 0 0 97877776.63575396 -11346981.15569481 -11346981.15569481 -5376350.584681185 0 0 0 0 0 93263231.51606348 -13790093.45982798 -13790093.45982798 -7688417.412099965 0 0 0 0 0 91332448.69790143 -14775797.42927283 -14775797.42927283 -4813172.769764139 0 0 0 0 0 83513147.66738078 -14976009.28882121 -14976009.28882121 -2862776.222332796 0 0 0 0 0 11971105.75765101 -15190563.13123255 -15190563.13123255 -24727748.55438416 0 0 0 0 0 33863216.17971763 -19370411.03241888 -19370411.03241888 -26425955.71928299 0 0 0 0 0 45955234.40922 -31525842.43883523 -31525842.43883523 -13805683.6346161 0 0 0 0 0 56385479.72679204 -26842407.88790207 -26842407.88790207 -10008688.75778913 0 0 0 0 0 67007581.6385483 -22171200.09557794 -22171200.09557794 -5927908.047835328 0 0 0 0 0 78150861.61523788 -17549416.98420557 -17549416.98420557 -3656145.860820742 0 0 0 0 0 95081164.54696465 -11636642.65553191 -11636642.65553191 -6229929.730374708 0 0 0 0 0 92185470.14763233 -12641062.84128636 -12641062.84128636 -3851723.693677956 0 0 0 0 0 87131160.4767399 -15127549.11521882 -15127549.11521882 -5964932.906540029 0 0 0 0 0 79288346.22919203 -14998456.70352061 -14998456.70352061 -3458827.976859229 0 0 0 0 0 381409.8172042863 4846144.548955022 4846144.548955022 -80348934.32534781 0 0 0 0 0 18341432.64992839 -24402352.56886379 -24402352.56886379 -16020176.89012805 0 0 0 0 0 44885960.74352954 -20220899.92374953 -20220899.92374953 -9721835.721251726 0 0 0 0 0 54979756.56629027 -17419386.28774127 -17419386.28774127 -1293606.055129202 0 0 0 0 0 63394985.81341829 -14495104.73465758 -14495104.73465758 833058.506107094 0 0 0 0 0 70217567.8229522 -14010329.42494704 -14010329.42494704 -2080592.885811568 0 0 0 0 0 93463643.98935379 -10738660.7010143 -10738660.7010143 -3451574.096115396 0 0 0 0 0 90120285.55685577 -12639338.00935691 -12639338.00935691 -4468733.841684056 0 0 0 0 0 85436694.16469981 -12805064.16714858 -12805064.16714858 -1555832.53651245 0 0 0 0 0 80577898.64206007 -12646968.80322666 -12646968.80322666 1177015.748638788 0 0 0 0 0 -462650.0425828641 -11824414.56925538 -11824414.56925538 -32877145.31818229 0 0 0 0 0 15802935.26132298 -3703011.806788535 -3703011.806788535 -21953788.99798397 0 0 0 0 0 33401200.23944556 -21210782.94252039 -21210782.94252039 -6952830.467231777 0 0 0 0 0 47635787.7170313 -16966152.94040781 -16966152.94040781 -2524740.353732685 0 0 0 0 0 61234334.31507648 -13622132.56764688 -13622132.56764688 -488627.7260018194 0 0 0 0 0 72443204.41113061 -12096591.1708173 -12096591.1708173 2530661.175140921 0 0 0 0 0 87729629.15291168 -10825018.84163131 -10825018.84163131 -1653140.950223583 0 0 0 0 0 84696882.9171671 -12420943.94816764 -12420943.94816764 -1929251.108199563 0 0 0 0 0 73430393.89043663 -10606743.00724568 -10606743.00724568 -286466.4282987869 0 0 0 0 0 18594347.73750604 -9753770.3945732 -9753770.3945732 -9899307.204725174 0 0 0 0 0 33884938.36678274 -5906444.245709392 -5906444.245709392 -3721502.302592923 0 0 0 0 0 48359711.85807538 -5268299.01011913 -5268299.01011913 2257856.171449711 0 0 0 0 0 57549018.73738658 -4795534.29879187 -4795534.29879187 3425219.480638575 0 0 0 0 0 64457596.27840927 -9845231.799907751 -9845231.799907751 498855.0881678259 0 0 0 0 0 81506763.46349585 -9495528.45529364 -9495528.45529364 259965.0121864076 0 0 0 0 0 81689315.21085726 -9408607.37054671 -9408607.37054671 2518174.516664463 0 0 0 0 0 76315489.17793009 -8235058.487202291 -8235058.487202291 4207768.07019587 0 0 0 0 0 36320550.64477761 -7487049.308806011 -7487049.308806011 -1076260.363899256 0 0 0 0 0 50265495.2789997 -5483894.382574436 -5483894.382574436 2546863.289681143 0 0 0 0 0 60814087.76505684 -4525717.465779741 -4525717.465779741 3331421.531832528 0 0 0 0 0 68848343.1640373 -3874521.193968913 -3874521.193968913 4921038.469240722 0 0 0 0 0 76239063.96141239 -6495573.204479507 -6495573.204479507 1935396.494201835 0 0 0 0 0 70465290.97640671 -6179451.573472859 -6179451.573472859 2084593.776814227 0 0 0 0 0 67765477.36174878 -3038239.954409545 -3038239.954409545 3566310.480263274 0 0 0 0 0 77749862.27050944 -5535697.724391961 -5535697.724391961 4364749.478727074 0 0 0 0 0 72661447.07299085 -2516191.536303587 -2516191.536303587 4255703.23126941 0 0 0 0 0 73903105.85707204 -2379812.701488568 -2379812.701488568 3134040.971322857 0 0 0 0 0 73741746.22592682 -2160525.342719723 -2160525.342719723 4073955.913495083 0 0 0 0 0 </DataArray>
      </CellData>
      <PointData>
        <DataArray type="Int64" IdType="1" Name="vtkOriginalPointIds" format="ascii" RangeMin="0" RangeMax="145">28 3 134 29 54 120 27 30 92 93 47 26 142 31 46 126 143 107 108 25 124 32 90 139 84 43 127 86 24 117 33 40 110 83 77 106 132 85 74 23 114 34 102 131 76 75 129 141 89 73 63 22 122 111 4 48 99 70 66 35 51 121 59 60 21 130 71 62 119 144 98 67 65 36 55 56 58 61 20 101 97 64 135 53 96 72 113 37 41 57 112 68 2 109 95 137 69 19 18 45 133 81 38 140 116 80 78 17 94 100 79 82 16 125 88 39 138 123 103 87 15 42 145 128 115 49 0 50 91 44 105 14 5 104 13 118 6 7 8 52 12 9 11 136 10 1 </DataArray>
        <DataArray type="UInt8" Name="vtkGhostType" format="ascii" RangeMin="0" RangeMax="0">0 0 0 0 0 0 0 0 0 0 0 0 0 0 0 0 0 0 0 0 0 0 0 0 0 0 0 0 0 0 0 0 0 0 0 0 0 0 0 0 0 0 0 0 0 0 0 0 0 0 0 0 0 0 0 0 0 0 0 0 0 0 0 0 0 0 0 0 0 0 0 0 0 0 0 0 0 0 0 0 0 0 0 0 0 0 0 0 0 0 0 0 0 0 0 0 0 0 0 0 0 0 0 0 0 0 0 0 0 0 0 0 0 0 0 0 0 0 0 0 0 0 0 0 0 0 0 0 0 0 0 0 0 0 0 0 0 0 0 0 0 0 0 0 0 0 </DataArray>
      </PointData>
    </Piece>
  </UnstructuredGrid>
</VTKFile>
